NAME : portgen-200-204
COMMENT : portgen N=200, seed=204
TYPE : TSP
DIMENSION : 200
EDGE_WEIGHT_TYPE : EUC_2D
NODE_COORD_SECTION
1 676798 199883
2 381353 524592
3 40352 723646
4 937792 951839
5 235121 851724
6 324690 855879
7 911795 564790
8 334306 284259
9 236008 434769
10 780528 891805
11 187803 31331
12 477297 184151
13 809717 443051
14 352964 854742
15 90399 969511
16 425720 274796
17 897001 194006
18 802025 15334
19 557984 239599
20 250118 43792
21 803567 262327
22 304672 981767
23 570242 18775
24 622372 711402
25 257656 213936
26 161475 904828
27 480788 114218
28 129967 402001
29 302882 187347
30 722566 25018
31 165661 698192
32 701721 191328
33 48157 62362
34 551207 930028
35 994548 315530
36 661887 524606
37 177113 566592
38 730330 282974
39 550543 363079
40 54183 407715
41 140168 165617
42 132175 65381
43 803850 727527
44 573075 705672
45 145849 739663
46 464127 627956
47 245050 934587
48 381905 278961
49 85213 738080
50 251436 287267
51 468232 259292
52 657218 849940
53 73767 995857
54 772652 415407
55 310367 402440
56 828926 597209
57 41498 982903
58 560891 537704
59 453141 767133
60 809423 769196
61 977148 813126
62 678591 707281
63 847298 402594
64 867387 327173
65 492824 734472
66 510322 135135
67 52711 651743
68 578789 542959
69 124119 149271
70 504489 266145
71 274385 805941
72 896249 376652
73 762514 651000
74 949365 537769
75 87288 979311
76 411573 758040
77 245255 516963
78 776945 333096
79 206581 5475
80 271150 530808
81 871738 623381
82 910917 44221
83 128054 22985
84 700960 664845
85 220389 909890
86 588339 915372
87 679845 830112
88 357622 219108
89 567870 161627
90 930336 514202
91 196013 861912
92 56022 962015
93 862734 886940
94 224218 8489
95 523688 555804
96 841998 459274
97 928881 594598
98 677806 359012
99 126096 66137
100 19030 543406
101 83129 787737
102 607432 573086
103 783297 549661
104 702018 283240
105 654229 890004
106 108877 198091
107 481786 715346
108 688809 412464
109 694500 316318
110 366415 769041
111 896888 634823
112 645815 676983
113 826761 800601
114 307940 106759
115 46814 807960
116 517089 284630
117 507398 40331
118 405324 997922
119 380125 340675
120 273205 450270
121 192440 907900
122 642074 754647
123 658915 207175
124 813458 251898
125 767837 877205
126 51072 19337
127 19322 211069
128 26316 798498
129 280339 567101
130 167761 785375
131 169536 361342
132 10034 203959
133 697564 200977
134 556016 727139
135 56431 481634
136 599005 442601
137 548481 489209
138 717968 877551
139 615500 434746
140 650666 28263
141 520262 740839
142 938997 261439
143 638424 155747
144 274596 303439
145 342766 204347
146 441905 652985
147 284244 791571
148 851265 749838
149 359418 152864
150 36678 781363
151 591674 378712
152 601231 739573
153 356943 310233
154 80339 757883
155 572644 870569
156 523902 976900
157 224334 963414
158 343469 516551
159 77098 218463
160 352694 947726
161 841558 403151
162 690461 275067
163 889959 220292
164 841369 808907
165 132266 407734
166 797211 857617
167 862101 780097
168 504361 543361
169 516504 975583
170 917969 121873
171 78648 56133
172 950745 395040
173 362788 38753
174 962523 9176
175 901611 630972
176 908468 550511
177 20597 628943
178 984152 734057
179 516611 821134
180 235212 813581
181 793728 104756
182 839913 450771
183 791920 467768
184 26155 829293
185 600626 304715
186 554027 67922
187 316851 721721
188 39257 291047
189 382553 61518
190 290915 155902
191 703680 20235
192 573695 318685
193 614005 692455
194 17703 411329
195 988177 36592
196 517206 687211
197 374956 613254
198 567845 10726
199 739282 229023
200 355783 71740
