NAME : portgen-1300-1305
COMMENT : portgen N=1300, seed=1305
TYPE : TSP
DIMENSION : 1300
EDGE_WEIGHT_TYPE : EUC_2D
NODE_COORD_SECTION
1 821581 888306
2 870198 71525
3 392615 956640
4 761203 215066
5 215745 50364
6 801568 573253
7 101088 57672
8 872998 473914
9 19169 484415
10 733481 1926
11 229309 86369
12 526913 739703
13 653587 748071
14 131143 479878
15 811599 902857
16 665690 267855
17 820890 393183
18 966454 892555
19 530995 44970
20 495869 801894
21 760767 183381
22 590633 473146
23 295456 438143
24 236026 353628
25 941335 711875
26 235516 109896
27 451475 535409
28 777006 553725
29 67415 477015
30 105070 500060
31 425644 716232
32 719196 413851
33 289596 618186
34 982619 627941
35 762215 434855
36 237888 665541
37 543079 21606
38 766410 119413
39 634893 991503
40 962697 99861
41 680655 654128
42 374808 311538
43 477213 949458
44 548658 407039
45 103586 348268
46 909935 903053
47 282754 61014
48 564006 95225
49 640302 569027
50 706736 176043
51 803250 244522
52 390931 841474
53 31219 581387
54 735088 139936
55 58196 827548
56 5066 660376
57 373428 756802
58 590124 522590
59 433478 658181
60 849845 194371
61 977883 413592
62 921205 586172
63 631604 993365
64 274610 701605
65 990386 185022
66 384325 494956
67 933307 135149
68 94795 20278
69 280699 618005
70 721414 954622
71 515979 890477
72 557193 909215
73 370384 496342
74 981848 696581
75 429410 570640
76 820615 938696
77 578640 521714
78 791718 308293
79 311215 255781
80 746679 10940
81 300688 117082
82 418522 103574
83 311568 114589
84 103183 464213
85 386417 93781
86 540742 736896
87 228771 279204
88 373755 39187
89 834952 399490
90 794454 323311
91 682149 18828
92 954926 979445
93 884334 267243
94 76434 829733
95 823580 980205
96 917095 816486
97 231588 627632
98 413879 779082
99 661706 277988
100 535459 331197
101 661390 582357
102 902127 106098
103 888491 801787
104 983770 599195
105 637380 524475
106 231858 481482
107 432201 766473
108 93845 484202
109 885493 790889
110 689694 532485
111 452883 825194
112 928753 55219
113 432390 958384
114 834769 122672
115 390713 571968
116 55416 235757
117 762110 269979
118 91452 200667
119 586627 188453
120 885600 400132
121 381749 285545
122 140039 291094
123 527322 91901
124 887732 176368
125 195242 455495
126 944313 539033
127 887275 963491
128 275780 425633
129 820247 632147
130 14645 687823
131 215160 795317
132 713594 237248
133 142726 946313
134 341443 141106
135 239151 1944
136 596469 709125
137 595647 234198
138 588172 913849
139 937919 965262
140 779439 6756
141 138137 202621
142 108026 702889
143 356807 260099
144 522162 524862
145 127253 145139
146 859224 445520
147 949301 883655
148 803662 672623
149 689897 905840
150 702922 613472
151 153982 922470
152 396929 188485
153 317357 741692
154 431006 184385
155 606683 15680
156 903471 295384
157 504894 869506
158 828599 769639
159 846015 829938
160 433585 470102
161 256415 435602
162 438183 625678
163 847962 673999
164 312196 407162
165 916840 846479
166 482843 753533
167 358578 763758
168 103285 842752
169 697726 238520
170 874289 587168
171 414084 692223
172 91276 657150
173 888724 423621
174 7337 323623
175 35693 129662
176 360426 282735
177 988999 856443
178 130628 400448
179 563891 633170
180 85200 474605
181 43965 192485
182 310096 19515
183 601596 211248
184 204108 847743
185 980782 404978
186 762302 522392
187 794245 303922
188 109675 973679
189 446602 581740
190 495050 447513
191 110107 679025
192 321961 442235
193 802514 290357
194 443436 339063
195 162162 892036
196 638644 849983
197 257738 469311
198 824866 891692
199 897978 787353
200 547475 915044
201 977018 425596
202 828572 588180
203 19554 681401
204 960774 546764
205 53928 840271
206 957012 224828
207 471008 193163
208 835961 193982
209 934747 840785
210 194648 709903
211 313270 416754
212 300268 65737
213 427959 336705
214 693819 206064
215 284368 428274
216 12905 899838
217 527811 654779
218 490501 885279
219 208017 128797
220 606274 608532
221 355610 602651
222 144414 452259
223 578766 221889
224 549714 192000
225 41351 488160
226 197873 691913
227 502985 119200
228 902138 77180
229 897785 173793
230 97679 134275
231 473383 831976
232 940490 445395
233 484660 354360
234 80414 18749
235 614397 614071
236 644267 742746
237 799434 706488
238 512029 621356
239 913769 181067
240 163599 350779
241 438920 520025
242 108385 150092
243 954890 180929
244 959347 82415
245 170118 136140
246 804865 189268
247 514400 992202
248 964265 612864
249 803217 437926
250 940229 957409
251 308120 368646
252 28401 690571
253 49240 677848
254 583528 352892
255 164309 721208
256 117832 815369
257 3675 961538
258 329409 284115
259 317575 948287
260 481130 871796
261 551142 642487
262 78519 656987
263 305950 275620
264 714344 108862
265 657247 834181
266 37828 560876
267 16757 442390
268 232947 623551
269 516350 146846
270 820682 670775
271 863353 11060
272 601284 298322
273 584997 162377
274 110748 857412
275 686252 688644
276 898519 694354
277 780678 106047
278 919581 747244
279 351888 586011
280 457624 425689
281 161498 436681
282 532210 493534
283 857854 106772
284 214084 705352
285 376540 167032
286 173366 460163
287 262035 792486
288 973277 856788
289 861809 972471
290 737406 558706
291 923731 128333
292 651238 231558
293 672683 601146
294 28666 523223
295 584535 126174
296 409467 810997
297 770305 653650
298 497408 403190
299 749024 808798
300 325045 728209
301 300568 138276
302 120005 127545
303 764912 770186
304 43116 549120
305 433364 318434
306 718578 828665
307 1476 331449
308 16222 350500
309 666376 878559
310 996126 454664
311 357747 405285
312 380307 648331
313 866463 35090
314 340157 134489
315 27573 203090
316 813671 312688
317 539107 418971
318 840128 95066
319 126857 319788
320 215336 322182
321 934770 150106
322 527097 129870
323 768427 4181
324 430689 121974
325 787186 462317
326 63033 614534
327 781224 121954
328 914537 987879
329 599169 701034
330 287417 669845
331 643328 723327
332 333784 111182
333 383664 568471
334 301567 871605
335 563022 12040
336 919811 544401
337 91372 533808
338 391630 743212
339 624061 258353
340 733793 878583
341 435921 639123
342 847072 357728
343 559762 90344
344 978904 427925
345 35306 271656
346 793498 255251
347 756766 203295
348 402370 390368
349 58733 993289
350 738240 25214
351 380120 172335
352 388181 908602
353 26396 423910
354 767462 423496
355 562192 824193
356 8975 171243
357 665727 15760
358 876347 388077
359 966561 130488
360 708811 993296
361 509737 308278
362 133365 537807
363 631920 747475
364 156220 182769
365 507411 967720
366 975749 200564
367 696161 909599
368 869608 264677
369 973395 831311
370 481380 171684
371 123782 848415
372 719113 42010
373 761918 485220
374 121886 218959
375 571375 654895
376 234148 875963
377 485878 770519
378 49464 179555
379 476174 478581
380 38994 761719
381 450514 936151
382 942115 390507
383 700410 160560
384 452130 623716
385 253842 391126
386 266190 747602
387 559113 53916
388 759148 633773
389 822400 362845
390 488342 452364
391 271301 677638
392 143775 745692
393 517206 39598
394 258448 305654
395 209188 709048
396 812547 349679
397 577469 90253
398 905494 376180
399 289301 665197
400 282862 128144
401 662819 759041
402 730616 119011
403 383593 556509
404 732188 740186
405 253313 9866
406 921107 170519
407 269393 329946
408 949172 100835
409 358682 851862
410 485012 324230
411 871258 786932
412 340854 125697
413 728307 507148
414 16985 440102
415 670322 202638
416 901585 82214
417 109531 478476
418 531256 100781
419 408245 813828
420 796519 416370
421 680916 406586
422 820641 884958
423 837789 25614
424 8824 451771
425 361946 398346
426 359195 849199
427 994875 80223
428 226559 580605
429 649509 252139
430 587754 282811
431 148264 918360
432 943666 836942
433 328949 514520
434 349877 384435
435 492156 923557
436 92010 906910
437 489915 86666
438 965035 22059
439 792057 260630
440 899137 147701
441 857638 764845
442 852348 387510
443 54374 983225
444 138548 272588
445 149527 16736
446 750903 23810
447 321672 872962
448 324359 774006
449 916671 733975
450 919923 815730
451 233557 748193
452 552634 214245
453 540707 594349
454 996850 607364
455 25849 243334
456 442057 376920
457 102612 571017
458 531907 124454
459 596687 70703
460 512583 554943
461 597849 615902
462 464511 676425
463 689999 343817
464 354276 275670
465 545958 370686
466 25208 184693
467 234781 655802
468 705644 480717
469 662233 281330
470 855602 929919
471 386537 67845
472 760005 594583
473 418886 135001
474 559298 645246
475 182963 980542
476 419729 641001
477 188017 549237
478 790521 48864
479 513412 896831
480 508600 59989
481 932115 715519
482 751761 95930
483 856797 374212
484 616915 508028
485 152130 396906
486 565156 951441
487 887739 532040
488 135213 956848
489 427884 915274
490 885904 641134
491 830404 457445
492 767069 485969
493 438570 309689
494 432932 138850
495 799005 331432
496 863802 154204
497 129199 458696
498 364763 435095
499 180105 227965
500 459370 462038
501 707117 644023
502 759342 541828
503 150138 962284
504 873931 702048
505 110667 480832
506 615932 374561
507 97825 177168
508 196186 777911
509 586319 293064
510 731166 421701
511 194106 388949
512 48658 690091
513 689789 921132
514 192099 345911
515 381901 172928
516 82916 725836
517 804607 405071
518 25202 455842
519 359619 589900
520 289782 660658
521 723369 139867
522 407684 377303
523 137325 474852
524 105546 439107
525 768907 443630
526 242996 834194
527 846063 286442
528 379122 981280
529 839416 354270
530 516625 694295
531 602665 284031
532 412265 450008
533 757463 476064
534 966877 720521
535 39842 721334
536 672365 147212
537 524156 287535
538 178705 359912
539 542886 762215
540 310969 708508
541 81716 837828
542 829285 687606
543 570263 798885
544 313570 354598
545 647608 549137
546 488965 639097
547 550057 568448
548 988292 576157
549 615710 120148
550 198598 777413
551 931966 343330
552 128138 60398
553 361914 405168
554 4909 158457
555 716178 580237
556 667709 484817
557 706662 967488
558 205330 963567
559 733973 843817
560 461715 181306
561 860353 846729
562 521923 262429
563 789367 329035
564 19073 463757
565 925621 773536
566 355002 384428
567 46036 730731
568 40798 596898
569 131165 861796
570 482275 606696
571 64912 469752
572 892882 466301
573 688784 642236
574 117174 287628
575 779080 659257
576 557083 151952
577 194527 425061
578 422410 547537
579 297293 397406
580 19599 765016
581 274002 143112
582 676181 109482
583 515325 197957
584 591934 240360
585 278704 563094
586 846392 446344
587 64737 802457
588 624222 708400
589 652201 96861
590 840018 241829
591 31741 621666
592 444158 160605
593 499534 211890
594 708247 936554
595 215406 842841
596 4963 890804
597 583092 919180
598 760303 618567
599 405015 90424
600 842078 980383
601 990034 20313
602 447610 537250
603 627516 935416
604 707794 33922
605 925527 210520
606 839290 360739
607 182000 176757
608 760052 383197
609 560019 757001
610 349178 896758
611 792941 501509
612 398282 298320
613 573060 826078
614 998734 527486
615 174941 688806
616 606 618279
617 171334 629498
618 402539 671002
619 439666 267400
620 400552 116337
621 651871 951245
622 587375 318648
623 49900 503454
624 492522 284772
625 346120 934225
626 619832 877529
627 915483 153272
628 979777 371754
629 848979 818111
630 134711 956513
631 495749 440394
632 633369 809189
633 558649 888044
634 773363 863352
635 126857 256597
636 890674 275247
637 410880 414953
638 276925 915412
639 586026 245009
640 318543 201306
641 977099 180622
642 392774 218427
643 193056 560211
644 984910 362144
645 70849 514494
646 897638 576314
647 140542 143955
648 225662 376623
649 540364 172422
650 41723 134487
651 917427 247512
652 966228 144814
653 957125 439209
654 484754 697055
655 960216 419565
656 386843 486834
657 747262 620217
658 58875 919435
659 299852 489414
660 583527 182025
661 347680 600941
662 821628 992369
663 339170 643161
664 309018 266066
665 457827 837715
666 430658 888971
667 284793 898977
668 814462 490264
669 433360 772557
670 159552 273620
671 260359 495496
672 778617 888824
673 166814 296696
674 754685 148172
675 804784 582500
676 67604 274297
677 714594 204007
678 703829 28456
679 962719 67250
680 330352 466861
681 5849 712197
682 537502 686595
683 159206 891347
684 708217 858438
685 453403 762178
686 164749 151679
687 684629 1026
688 114420 73382
689 886347 617621
690 288539 310714
691 680442 241768
692 935714 990966
693 831865 718460
694 351468 598198
695 739771 923114
696 782047 574922
697 319154 397374
698 108871 108680
699 810866 777591
700 774403 93432
701 410349 137064
702 859633 494070
703 902057 825836
704 338583 723627
705 372142 985369
706 676987 364520
707 327478 407237
708 684813 430927
709 393042 140128
710 577724 50526
711 80480 930626
712 84034 359970
713 351828 27685
714 292046 190559
715 98968 288583
716 734798 162719
717 245478 303170
718 633727 315922
719 914289 528477
720 306152 400938
721 325418 211340
722 20474 689245
723 842633 851420
724 490887 959183
725 45545 81186
726 816633 620307
727 678622 485820
728 358633 247630
729 891585 556462
730 860343 586135
731 911546 810105
732 417475 971203
733 659951 465646
734 344046 638233
735 564604 833393
736 940039 433859
737 94583 496537
738 233892 460173
739 252003 598214
740 1337 104198
741 136099 735583
742 330216 512832
743 377036 924692
744 745243 274274
745 643219 168080
746 971875 276056
747 963873 472759
748 460898 891558
749 116757 523936
750 455353 382460
751 599417 892673
752 957846 941346
753 945086 81050
754 290091 165790
755 108783 433940
756 502386 617310
757 913242 692263
758 614260 635490
759 846232 944715
760 510305 768392
761 348889 820109
762 182880 182143
763 233975 47366
764 476013 153236
765 551451 152842
766 170082 86213
767 489431 567396
768 601812 518788
769 822341 637952
770 898572 741546
771 78460 800527
772 763969 874827
773 819190 151765
774 93175 781729
775 238783 413531
776 415545 963521
777 972485 302510
778 212377 513204
779 403241 390449
780 339534 426298
781 258708 652138
782 267217 367236
783 355480 701858
784 853341 38415
785 873072 462494
786 542314 64503
787 705932 96773
788 352847 385368
789 847624 880369
790 969766 720771
791 644124 85564
792 813701 125153
793 894133 517943
794 818995 122194
795 211916 899953
796 665447 783926
797 764880 436078
798 199231 13956
799 94595 667195
800 521980 433822
801 304141 212806
802 811963 518012
803 769406 329981
804 149820 847332
805 408377 694433
806 694208 281047
807 178532 439581
808 760851 474782
809 887257 831139
810 168004 341523
811 607262 186146
812 516434 439250
813 158352 329508
814 252540 187919
815 327367 22865
816 235548 292
817 471991 275332
818 26563 363077
819 907031 374119
820 364301 419351
821 630686 987856
822 954189 870392
823 292690 479301
824 267491 325629
825 277725 869723
826 761416 906675
827 339828 499114
828 198273 303848
829 740814 536630
830 491449 406329
831 422950 775700
832 483030 989026
833 63747 706352
834 326857 308140
835 146890 281550
836 207290 561628
837 553413 298281
838 580107 700586
839 846317 17320
840 240976 854504
841 588693 715909
842 696470 921037
843 599915 459848
844 517262 482965
845 211584 320210
846 36219 598891
847 227228 82751
848 212060 69057
849 434442 655908
850 290284 592103
851 632983 250171
852 84652 423221
853 281030 45506
854 210204 418790
855 899199 738425
856 786586 257849
857 325046 171238
858 370109 824059
859 548471 400278
860 776966 994690
861 271909 670949
862 17855 554786
863 648567 957119
864 476975 130192
865 17250 534601
866 490382 427527
867 118120 502551
868 67917 330844
869 390863 525232
870 550928 775856
871 911376 116983
872 705998 216894
873 48300 365270
874 581035 672442
875 434184 254940
876 592082 304250
877 638657 755683
878 101721 205455
879 132050 582101
880 355304 950186
881 654643 684972
882 867861 123342
883 827048 669603
884 551850 108152
885 122937 4839
886 243023 876029
887 966093 522025
888 402607 967659
889 32291 262171
890 453065 443111
891 825068 894873
892 774887 67064
893 879958 805409
894 559665 994778
895 675502 398314
896 778993 282711
897 402294 546089
898 532833 35347
899 150889 183973
900 814286 80641
901 332979 318864
902 219376 991073
903 429871 697208
904 529362 571593
905 875725 296312
906 645789 137272
907 906599 956989
908 171192 371931
909 282677 321772
910 590509 791701
911 518713 367877
912 293865 42295
913 671860 924159
914 656652 975020
915 92154 705399
916 438296 460697
917 386446 156752
918 797321 687796
919 988274 817897
920 895871 508026
921 522731 237892
922 404268 883800
923 879600 411116
924 988845 359998
925 874228 608673
926 378694 175868
927 91819 108887
928 642345 872281
929 932417 62623
930 193751 742074
931 708933 711464
932 675721 367699
933 773580 407896
934 733003 22798
935 77389 760075
936 383086 922678
937 447543 981835
938 413006 342844
939 276058 184977
940 399950 799578
941 991741 594028
942 781269 350079
943 996465 726831
944 784975 18747
945 383172 389424
946 954793 965476
947 740508 135796
948 124940 600052
949 790348 422432
950 470793 536756
951 135058 803868
952 960048 74650
953 616932 784666
954 394599 741739
955 112421 915513
956 87305 913670
957 679451 804326
958 787281 743457
959 970956 539925
960 242758 173528
961 617548 310571
962 552004 540633
963 625016 579217
964 962630 372893
965 364903 628340
966 948245 534318
967 72555 484437
968 712272 78071
969 914576 976942
970 562797 253008
971 755875 245049
972 775988 209644
973 771876 644221
974 413471 199875
975 510779 545722
976 637422 417455
977 57528 842453
978 588510 600740
979 731312 475610
980 362377 538860
981 870089 417656
982 178942 859413
983 159637 842256
984 137681 469807
985 32450 143059
986 329985 771080
987 29146 697036
988 536105 200092
989 253042 709551
990 952122 24276
991 847905 487019
992 10516 826043
993 758250 530588
994 355376 213142
995 324800 870016
996 940389 444768
997 944492 419737
998 923022 984795
999 215903 78951
1000 673538 571783
1001 391179 703920
1002 247753 486502
1003 697816 150402
1004 406939 231485
1005 84202 57922
1006 245364 518170
1007 150810 492361
1008 598471 425321
1009 473164 759204
1010 936391 174842
1011 626353 58730
1012 796269 460666
1013 751880 626065
1014 523327 542644
1015 999219 385703
1016 793153 21557
1017 625348 894200
1018 778912 329735
1019 336209 518155
1020 227571 332929
1021 57423 596171
1022 276751 149957
1023 243663 881659
1024 648498 483825
1025 667857 296957
1026 461468 673258
1027 79732 287834
1028 778629 369622
1029 78571 353553
1030 707590 368081
1031 814192 888783
1032 3913 751272
1033 498 649192
1034 241419 852
1035 248697 716812
1036 776822 989338
1037 91347 639433
1038 713373 953094
1039 978997 508435
1040 682036 382258
1041 547493 169773
1042 835054 631138
1043 571510 904370
1044 17643 874076
1045 893701 129720
1046 88316 335356
1047 269457 510759
1048 556107 68085
1049 504824 637317
1050 436584 290569
1051 902661 140063
1052 801788 285598
1053 749463 291694
1054 838204 448593
1055 716323 874259
1056 351978 204495
1057 459851 577869
1058 279764 478836
1059 619326 493154
1060 195165 932413
1061 144367 604101
1062 564268 958128
1063 814151 636758
1064 187549 805748
1065 889969 421679
1066 114889 530404
1067 792111 807777
1068 30279 342997
1069 709922 257184
1070 351373 92674
1071 285043 524489
1072 678910 961288
1073 985352 484214
1074 771088 311328
1075 696608 919348
1076 880535 699076
1077 747347 14904
1078 175679 372256
1079 347951 994011
1080 255319 406466
1081 581771 581020
1082 97220 623648
1083 589216 827489
1084 525584 498562
1085 592517 795550
1086 707747 307997
1087 796545 275816
1088 51878 445291
1089 856753 549363
1090 782449 441894
1091 288807 193538
1092 550429 483503
1093 839907 533869
1094 433184 168463
1095 218561 202790
1096 817413 211359
1097 664666 555823
1098 384927 977046
1099 727943 403094
1100 909410 540060
1101 627461 221724
1102 528879 254714
1103 630541 686997
1104 148646 263844
1105 174997 641810
1106 939072 179488
1107 775450 52528
1108 589053 370412
1109 916354 541396
1110 238721 612170
1111 99545 122490
1112 589152 52457
1113 168089 486023
1114 779117 541831
1115 645275 364880
1116 296644 592909
1117 374365 140638
1118 502821 109319
1119 418087 497900
1120 894450 469494
1121 617514 891787
1122 929741 606390
1123 103245 694922
1124 622207 612208
1125 387734 898903
1126 197928 186112
1127 757818 544529
1128 243415 34551
1129 847358 388240
1130 751892 521222
1131 268909 650746
1132 369393 705502
1133 24295 47285
1134 249746 169059
1135 949283 894130
1136 748205 304145
1137 153662 339817
1138 414241 913432
1139 364672 44622
1140 809042 133537
1141 638664 390876
1142 789938 124053
1143 95970 645898
1144 223515 668863
1145 116343 455536
1146 859572 249027
1147 548617 319
1148 721289 313369
1149 738125 589923
1150 192149 189812
1151 330250 577584
1152 803166 254196
1153 260239 807051
1154 396174 633765
1155 448558 597516
1156 811036 178495
1157 271897 296356
1158 661649 19882
1159 102129 369074
1160 984213 710926
1161 309160 659822
1162 976910 759470
1163 563880 170621
1164 500978 899465
1165 79577 607190
1166 517258 730907
1167 596064 211525
1168 322501 460168
1169 118979 493582
1170 462403 76088
1171 543769 854441
1172 684650 405416
1173 146376 199749
1174 272116 789146
1175 436439 550668
1176 812390 838659
1177 510346 584958
1178 672554 599342
1179 981520 591641
1180 931695 800071
1181 688071 902591
1182 171361 372470
1183 53747 956595
1184 493845 866480
1185 149979 461899
1186 747765 312982
1187 932634 433544
1188 898535 470500
1189 149476 391952
1190 86916 964537
1191 189101 909337
1192 967769 279506
1193 919118 614666
1194 559545 223593
1195 157777 365906
1196 966322 252498
1197 343602 503
1198 328323 230786
1199 921806 251105
1200 506880 675875
1201 50273 880164
1202 702230 471901
1203 361567 903052
1204 870889 230839
1205 665839 57887
1206 39797 757926
1207 433864 565789
1208 833748 435573
1209 558989 170857
1210 44146 822961
1211 34788 242740
1212 359599 474104
1213 411626 867600
1214 610752 460733
1215 71977 995482
1216 599611 918636
1217 726112 29028
1218 924740 431174
1219 475473 401980
1220 445757 483545
1221 55677 388688
1222 179447 334815
1223 331117 723582
1224 892898 869498
1225 588877 460722
1226 620033 461072
1227 179128 511398
1228 76264 131636
1229 154051 673201
1230 547160 930392
1231 427579 468909
1232 785081 182294
1233 2209 651108
1234 578479 99048
1235 234672 110165
1236 542674 689490
1237 581980 583424
1238 202927 573715
1239 63611 848201
1240 397839 279990
1241 713548 937550
1242 913572 141584
1243 567903 130702
1244 133554 543818
1245 26818 273632
1246 852695 376424
1247 167307 335592
1248 940870 366187
1249 806708 596022
1250 131887 757401
1251 659970 44696
1252 471658 308886
1253 747173 682483
1254 547499 37543
1255 943494 945562
1256 998081 610233
1257 646382 273528
1258 77696 51154
1259 301601 449489
1260 241424 636022
1261 844399 982456
1262 967160 477270
1263 450194 497978
1264 217831 273093
1265 836250 520444
1266 26216 26068
1267 904707 452277
1268 281908 103315
1269 291167 640044
1270 63888 516748
1271 829101 684065
1272 302393 390796
1273 429232 870239
1274 409264 690037
1275 885397 442892
1276 148355 533615
1277 759772 611443
1278 731185 633902
1279 139989 19381
1280 26977 643858
1281 391315 907455
1282 973654 426745
1283 116461 314016
1284 307839 255586
1285 844296 207456
1286 641890 611564
1287 564092 798532
1288 487667 310784
1289 222684 355717
1290 746085 816292
1291 357988 198450
1292 246115 192392
1293 129129 118760
1294 52413 477961
1295 335816 967892
1296 795475 35580
1297 795747 856431
1298 874858 217536
1299 119972 503861
1300 903128 118447
