NAME : portgen-300-310
COMMENT : portgen N=300, seed=310
TYPE : TSP
DIMENSION : 300
EDGE_WEIGHT_TYPE : EUC_2D
NODE_COORD_SECTION
1 992281 636734
2 634593 232108
3 86074 199302
4 373107 4429
5 894473 289559
6 867423 532574
7 949093 35495
8 843935 467822
9 967175 541275
10 819595 276613
11 14687 131998
12 438477 448355
13 213396 484224
14 2816 516199
15 15419 637027
16 726752 547515
17 118556 458413
18 567175 322314
19 89446 230852
20 584404 207606
21 328057 292874
22 431204 905551
23 266766 356153
24 29317 370871
25 552361 444437
26 506478 102591
27 280872 968574
28 472007 444765
29 518178 176179
30 664933 763759
31 109855 142254
32 420024 686866
33 961502 574549
34 101370 43542
35 768729 487781
36 438504 596303
37 988914 375158
38 770134 912096
39 851125 469903
40 976347 768631
41 966046 826636
42 851266 251659
43 527171 584498
44 127491 431689
45 496911 992625
46 220944 45904
47 462123 96623
48 769101 731753
49 303960 56046
50 135416 354669
51 505027 559414
52 394524 783730
53 478390 679841
54 251325 29213
55 441403 887509
56 317274 86488
57 679267 672307
58 542815 63951
59 680131 323401
60 917765 229748
61 270589 45324
62 908125 414059
63 982754 879090
64 201779 205184
65 896767 90293
66 660771 821912
67 28500 88837
68 451356 879558
69 147368 178958
70 708844 463219
71 904366 804089
72 513924 267162
73 722036 175619
74 137778 48063
75 113868 890011
76 529973 98775
77 159278 45123
78 693898 683115
79 530914 305686
80 332373 598832
81 532472 72366
82 320368 978183
83 983143 513185
84 572564 412105
85 950270 367195
86 926172 632068
87 209532 27754
88 699775 171813
89 886045 863002
90 720160 299638
91 348175 896092
92 872810 297935
93 557820 588404
94 501543 50317
95 105694 938171
96 306994 735263
97 228688 341648
98 537047 272298
99 594556 486170
100 567387 550223
101 289573 274776
102 327902 814229
103 541835 633880
104 225965 861343
105 487302 105494
106 181571 480597
107 199992 394201
108 291837 797209
109 843678 978720
110 441135 710844
111 918628 86393
112 844717 400046
113 77621 651396
114 304165 395302
115 485918 65894
116 945847 24702
117 375699 614666
118 118067 867578
119 696100 478608
120 6097 760611
121 744726 522823
122 609181 394849
123 19543 220600
124 890546 828641
125 264026 885650
126 968133 199253
127 251 501493
128 604375 264871
129 899077 713236
130 696162 674257
131 937780 747356
132 855245 726691
133 360768 658748
134 871416 805142
135 374658 71237
136 906663 15037
137 714693 555484
138 742711 719374
139 86142 343224
140 795671 812750
141 752319 590928
142 699140 811660
143 128114 198491
144 169457 649007
145 253898 459318
146 996161 890958
147 103949 934860
148 853948 729688
149 808129 53696
150 652138 300168
151 134458 547321
152 32970 451276
153 133331 377204
154 500113 188591
155 373378 405884
156 95413 250069
157 459338 236843
158 678096 46821
159 643406 920385
160 872743 631079
161 850618 817720
162 153003 74490
163 936779 359341
164 982066 263417
165 422153 365506
166 219261 897551
167 969845 389786
168 717336 502249
169 131590 462296
170 133564 81293
171 555084 249072
172 776264 622818
173 608700 178441
174 737955 29459
175 998081 494606
176 747621 544712
177 631543 286631
178 80906 236907
179 577475 643183
180 733939 631082
181 245613 37816
182 55026 292085
183 850799 846341
184 473805 836519
185 628143 499654
186 308865 613947
187 922304 378136
188 883457 305906
189 186177 866371
190 993584 699871
191 781865 338883
192 529477 791071
193 119893 181444
194 842524 677760
195 538987 870995
196 28444 295071
197 834152 633910
198 772427 941137
199 326767 398127
200 739361 302793
201 992264 871583
202 35874 298209
203 712741 408738
204 15234 840471
205 166738 899461
206 394382 899715
207 104195 862944
208 602637 950542
209 203663 421116
210 519658 909661
211 519573 75678
212 97158 325349
213 507390 437282
214 578072 624095
215 665395 474719
216 290671 345705
217 699633 94123
218 305489 882149
219 234688 666533
220 188433 169350
221 977781 421408
222 158101 629326
223 351421 952766
224 197912 508803
225 126519 335145
226 363064 702672
227 732732 264641
228 12122 646559
229 171950 941751
230 992719 830591
231 174049 348701
232 652038 997387
233 921680 972973
234 741613 474869
235 511523 649871
236 752629 694860
237 294596 184513
238 546596 816901
239 342945 832516
240 313226 860830
241 265331 636320
242 631375 834803
243 300669 941969
244 693666 702245
245 172442 332515
246 140535 759819
247 155010 538561
248 416721 282920
249 126812 973588
250 82729 534520
251 609820 365396
252 195576 265688
253 69813 726743
254 71297 897928
255 963971 70153
256 952892 469705
257 769308 660203
258 690056 414230
259 193691 113476
260 580666 638759
261 846161 768025
262 392139 977002
263 40051 387233
264 499283 28907
265 114699 819852
266 745603 445017
267 868544 243073
268 907938 795626
269 867012 971171
270 144747 886439
271 748278 580190
272 121578 533683
273 486354 372510
274 367679 178007
275 498510 29488
276 783637 97904
277 858888 262876
278 788916 164803
279 496851 952502
280 357750 274187
281 859731 100126
282 753181 77532
283 321874 372702
284 348126 235625
285 173849 317546
286 46551 15683
287 614965 551178
288 855122 748256
289 909136 129263
290 188085 875247
291 890381 546781
292 671156 840512
293 960121 645477
294 691835 791011
295 921199 535235
296 447499 631386
297 797321 827200
298 839887 732594
299 965224 570400
300 678561 738097
