NAME : portgen-1400-1406
COMMENT : portgen N=1400, seed=1406
TYPE : TSP
DIMENSION : 1400
EDGE_WEIGHT_TYPE : EUC_2D
NODE_COORD_SECTION
1 650484 700777
2 177530 453214
3 426747 740048
4 968437 397251
5 315694 363772
6 460209 963312
7 429080 91079
8 377456 516744
9 961130 812312
10 582027 915752
11 205869 644551
12 678603 746162
13 934451 777869
14 137134 91267
15 240156 538886
16 499693 386201
17 541429 833797
18 327587 930338
19 226067 951730
20 720048 731565
21 222780 797393
22 324404 268450
23 996861 599230
24 576607 812179
25 731573 16409
26 601981 694557
27 572310 160786
28 725553 264283
29 159348 343732
30 125627 496408
31 513980 16706
32 677202 584128
33 140991 662816
34 638907 160629
35 94218 778226
36 940137 148951
37 80738 565617
38 313770 511312
39 72240 517816
40 20608 670167
41 618520 793401
42 965639 743747
43 24905 482986
44 708998 957300
45 692806 664770
46 291431 65437
47 857511 941822
48 791428 73829
49 716654 758787
50 954679 485549
51 526989 58790
52 791571 61405
53 397888 808580
54 728917 828562
55 135880 242567
56 555284 202047
57 650926 460856
58 204977 448543
59 159195 735380
60 792699 67161
61 946161 880120
62 205949 608668
63 251236 881346
64 357380 19332
65 167728 505190
66 782394 243678
67 381935 778041
68 114882 416472
69 142475 504783
70 538770 576362
71 323791 973618
72 164600 625644
73 718608 411310
74 859487 248843
75 690585 910081
76 716449 697321
77 591058 449488
78 703155 283311
79 676854 13530
80 946523 981416
81 666105 224133
82 289792 559518
83 918775 581666
84 37447 25281
85 742247 793666
86 589055 910351
87 44794 882618
88 350712 248840
89 289062 756461
90 905513 967925
91 204492 343849
92 72809 186312
93 839085 558260
94 953886 822417
95 859265 533216
96 379025 117193
97 762536 745104
98 987307 413439
99 928823 281982
100 274932 469768
101 122248 103026
102 343330 722660
103 705588 372599
104 624512 404745
105 610403 144894
106 329425 854436
107 154264 413307
108 602390 548911
109 461597 544687
110 572211 505335
111 652842 755464
112 750349 272478
113 671417 486028
114 567021 322134
115 177029 978112
116 624327 884316
117 146057 760619
118 638500 350056
119 189585 659502
120 583921 290173
121 96662 409198
122 250206 353929
123 880373 623560
124 366843 490057
125 73687 501278
126 846418 606689
127 104953 296820
128 845440 237932
129 956968 582710
130 84160 355532
131 183014 965009
132 820824 320229
133 48231 920226
134 604229 800334
135 532933 978830
136 182068 971540
137 471000 70932
138 658917 46153
139 650511 453529
140 427037 433485
141 529059 984310
142 237974 821496
143 795097 659318
144 63492 825828
145 712387 718273
146 745826 389250
147 126568 605091
148 108105 125122
149 938197 179274
150 695012 834219
151 973049 913314
152 63019 640202
153 972218 862107
154 368715 283456
155 501722 186122
156 174440 131140
157 870322 365886
158 609706 793764
159 838440 215732
160 212123 923108
161 982029 424955
162 105322 698714
163 5780 268753
164 908521 830798
165 98713 796809
166 677438 367054
167 951806 240915
168 259044 397919
169 113987 872087
170 211790 1332
171 820877 847759
172 613704 789278
173 736244 320870
174 283927 427854
175 599310 839351
176 216601 107399
177 80560 898202
178 156781 605994
179 961507 822104
180 381157 574299
181 748119 496628
182 71666 500389
183 365244 326681
184 517435 81043
185 629642 288835
186 509836 410585
187 616422 372771
188 706507 874629
189 344394 207119
190 541932 399786
191 307246 86417
192 449641 524413
193 48690 180810
194 295388 451416
195 875670 932363
196 880483 32944
197 242444 922954
198 491495 410291
199 231337 240933
200 82771 861614
201 976476 76808
202 885922 199524
203 532105 130184
204 657758 556147
205 849512 975971
206 310605 510091
207 946433 448794
208 693815 715175
209 254183 148711
210 8894 954952
211 95344 276502
212 998272 768028
213 312359 433028
214 524663 416897
215 840665 576323
216 216871 788247
217 357606 565961
218 89180 797155
219 139983 846
220 830597 333514
221 926626 146677
222 442522 920717
223 837019 603981
224 34671 474415
225 610595 58467
226 885628 814439
227 400267 506447
228 644743 188228
229 719201 319960
230 110343 734950
231 990200 656911
232 725549 515997
233 49344 163928
234 67568 25715
235 611774 89834
236 680504 779767
237 538116 950427
238 69324 280904
239 876234 491825
240 123285 124131
241 713827 204702
242 306554 105715
243 586123 559959
244 62698 841609
245 516616 925252
246 729586 114267
247 389072 740763
248 653010 146858
249 608561 492095
250 851392 556114
251 727747 542846
252 351130 486464
253 344639 680925
254 507885 294552
255 920324 84783
256 125529 877592
257 803344 185091
258 5364 875932
259 267839 984785
260 862987 902486
261 555367 575473
262 174323 55659
263 362087 137658
264 428637 51652
265 605787 388399
266 773018 581682
267 571501 38501
268 998601 836235
269 401358 121462
270 100350 710190
271 292120 77912
272 978621 614129
273 369885 154112
274 939944 333412
275 378676 515352
276 718221 556908
277 886307 462992
278 783096 146065
279 971344 312628
280 487862 508404
281 279566 386422
282 194201 210133
283 792663 47617
284 898970 189214
285 815205 851251
286 935988 934426
287 606109 347634
288 184265 998458
289 689165 711330
290 272563 216022
291 166313 116008
292 563789 97383
293 108832 386596
294 387480 361367
295 245838 950983
296 937264 212143
297 306256 249099
298 774202 357693
299 471802 630987
300 429864 371427
301 464947 228614
302 60848 162653
303 349039 602212
304 993119 788924
305 354160 396499
306 758584 609977
307 66790 536879
308 571139 67423
309 80165 945102
310 435931 434969
311 575815 267982
312 759350 443778
313 386304 707374
314 873578 443456
315 998594 582053
316 5338 900241
317 357170 876063
318 457437 556335
319 49218 26910
320 526243 41409
321 306430 442377
322 925435 810869
323 375168 669282
324 452792 862478
325 862794 66827
326 484115 28346
327 632392 847811
328 366088 564705
329 871443 184784
330 705216 792703
331 552994 966209
332 262681 312750
333 90069 316207
334 684541 255921
335 161710 901857
336 614630 217687
337 82307 369103
338 950854 547468
339 635589 911539
340 77690 821598
341 835930 688793
342 738239 205891
343 29058 39129
344 637559 44419
345 785994 141229
346 871794 793297
347 865199 624385
348 426779 88742
349 360069 556331
350 860014 827699
351 33692 541253
352 784787 41196
353 230897 795321
354 290106 426501
355 818752 326959
356 927145 827024
357 398790 563986
358 920909 759697
359 101009 638295
360 885971 1327
361 956138 128209
362 395906 334010
363 868165 73376
364 432900 41111
365 138206 155532
366 257362 209087
367 92787 750730
368 894452 8906
369 290003 174253
370 284981 269361
371 938119 999264
372 158448 784667
373 185091 743585
374 397390 531189
375 756220 353402
376 655842 318958
377 418125 704481
378 570337 824604
379 448466 34056
380 146743 221990
381 505317 115853
382 141519 549390
383 388840 927881
384 668575 614122
385 378894 177323
386 362306 569820
387 882074 532568
388 345484 637179
389 710084 691424
390 763672 43560
391 624910 398843
392 894367 916215
393 650214 141508
394 67567 543396
395 361890 966571
396 340330 675880
397 795358 107657
398 907055 368298
399 117189 625879
400 439182 547911
401 33501 705966
402 767516 712660
403 728491 256999
404 424590 501909
405 54266 428828
406 757036 905069
407 672166 180172
408 881659 829437
409 320494 33861
410 642334 20541
411 810691 42695
412 174940 830982
413 143822 656339
414 802303 169414
415 804077 88485
416 212589 208174
417 637157 334843
418 286524 719841
419 726677 714194
420 34556 820777
421 821014 33706
422 901061 341349
423 155879 297635
424 500939 964375
425 963834 250716
426 565994 947775
427 821802 350696
428 335322 825326
429 68809 432672
430 426136 8650
431 530321 710396
432 467353 233489
433 607814 723330
434 4007 330816
435 24293 584024
436 328497 356118
437 70026 391618
438 454546 862916
439 220892 824243
440 495660 318496
441 587530 369631
442 743278 795426
443 558163 502193
444 740821 403668
445 727029 563193
446 715834 395860
447 689901 450531
448 492280 464895
449 963679 509443
450 886803 292962
451 76742 676696
452 468715 645338
453 663185 196363
454 204496 26376
455 792532 833129
456 84504 665141
457 705643 862942
458 292816 134461
459 20494 16821
460 741209 142919
461 759651 494563
462 444013 731330
463 507281 651801
464 887403 424688
465 728432 258182
466 658420 194516
467 31711 662531
468 233992 922389
469 663987 880336
470 502610 423702
471 481698 723999
472 662458 584109
473 803542 221270
474 951847 958570
475 943249 840478
476 577491 538990
477 781010 628620
478 634542 882226
479 644984 806184
480 411345 740796
481 532376 324160
482 523765 368830
483 351430 360504
484 2682 121533
485 59400 71546
486 182614 61923
487 73572 900730
488 565427 220661
489 713553 815392
490 96787 625055
491 6816 81219
492 13343 987635
493 725806 334260
494 670750 662880
495 311100 873487
496 919706 542453
497 820935 431064
498 241087 419774
499 650427 761727
500 18682 582880
501 507716 136454
502 861783 318194
503 833662 496272
504 525647 793375
505 902814 300282
506 211475 982104
507 495083 537857
508 821090 989922
509 503224 92701
510 127742 931655
511 710076 240954
512 102851 476519
513 563829 46159
514 200140 755377
515 67068 69155
516 695014 920178
517 912577 796505
518 413579 24712
519 586135 475485
520 166545 735884
521 831035 578049
522 535137 379444
523 163410 678752
524 439602 344416
525 867235 194928
526 219634 895049
527 694659 949526
528 887866 587538
529 223877 65277
530 904614 808949
531 910137 50162
532 626829 166930
533 469246 633426
534 446966 115639
535 374447 142338
536 550319 158807
537 225466 932814
538 712021 815026
539 546295 153324
540 588652 976290
541 822282 134862
542 850762 258118
543 159018 644852
544 293348 745647
545 327258 780153
546 577745 470495
547 101038 24207
548 185564 672227
549 352583 602323
550 667422 348383
551 132456 286277
552 755763 890944
553 372646 84771
554 44287 436540
555 790508 243014
556 294190 478229
557 738019 124461
558 231204 439641
559 949124 602622
560 981365 797018
561 280843 844642
562 448216 26063
563 9881 264042
564 403044 334521
565 560167 627250
566 770739 109755
567 362816 345637
568 682100 344053
569 396843 726301
570 26914 719376
571 695728 690726
572 764281 530239
573 499310 733103
574 22279 74974
575 14325 921521
576 269183 18061
577 42155 40172
578 577644 22701
579 923461 410125
580 208844 28593
581 687927 317985
582 409625 71132
583 547286 603463
584 713947 207779
585 625151 498100
586 417362 874149
587 588296 59844
588 527835 262781
589 802486 408043
590 448418 987180
591 340581 992918
592 125677 531574
593 939322 452753
594 700130 291684
595 798351 78636
596 630105 189064
597 101149 528813
598 302014 821578
599 102430 704437
600 2404 236528
601 930616 614235
602 626555 27145
603 580940 276264
604 892383 510580
605 100850 124890
606 322570 631777
607 611774 130207
608 398487 498863
609 216836 880811
610 769117 725707
611 501033 9510
612 205375 388623
613 567484 803126
614 247593 561150
615 478904 251570
616 370398 291905
617 307193 323528
618 664609 708804
619 381144 995470
620 133087 440458
621 235917 819318
622 522566 72643
623 577603 620595
624 983688 712526
625 961329 498887
626 573985 541279
627 225533 750833
628 866130 638710
629 307041 303027
630 362535 872135
631 895120 896913
632 377493 660391
633 888973 503251
634 109210 539131
635 552603 777892
636 515174 504309
637 919481 270229
638 151722 959754
639 783976 454541
640 522493 928774
641 496085 944565
642 198615 606768
643 356449 473485
644 914412 646802
645 434555 161357
646 599594 842012
647 442866 355194
648 925284 731607
649 899837 252336
650 920921 617849
651 836618 529147
652 190033 32555
653 2802 629419
654 342663 618764
655 394383 392645
656 724298 660239
657 868471 201178
658 272541 53107
659 454046 22298
660 735107 157365
661 603414 856873
662 618209 934754
663 941273 986027
664 314276 886926
665 267426 522302
666 617090 165211
667 60157 129848
668 204475 835845
669 76093 997437
670 334227 303342
671 19438 892113
672 911695 277189
673 557942 742720
674 223802 508111
675 413921 939257
676 417330 12910
677 984909 398618
678 759 671406
679 468989 60185
680 828079 166956
681 553325 345226
682 284537 91041
683 373206 832184
684 748543 591282
685 643235 529821
686 829304 945934
687 608377 795850
688 740034 590504
689 871963 219591
690 933995 269866
691 517037 254091
692 58847 100470
693 968976 271863
694 880674 969115
695 756641 372290
696 87302 484811
697 354201 804406
698 474037 73503
699 283735 115845
700 537155 967438
701 870756 4211
702 574116 144054
703 422219 163239
704 954063 884439
705 429641 728895
706 790732 499874
707 303543 455788
708 79654 68513
709 991024 480131
710 617004 299702
711 548449 632698
712 54126 675796
713 659064 825093
714 371818 464323
715 373630 576795
716 636441 987524
717 789949 205099
718 479134 17162
719 950547 603058
720 20815 900463
721 280838 400542
722 352111 456938
723 823841 454603
724 430684 678404
725 145341 648944
726 701685 819412
727 742215 960359
728 330997 883232
729 214261 369016
730 664919 405056
731 212691 351004
732 863624 529178
733 448057 390189
734 147763 846604
735 631946 625051
736 637828 312619
737 334789 968060
738 598016 729036
739 890483 93767
740 344799 775831
741 610831 2801
742 799403 968573
743 364103 285436
744 123899 260771
745 757042 88944
746 869399 103942
747 971112 395764
748 262634 968218
749 65752 384050
750 858922 94805
751 564119 336917
752 333605 369509
753 38112 698884
754 20009 773641
755 596256 45560
756 759332 953490
757 611974 575974
758 535657 108748
759 379891 467860
760 266544 479838
761 324436 763712
762 987682 537140
763 60931 300911
764 979014 965279
765 929947 899131
766 709027 116841
767 497511 299238
768 16499 657340
769 390826 223428
770 432915 255354
771 905544 656039
772 994226 277204
773 764508 105687
774 116260 433971
775 334832 961723
776 989204 100472
777 454102 959790
778 385778 447277
779 839406 34366
780 353010 380772
781 308057 796580
782 340725 340901
783 140016 103292
784 959264 334770
785 811466 429970
786 992488 945920
787 133027 304821
788 490634 223963
789 309610 27891
790 151362 613653
791 461504 944648
792 612269 549175
793 591073 912446
794 776115 156609
795 159222 913206
796 698076 56056
797 411961 2945
798 262866 959624
799 523012 689405
800 786569 540544
801 796076 88368
802 282609 721178
803 500218 44555
804 488203 904926
805 368716 473331
806 671162 682797
807 875143 439804
808 682695 252001
809 384618 337780
810 78035 180391
811 580280 269858
812 548200 270922
813 633893 904119
814 663310 411849
815 804602 446078
816 735759 404683
817 659175 678030
818 942491 778707
819 69504 172464
820 866480 339072
821 527827 438335
822 78573 978831
823 332925 428217
824 507856 141039
825 369052 358746
826 296313 111163
827 884802 340491
828 804784 391393
829 429193 604578
830 778686 721511
831 975051 315738
832 38446 29644
833 945504 232826
834 604223 896312
835 106878 254477
836 744144 243579
837 968727 719289
838 884078 469117
839 385056 207708
840 466138 242499
841 474926 58731
842 633162 83091
843 471027 420021
844 366236 629531
845 732525 709665
846 174483 173192
847 65586 612002
848 594927 284247
849 469607 359284
850 94752 863808
851 43161 300147
852 674901 126553
853 883819 237581
854 478000 801710
855 869463 384763
856 25157 799662
857 872052 69021
858 547027 801858
859 250152 426444
860 434716 661256
861 763218 244939
862 801559 243070
863 211316 443997
864 568678 842174
865 835469 646496
866 991116 583345
867 338244 81374
868 217341 675264
869 186678 564140
870 536064 669168
871 169868 939791
872 194814 71269
873 946446 929544
874 371632 822515
875 400685 150930
876 715568 627433
877 523814 448255
878 872691 459815
879 961902 593526
880 909211 208555
881 50902 913860
882 265645 200295
883 214894 85366
884 604847 800783
885 122574 617482
886 430226 427636
887 25758 283786
888 945687 135785
889 721124 353304
890 370378 751500
891 482095 975152
892 932962 626914
893 595594 77256
894 317699 137949
895 866479 131974
896 70416 385895
897 441565 918582
898 238942 742231
899 914032 911028
900 125581 810661
901 208420 18328
902 452137 649185
903 668835 740416
904 694470 896900
905 852661 795435
906 142116 823952
907 727046 777237
908 138138 665007
909 472294 347063
910 961352 472663
911 171334 693818
912 675201 311913
913 409062 411897
914 975499 376573
915 614950 205271
916 441315 824224
917 500643 574943
918 609383 658142
919 248106 155725
920 488775 930587
921 604961 970635
922 176597 393816
923 960640 376598
924 710693 129651
925 509520 827044
926 766732 537458
927 296077 920310
928 369345 384195
929 517685 877194
930 39801 10692
931 492310 538744
932 408124 922073
933 190474 171480
934 647355 333229
935 816596 761540
936 954313 342642
937 837543 134308
938 705931 633875
939 397740 754891
940 942567 24866
941 894212 98305
942 336771 604258
943 712961 902571
944 416099 578569
945 384468 437903
946 10786 914876
947 339129 727235
948 976273 262318
949 133092 42288
950 687885 326764
951 978857 955801
952 187084 484654
953 932831 668427
954 200687 691819
955 207349 466774
956 968096 939115
957 492725 601898
958 999905 577433
959 199615 680888
960 945800 928155
961 38387 605066
962 645344 489832
963 782682 998512
964 155558 352889
965 201476 37504
966 433188 705920
967 547542 475793
968 56769 955097
969 605579 734873
970 604352 135527
971 702956 735210
972 632769 456312
973 399515 405720
974 269531 849297
975 944553 977761
976 106759 780203
977 840812 650380
978 893576 272937
979 408259 711290
980 427884 977734
981 62847 465813
982 87467 71821
983 763818 232885
984 306346 36412
985 202382 594185
986 307901 350318
987 736335 968038
988 821396 258184
989 764254 994963
990 596255 509744
991 590252 444268
992 925005 223742
993 974656 967375
994 618452 475721
995 711974 823884
996 648750 569166
997 532491 10166
998 827626 352637
999 998875 664730
1000 634916 141330
1001 641466 274568
1002 253041 434808
1003 387508 662491
1004 855197 617070
1005 675724 926201
1006 654484 932537
1007 999316 603999
1008 328983 493680
1009 933321 77300
1010 244195 411180
1011 234009 641615
1012 401496 61051
1013 952719 33333
1014 97276 301527
1015 580529 158905
1016 402986 147183
1017 319239 670054
1018 855260 657715
1019 444951 321005
1020 894758 480976
1021 34053 541151
1022 231526 300793
1023 589874 7135
1024 167670 471439
1025 57447 794292
1026 255361 697348
1027 84201 476011
1028 738343 494282
1029 955328 582987
1030 579548 729793
1031 217539 534192
1032 722311 194748
1033 892148 113332
1034 701011 698522
1035 14124 321848
1036 326010 461882
1037 19853 449902
1038 155819 536661
1039 557414 925485
1040 322707 458436
1041 78004 514289
1042 721978 850736
1043 941365 868794
1044 424871 124491
1045 777906 741927
1046 956703 746429
1047 306881 572910
1048 154965 572171
1049 521298 781623
1050 144974 53213
1051 449720 242184
1052 148731 599010
1053 716287 741071
1054 975369 233464
1055 534645 869549
1056 69410 830837
1057 805080 837620
1058 773090 471109
1059 227310 149401
1060 39782 319976
1061 592034 919388
1062 553547 960910
1063 872127 83825
1064 313150 420843
1065 733614 414747
1066 561291 323949
1067 390839 453158
1068 389026 247167
1069 709208 884358
1070 77645 470255
1071 641483 275470
1072 84709 457929
1073 149893 37315
1074 192882 345970
1075 700782 71140
1076 259021 100455
1077 48008 730227
1078 491921 125771
1079 851345 695573
1080 209983 469120
1081 31863 91010
1082 155818 64390
1083 228065 793940
1084 746128 347151
1085 687726 735775
1086 278227 881340
1087 448619 968642
1088 60955 491578
1089 871379 823320
1090 468989 746356
1091 232480 617576
1092 210859 264494
1093 382884 470281
1094 168130 326449
1095 225093 595086
1096 501039 362057
1097 196632 341870
1098 192027 760143
1099 826850 116066
1100 396973 658315
1101 165935 369561
1102 876980 954426
1103 838659 641444
1104 889595 783514
1105 347342 21640
1106 957640 524896
1107 470480 614897
1108 968081 669805
1109 894377 813948
1110 872362 467922
1111 967089 630061
1112 950177 29410
1113 569839 908666
1114 4359 494192
1115 129982 419511
1116 601982 87865
1117 475977 447349
1118 788715 707583
1119 147096 595961
1120 296413 713078
1121 575903 354182
1122 454086 757170
1123 627996 870977
1124 411879 167221
1125 772031 283361
1126 755783 332658
1127 986084 977461
1128 56332 78069
1129 893584 429631
1130 165711 131076
1131 494347 293634
1132 487100 634264
1133 445736 603458
1134 70810 713309
1135 986900 97103
1136 257926 727155
1137 41917 589001
1138 712139 634430
1139 643976 972715
1140 973078 491769
1141 15082 574727
1142 328481 998906
1143 925164 308348
1144 600764 841713
1145 1612 185257
1146 636773 433787
1147 609061 199310
1148 455152 848748
1149 312265 865084
1150 45031 993566
1151 227001 439163
1152 194143 280261
1153 268279 181055
1154 4177 987178
1155 52297 747983
1156 477305 51870
1157 428019 980454
1158 494302 60560
1159 684573 287790
1160 179111 596988
1161 291192 205726
1162 668277 993334
1163 870102 818762
1164 533012 761655
1165 320722 531083
1166 630253 656798
1167 920418 225095
1168 14464 963211
1169 146708 348026
1170 504603 864604
1171 623775 312974
1172 662601 404624
1173 894064 431047
1174 765509 615726
1175 329208 636390
1176 315735 550609
1177 544361 513948
1178 363312 570202
1179 518745 969048
1180 265796 305067
1181 34346 656150
1182 482575 187693
1183 124207 164331
1184 389268 23394
1185 86390 63255
1186 295050 68846
1187 958582 542721
1188 281252 740583
1189 661364 154329
1190 630022 299899
1191 300016 563964
1192 495858 15654
1193 496736 974103
1194 174223 732724
1195 100887 850133
1196 573942 123314
1197 261636 441347
1198 569553 554929
1199 354391 119880
1200 123371 153481
1201 769683 611180
1202 985704 29308
1203 336373 751770
1204 54750 528707
1205 17211 389209
1206 395979 786021
1207 868160 415663
1208 731125 911032
1209 394513 41227
1210 618140 569278
1211 809939 269388
1212 900023 932909
1213 293572 683870
1214 83141 929273
1215 206347 529482
1216 685832 132656
1217 137118 240812
1218 903919 513995
1219 695803 80195
1220 284529 585704
1221 579589 132995
1222 114584 531608
1223 40193 304553
1224 223291 328727
1225 147775 885683
1226 471787 425118
1227 913532 593889
1228 467648 637026
1229 474061 744891
1230 125389 822378
1231 55966 974555
1232 244178 431506
1233 809619 262983
1234 671436 336552
1235 375470 426571
1236 687741 65785
1237 893452 732456
1238 97491 384821
1239 355856 306133
1240 465260 656546
1241 209808 338249
1242 803884 383969
1243 473515 711276
1244 888478 705611
1245 431192 640935
1246 842558 359251
1247 704724 857957
1248 897962 513803
1249 239542 382127
1250 434117 655371
1251 948697 917157
1252 863467 491228
1253 675875 133537
1254 621233 529563
1255 120374 756371
1256 748547 768450
1257 313698 484453
1258 979819 696715
1259 269831 386220
1260 533543 295816
1261 23440 289308
1262 902435 720098
1263 477873 770584
1264 202318 402223
1265 56581 963953
1266 763587 826293
1267 185759 708888
1268 907999 441357
1269 24551 319431
1270 404149 776799
1271 441445 502258
1272 172067 135376
1273 617494 553249
1274 456815 984625
1275 380083 127378
1276 311485 837318
1277 325546 470163
1278 891784 122404
1279 731397 154578
1280 583229 234517
1281 108986 301802
1282 125413 343574
1283 314926 246288
1284 596382 178321
1285 866958 426570
1286 239899 285205
1287 6136 406165
1288 984331 186121
1289 963761 432272
1290 828314 355469
1291 39186 47740
1292 818994 822063
1293 854967 461784
1294 700879 842184
1295 393962 661710
1296 844975 846229
1297 452472 977579
1298 536899 156240
1299 496121 765902
1300 151045 431372
1301 589487 24543
1302 156311 24614
1303 88192 263744
1304 18324 503483
1305 615195 429999
1306 421525 889213
1307 760615 921518
1308 389542 262757
1309 849329 147833
1310 806675 158685
1311 750167 830480
1312 27276 435585
1313 837082 215355
1314 128893 981522
1315 317972 720586
1316 167797 460278
1317 817076 398314
1318 933944 149972
1319 287124 897475
1320 432521 592210
1321 612454 553046
1322 35509 235277
1323 911543 14495
1324 818953 16887
1325 140497 321543
1326 27347 514599
1327 447929 430459
1328 263575 129209
1329 207467 757997
1330 90670 938219
1331 976620 120848
1332 70961 22985
1333 817545 868478
1334 853703 525338
1335 9975 375046
1336 443803 832442
1337 7336 485131
1338 131338 235567
1339 382550 596816
1340 172009 707873
1341 7888 370895
1342 890852 379752
1343 743965 46949
1344 389316 794091
1345 580768 65465
1346 296269 761785
1347 887500 57474
1348 148406 780012
1349 545709 550378
1350 103938 675975
1351 631945 222136
1352 844877 432623
1353 313655 656451
1354 623747 68177
1355 686493 216626
1356 739892 413376
1357 177229 25205
1358 641950 214834
1359 233348 13487
1360 874578 37533
1361 322769 303325
1362 421400 333999
1363 743101 221667
1364 987564 574712
1365 171475 474887
1366 611820 314373
1367 910322 955383
1368 967981 594511
1369 193666 865646
1370 737802 529131
1371 813600 375829
1372 919512 543235
1373 742696 992943
1374 340385 553500
1375 314372 926739
1376 792447 970997
1377 378902 629051
1378 64154 317572
1379 311814 889494
1380 464642 719143
1381 462784 758100
1382 330374 157362
1383 403025 364062
1384 493864 633993
1385 282508 649007
1386 874448 679847
1387 699114 947839
1388 245085 351771
1389 924422 792348
1390 269845 425529
1391 909852 98070
1392 110069 452331
1393 12102 853720
1394 983998 752959
1395 552358 603918
1396 100647 559673
1397 583138 88795
1398 654682 133753
1399 676714 971673
1400 298149 390924
