NAME : portgen-1400-1402
COMMENT : portgen N=1400, seed=1402
TYPE : TSP
DIMENSION : 1400
EDGE_WEIGHT_TYPE : EUC_2D
NODE_COORD_SECTION
1 261221 401274
2 620804 992553
3 217474 986250
4 385972 300927
5 668171 64231
6 552936 334002
7 861635 941242
8 773319 604156
9 329766 789425
10 429609 938967
11 325609 810563
12 831011 339965
13 636199 568768
14 622045 651212
15 242985 513697
16 526069 262702
17 740615 974763
18 204374 314980
19 356955 84135
20 631962 744252
21 372800 664165
22 810195 365666
23 800766 58197
24 523514 51444
25 927999 875635
26 419151 404075
27 428911 977603
28 410759 998518
29 660658 646041
30 788179 902493
31 629294 301836
32 668964 923919
33 691431 888771
34 523806 495968
35 140475 715122
36 80642 278321
37 861425 553973
38 519815 921533
39 381652 853408
40 929205 637680
41 908110 976004
42 863032 340491
43 884403 224233
44 593737 816696
45 283332 315602
46 791174 860986
47 943660 916840
48 663609 94479
49 802739 256222
50 845850 879232
51 676544 670106
52 122238 290319
53 967525 443146
54 541042 88419
55 93200 186526
56 404781 843962
57 362708 472577
58 111319 768307
59 358176 752124
60 260309 596952
61 86032 267584
62 650118 261242
63 38578 410535
64 156082 571105
65 586447 76669
66 380490 293233
67 760208 742678
68 232899 64148
69 613295 390455
70 229172 116095
71 866056 841612
72 556386 686380
73 229570 523589
74 210868 682417
75 878261 253074
76 938396 231633
77 669774 769181
78 498741 383310
79 909898 379559
80 57420 903377
81 829850 150587
82 859246 977104
83 320470 563168
84 287575 676328
85 243006 587730
86 557439 675759
87 873862 7235
88 658555 854398
89 597810 880937
90 762501 655267
91 500637 776522
92 513685 683070
93 246818 229903
94 433986 783103
95 422208 669730
96 776572 936967
97 147448 641442
98 558656 190297
99 967749 549151
100 27824 375171
101 925779 329930
102 919916 222994
103 752436 161874
104 717948 986704
105 522362 268838
106 949323 126794
107 957351 387689
108 126804 892883
109 3138 217804
110 418447 130173
111 595418 738424
112 648504 867834
113 661951 227508
114 755843 650868
115 254799 496680
116 136450 611106
117 358574 493663
118 705943 373842
119 819170 125995
120 556265 353934
121 226765 216182
122 364655 292035
123 74311 38148
124 288463 279614
125 979491 331148
126 434453 316881
127 294352 531143
128 238721 314673
129 971356 426252
130 517050 378593
131 342703 591952
132 430438 168428
133 42072 733141
134 762139 665315
135 313378 88656
136 604420 723524
137 238313 87299
138 695719 278537
139 444072 117360
140 629113 347277
141 256151 329590
142 133817 876205
143 153977 544497
144 180667 190146
145 451590 972802
146 611703 153854
147 812617 467608
148 749513 503241
149 977869 277356
150 596315 795774
151 594076 171102
152 650500 632213
153 74996 104863
154 183063 418146
155 377166 694223
156 134006 781209
157 974662 544248
158 766890 188848
159 779334 962830
160 418914 538831
161 755272 484783
162 69000 517603
163 494580 433318
164 73023 606100
165 12302 590856
166 95474 25925
167 740193 934889
168 213271 474942
169 354928 589569
170 109315 965128
171 765163 217837
172 771232 912759
173 217530 126920
174 84854 295013
175 973028 316195
176 430218 371769
177 265053 5459
178 700300 568150
179 430909 715611
180 418941 600054
181 749935 593493
182 308831 412038
183 929060 916169
184 9976 61903
185 326717 639969
186 103994 484320
187 989801 102718
188 108613 383502
189 219729 63540
190 817303 926429
191 2408 357411
192 187158 412248
193 840920 501980
194 717093 328155
195 5828 297102
196 464965 293024
197 262851 469345
198 861134 280842
199 228035 668514
200 804145 834027
201 907190 21314
202 477710 46599
203 313786 72806
204 184610 852805
205 164538 198319
206 851057 102753
207 709783 121838
208 135089 456910
209 330641 839486
210 550904 648218
211 688133 341462
212 257757 492690
213 732779 82679
214 6610 943201
215 788931 35806
216 198892 366924
217 899001 618983
218 75371 899655
219 647628 65320
220 277159 384010
221 171338 877606
222 777250 357610
223 608969 123502
224 35267 770161
225 736565 778454
226 274231 284834
227 879583 768338
228 635135 540266
229 122313 858726
230 971228 414131
231 425178 119290
232 575646 780528
233 26981 973450
234 325503 352172
235 512868 11586
236 421643 560479
237 102920 772449
238 373986 403298
239 461879 489419
240 857555 192513
241 960365 147883
242 971973 374799
243 610628 79602
244 791278 118472
245 592002 101921
246 574151 295455
247 552451 265572
248 962367 610858
249 774686 4801
250 983623 205671
251 661623 545848
252 912606 544052
253 818089 126347
254 312861 504783
255 157709 555533
256 748987 3840
257 266723 869306
258 839980 129722
259 566838 310073
260 818161 416122
261 198764 320701
262 368548 307197
263 349963 875795
264 647873 558868
265 954360 247638
266 90437 957095
267 331709 302022
268 443525 956524
269 881160 102666
270 534819 480906
271 512763 481205
272 300311 175879
273 903157 253450
274 926906 245253
275 915609 86572
276 962985 215817
277 50441 735985
278 115234 704527
279 214138 610584
280 100526 861564
281 245187 210195
282 969964 676802
283 42769 267782
284 703529 90844
285 966149 586529
286 202815 321584
287 394463 731588
288 453137 982946
289 270260 632563
290 191963 645435
291 661656 37288
292 458341 92795
293 2450 880241
294 987131 654906
295 259252 175743
296 252995 790316
297 136516 948289
298 278091 191178
299 86741 568722
300 722742 920210
301 983189 294343
302 53290 270174
303 424915 925696
304 757475 957645
305 733534 234992
306 717396 559232
307 351332 924782
308 608568 454871
309 73679 21675
310 398711 851591
311 181040 134806
312 368101 45939
313 603340 908472
314 268294 124289
315 306673 527440
316 225470 312615
317 899029 956971
318 928039 102424
319 685956 533558
320 484227 547578
321 806562 965455
322 256194 407661
323 994703 118189
324 422214 90576
325 344949 369619
326 922884 962452
327 262049 195301
328 694740 670574
329 395314 96319
330 342135 322491
331 239740 223917
332 473418 185955
333 428429 751940
334 303037 943670
335 930079 490379
336 32657 983102
337 676726 29092
338 928706 218587
339 872756 172799
340 351199 932766
341 513157 171975
342 782153 984181
343 287700 1553
344 839197 713073
345 528541 176098
346 799386 742285
347 603479 993847
348 514921 823460
349 288729 227102
350 478954 776116
351 245432 249415
352 739377 412182
353 856461 750909
354 180298 277867
355 907601 693186
356 831376 682240
357 567777 166036
358 523104 497454
359 620437 479570
360 671034 604969
361 463211 75934
362 464716 153962
363 244947 783242
364 243724 264543
365 172630 177797
366 38288 594888
367 265198 658012
368 101389 830917
369 604197 616116
370 461076 790245
371 381115 359626
372 42039 923571
373 712886 723451
374 277569 449516
375 748900 731679
376 579735 24186
377 54471 301156
378 737827 650543
379 984216 81364
380 310793 25544
381 146711 564181
382 816791 117355
383 312070 471749
384 640201 644205
385 453150 799652
386 219885 170920
387 730670 939354
388 25233 439025
389 21463 163559
390 416134 594404
391 799025 162359
392 953749 147086
393 31085 474106
394 778097 147842
395 345942 629639
396 190715 959991
397 162966 661424
398 570360 210195
399 628956 102684
400 898338 273861
401 701988 114009
402 33381 154495
403 932654 417375
404 70436 907385
405 270070 263721
406 872445 836374
407 735422 681153
408 834828 186720
409 401214 155366
410 546995 101875
411 842793 537516
412 745867 179288
413 97663 105876
414 137538 576174
415 6700 607858
416 368589 114077
417 893489 152413
418 721959 962650
419 426937 272595
420 312257 844365
421 72891 622731
422 600847 244066
423 786846 653198
424 214123 983678
425 563760 464483
426 72656 52781
427 95984 290479
428 905272 587911
429 220520 880968
430 432536 970003
431 990438 797840
432 595128 425705
433 190829 249714
434 235527 491355
435 894307 181629
436 972597 417536
437 591606 82511
438 29219 790011
439 441532 455387
440 274015 509752
441 885356 256570
442 143637 36697
443 617419 570748
444 518949 467783
445 961583 472244
446 727123 935581
447 378288 130627
448 871768 655355
449 31124 518335
450 214847 996834
451 211666 758735
452 709662 54007
453 579127 816085
454 909144 59286
455 673060 334523
456 68961 752736
457 919384 960292
458 242879 54857
459 419551 464500
460 553937 535474
461 218589 717191
462 276508 897472
463 969963 213861
464 707873 537598
465 503384 213133
466 880867 382246
467 782327 939492
468 440790 132619
469 337185 183345
470 793818 562562
471 151197 54449
472 913846 426108
473 253654 9932
474 659073 480815
475 160664 657906
476 947481 493525
477 14951 1714
478 115967 829420
479 976407 770170
480 613217 446507
481 478900 725798
482 265468 110497
483 183326 14512
484 838889 493276
485 706637 232946
486 395784 938736
487 303836 896030
488 587993 725064
489 702239 274793
490 781505 140543
491 237453 937703
492 924381 56876
493 734232 155069
494 116777 671829
495 756165 426277
496 293730 843909
497 476708 560871
498 166778 212460
499 750612 17816
500 838115 528590
501 307693 384279
502 699310 20120
503 420453 9777
504 569143 958074
505 267481 960898
506 712642 304577
507 14004 186939
508 152777 634991
509 249089 704596
510 943719 970865
511 263899 821073
512 655160 178047
513 925253 11504
514 239426 283715
515 475577 578215
516 155921 744164
517 7311 820606
518 427901 932875
519 923699 737442
520 904099 99241
521 905979 412180
522 728110 785300
523 162377 472657
524 188748 298661
525 635618 155273
526 973034 466897
527 542239 259899
528 372669 563528
529 376967 878703
530 592219 487577
531 86078 831701
532 53975 168240
533 54918 300461
534 576467 228704
535 24561 680120
536 446242 950427
537 68978 788446
538 997830 797002
539 278833 395261
540 805378 361724
541 634537 360722
542 691496 987999
543 492136 324219
544 690189 839071
545 765688 127439
546 356407 694994
547 712880 223979
548 652999 955551
549 343202 939663
550 787469 365375
551 193823 793487
552 493283 273893
553 520735 612311
554 775400 554239
555 767763 48449
556 873339 537896
557 113014 464779
558 131169 391083
559 118821 829996
560 515241 99366
561 957259 636804
562 441234 659186
563 486296 652755
564 457144 795085
565 267710 385519
566 21601 724593
567 627498 756928
568 488385 96640
569 247707 226716
570 856830 101052
571 205398 860192
572 323830 666321
573 170180 719603
574 253760 53693
575 737682 243
576 498407 548116
577 671952 401950
578 343773 469229
579 165989 736354
580 785507 424094
581 364603 548684
582 697409 666710
583 843050 13146
584 214065 446693
585 294599 411566
586 137323 65127
587 92313 514997
588 600959 409142
589 964851 39284
590 315412 17067
591 486766 720789
592 9577 843615
593 20915 472917
594 27184 960787
595 913878 475238
596 882575 801014
597 932117 445264
598 963728 140271
599 767879 808833
600 65361 761037
601 754751 214476
602 738280 720614
603 513477 777617
604 538538 828337
605 381035 870855
606 442044 205201
607 822476 310268
608 541519 563589
609 616566 252145
610 702981 702779
611 245267 405232
612 381331 533561
613 656814 922847
614 326846 371698
615 1519 823342
616 870604 136514
617 658248 444557
618 575022 281564
619 898313 699309
620 302095 457325
621 856351 775038
622 257806 211099
623 229971 477342
624 419682 398555
625 788449 40881
626 813425 396180
627 807313 242019
628 890432 618236
629 556227 293723
630 145592 231912
631 879304 839229
632 526241 923710
633 14504 667006
634 947394 611377
635 80297 64177
636 143907 218010
637 463695 662099
638 889354 849087
639 597919 139312
640 643128 38577
641 366620 33122
642 226106 769606
643 944038 31375
644 610273 734538
645 430052 908016
646 334170 286935
647 619012 237918
648 313417 638340
649 311343 595706
650 321744 380884
651 879422 280369
652 755427 749872
653 674261 780302
654 170073 37706
655 297981 859057
656 7963 821688
657 863671 237575
658 897742 592368
659 220217 288323
660 610292 376164
661 355663 351688
662 289632 699412
663 184754 863537
664 462583 713823
665 987838 109051
666 679013 560212
667 841331 784071
668 30613 544931
669 169451 988531
670 871863 351669
671 811158 321950
672 124246 53888
673 552353 982481
674 997303 919599
675 53163 449880
676 175757 597519
677 607867 212693
678 701870 319210
679 439038 971356
680 719258 129329
681 610851 181542
682 165843 946311
683 47899 686013
684 697441 809783
685 685222 915260
686 595064 300617
687 235159 160411
688 200406 758143
689 743820 76939
690 997541 865544
691 424498 491227
692 994564 858509
693 498200 497471
694 394369 895019
695 736171 344600
696 847489 359667
697 303308 956602
698 756604 510540
699 86790 963835
700 853481 794210
701 238661 920364
702 922057 187619
703 25381 684530
704 602955 749357
705 714493 204399
706 924841 544018
707 235184 374657
708 281839 251183
709 878233 209240
710 189706 537358
711 599222 733606
712 956301 891011
713 676599 674700
714 378559 47540
715 135029 515876
716 155187 994462
717 362445 793142
718 940702 880480
719 256042 619907
720 576670 247016
721 619237 185128
722 705313 198812
723 745378 113883
724 403366 412297
725 280003 81904
726 131980 39250
727 828805 337605
728 639022 244198
729 557918 128915
730 246916 144901
731 428488 983048
732 172687 467476
733 585161 739712
734 838705 36372
735 629279 167956
736 847817 465936
737 929237 107802
738 405378 559972
739 904801 618695
740 251989 432400
741 116782 249644
742 800623 990128
743 87388 172139
744 821774 894969
745 207980 200989
746 41774 219670
747 990627 408714
748 399199 153301
749 255891 597511
750 793434 185405
751 209082 784670
752 160307 847602
753 965121 882336
754 238626 838677
755 250217 466882
756 422423 662948
757 920935 45926
758 103126 208817
759 992420 763973
760 68277 431860
761 483821 241193
762 242937 443873
763 958874 63147
764 305628 81634
765 142680 523041
766 321346 66123
767 368478 785106
768 9976 453833
769 328708 754696
770 887001 878570
771 179719 57801
772 826691 776119
773 717168 800581
774 976732 546754
775 449840 336052
776 847673 174257
777 454830 270393
778 864059 142958
779 416192 375201
780 837625 511288
781 553628 483929
782 951676 371647
783 287163 364622
784 836257 144815
785 328758 302545
786 232085 445666
787 314132 732225
788 584187 309563
789 786363 972544
790 579813 815915
791 646954 930427
792 244009 631392
793 969412 837416
794 114447 996830
795 497943 645354
796 617576 183893
797 425938 584455
798 646484 734053
799 743668 94466
800 191932 407604
801 14218 4187
802 966940 633924
803 689097 917245
804 930248 823438
805 300980 26642
806 28510 419361
807 877257 192270
808 893711 369735
809 57990 367220
810 725163 553109
811 620953 741790
812 952882 921153
813 288327 227897
814 478725 680208
815 43128 666941
816 379315 962924
817 671563 553171
818 787405 227593
819 53169 51738
820 737680 599677
821 779425 747227
822 271667 944833
823 24401 875785
824 231010 504785
825 296128 418586
826 255327 63460
827 51338 524991
828 28288 51293
829 332623 413769
830 846519 461503
831 864076 878509
832 85757 701302
833 247217 281282
834 147694 932424
835 167869 17926
836 138724 553205
837 71091 306576
838 297782 557492
839 690452 427891
840 892864 237034
841 895273 64956
842 833689 581624
843 802864 500806
844 877167 970261
845 305954 506122
846 79899 120744
847 883869 719754
848 460952 226220
849 676135 965091
850 647050 466909
851 185332 803118
852 611920 59094
853 523313 190370
854 229771 469713
855 722126 527482
856 174125 362362
857 107815 340396
858 381604 743331
859 994640 366002
860 240349 20996
861 605146 182602
862 285373 700960
863 832593 335606
864 941284 11997
865 783263 107412
866 327721 220738
867 705764 365381
868 62908 532910
869 957141 493292
870 200019 59532
871 506165 511165
872 729911 284957
873 900975 897296
874 835371 182909
875 887161 125346
876 284935 664138
877 181828 539638
878 139187 964593
879 97353 246539
880 996185 990402
881 233228 736478
882 269694 662594
883 21316 662960
884 632451 822857
885 439420 484308
886 907960 811731
887 478841 115003
888 736060 941008
889 774 745734
890 561772 867999
891 238252 694745
892 15811 792860
893 874183 591242
894 951044 43170
895 344064 399948
896 900459 134284
897 53871 715711
898 151571 694434
899 32323 614907
900 548896 959967
901 896521 89636
902 621136 19161
903 887094 590190
904 648327 388967
905 665455 547945
906 13548 54183
907 902474 596237
908 89942 98944
909 682607 553982
910 511022 326882
911 630636 17543
912 273960 479453
913 587786 818324
914 190594 459680
915 227909 145870
916 292680 611807
917 80278 13826
918 854450 184069
919 792271 419574
920 702918 775238
921 908635 397061
922 532148 17182
923 769311 882915
924 860323 574418
925 127924 333247
926 503839 572643
927 386998 403026
928 667286 284714
929 9357 607310
930 164710 703024
931 797918 228752
932 686049 890217
933 639310 616487
934 522034 885291
935 826925 207026
936 238621 108188
937 426058 177774
938 823043 57993
939 630545 870934
940 812167 303072
941 808966 583284
942 294969 524884
943 347951 63928
944 925758 190061
945 374516 237963
946 662034 906979
947 592649 495891
948 536616 800446
949 971003 354373
950 194139 711318
951 252370 989388
952 762250 824851
953 524281 920555
954 277673 862113
955 55074 603358
956 358955 819296
957 232793 926746
958 40990 890939
959 636103 190157
960 353600 838863
961 645483 167660
962 691152 115606
963 954655 249233
964 345937 601206
965 653493 902487
966 780319 768431
967 815859 208808
968 944116 989670
969 350490 368223
970 483894 457012
971 427824 735600
972 836461 535652
973 592480 494373
974 215826 477042
975 541235 287383
976 454508 369797
977 700880 291651
978 930999 483939
979 173528 553442
980 880735 534610
981 570064 909450
982 378219 598062
983 175534 623355
984 982834 697141
985 334266 546616
986 675112 159061
987 648922 66216
988 384355 275686
989 466780 399501
990 184606 470716
991 75704 792495
992 720470 118882
993 332422 870868
994 390212 217797
995 33274 320761
996 6835 653349
997 33956 937278
998 781899 268763
999 86678 770244
1000 151297 316794
1001 27593 816324
1002 292435 70519
1003 211679 662012
1004 649326 581997
1005 959228 60130
1006 93727 955731
1007 520167 559974
1008 527775 916715
1009 875493 440940
1010 816163 906771
1011 536676 212590
1012 545844 17472
1013 519022 858788
1014 866625 578402
1015 854537 722342
1016 626359 884782
1017 440273 124475
1018 376989 119973
1019 272328 160496
1020 591107 415706
1021 995374 949271
1022 401634 126503
1023 784084 794245
1024 107504 16484
1025 418255 923110
1026 402137 508275
1027 915707 428954
1028 690434 142810
1029 376051 167960
1030 693529 91705
1031 389684 488829
1032 990890 543521
1033 64755 144455
1034 554097 393664
1035 775889 733530
1036 809210 859009
1037 22684 893052
1038 504633 28401
1039 296883 116889
1040 327037 376212
1041 482736 698665
1042 884873 762831
1043 332658 137530
1044 893892 896752
1045 59720 232533
1046 565876 878664
1047 384607 857577
1048 606496 136365
1049 926586 508581
1050 621870 755683
1051 497362 990615
1052 689447 42043
1053 440374 703472
1054 623402 152875
1055 96296 552904
1056 248918 479298
1057 108240 460996
1058 525829 511019
1059 104222 133312
1060 937025 928390
1061 217869 45515
1062 771793 20206
1063 236167 818595
1064 169562 980641
1065 452678 801160
1066 404998 144007
1067 20592 774133
1068 127294 3437
1069 590425 423876
1070 237001 821638
1071 33307 760579
1072 959726 131329
1073 14664 520360
1074 106870 364400
1075 621409 787900
1076 966803 945945
1077 55903 820709
1078 350684 353354
1079 970022 915313
1080 914749 436936
1081 113047 199525
1082 915874 274658
1083 519596 488338
1084 519572 976910
1085 446331 5469
1086 404149 739822
1087 511903 149124
1088 961586 271923
1089 989612 951084
1090 669522 882812
1091 848572 254248
1092 65891 15742
1093 688113 205473
1094 228132 745934
1095 254537 638955
1096 483865 613514
1097 977545 231532
1098 417488 293485
1099 248676 810602
1100 169743 742740
1101 530748 155785
1102 694877 738596
1103 939328 712555
1104 880053 40160
1105 132596 145211
1106 125222 224088
1107 660775 275793
1108 953070 499532
1109 221980 684342
1110 857169 226110
1111 239661 708969
1112 807166 703591
1113 474720 248363
1114 44944 773306
1115 209795 249031
1116 391870 949451
1117 818488 524311
1118 757590 624484
1119 593472 790097
1120 62672 188580
1121 983492 543790
1122 888765 28427
1123 399293 774896
1124 806348 273954
1125 756811 169125
1126 248541 475369
1127 600806 920712
1128 350870 581296
1129 337297 170566
1130 981005 314844
1131 119082 89955
1132 977488 944016
1133 161718 581431
1134 335322 632348
1135 876499 178173
1136 693184 948026
1137 927530 688043
1138 977568 764292
1139 108162 886454
1140 352720 893423
1141 911065 874377
1142 792301 894951
1143 129948 301914
1144 971962 874471
1145 362592 176159
1146 289161 961123
1147 913598 884498
1148 495395 35465
1149 616259 200721
1150 50858 635001
1151 666733 919893
1152 921233 863387
1153 258059 374164
1154 683068 705855
1155 790763 48955
1156 609334 462826
1157 807974 804846
1158 25682 157959
1159 176357 92989
1160 448620 126253
1161 965171 134601
1162 581490 241498
1163 511439 773291
1164 26793 64143
1165 429984 603404
1166 81224 402307
1167 95691 303765
1168 284089 448239
1169 66402 987454
1170 869268 971989
1171 125557 878972
1172 425851 236339
1173 210987 154560
1174 379632 672099
1175 373058 722104
1176 8672 552116
1177 770737 447453
1178 553777 264426
1179 824202 617467
1180 579297 809820
1181 307761 695613
1182 836586 818773
1183 923397 730361
1184 36974 571635
1185 593858 871122
1186 778326 504257
1187 719930 726516
1188 117580 413055
1189 363863 134037
1190 687720 247013
1191 949089 409325
1192 484845 620163
1193 295643 385610
1194 565721 276917
1195 380367 553727
1196 411264 494766
1197 393595 998145
1198 193663 621299
1199 159041 699334
1200 118758 797932
1201 790696 245595
1202 984378 126045
1203 773014 599346
1204 67271 150573
1205 151810 168166
1206 698704 547284
1207 237099 25569
1208 398556 812994
1209 302017 838440
1210 625110 302097
1211 571319 337640
1212 452877 795926
1213 80426 532730
1214 519878 593885
1215 953501 518234
1216 345784 213289
1217 982227 519553
1218 548308 401804
1219 172226 459275
1220 221607 482648
1221 83593 727280
1222 651806 78270
1223 982408 73624
1224 41889 597669
1225 917719 660932
1226 101420 565156
1227 745833 600523
1228 452148 577406
1229 263368 464824
1230 577736 371210
1231 427119 607995
1232 928966 669161
1233 84573 971424
1234 895478 158829
1235 43161 324931
1236 771105 704348
1237 920721 964177
1238 200676 6163
1239 591806 852354
1240 343778 503019
1241 269362 55053
1242 16149 582290
1243 91114 737788
1244 284323 313065
1245 434980 576884
1246 506326 13396
1247 416113 896675
1248 711543 379244
1249 806559 687628
1250 877593 976244
1251 481817 189535
1252 253890 414700
1253 391570 46366
1254 549006 163542
1255 509408 714359
1256 293083 950303
1257 29844 852
1258 864884 413723
1259 191881 32290
1260 957618 705329
1261 164865 207849
1262 281236 66917
1263 843114 581570
1264 450457 506020
1265 572607 154309
1266 457156 428264
1267 342945 629419
1268 209936 319059
1269 25209 15296
1270 717406 677391
1271 545907 252032
1272 355446 729650
1273 412019 298476
1274 732160 349196
1275 53561 129973
1276 928786 300538
1277 115021 723283
1278 519087 53553
1279 846589 624471
1280 204763 72511
1281 21157 533709
1282 446135 832017
1283 168452 41050
1284 594856 300193
1285 588833 566407
1286 681562 842684
1287 978729 827645
1288 776542 864326
1289 92828 557953
1290 547829 789561
1291 734980 825986
1292 301256 500096
1293 133152 923446
1294 982128 510928
1295 460966 168886
1296 724203 725015
1297 426463 150999
1298 995828 703222
1299 273303 527801
1300 953108 547692
1301 205648 174207
1302 801366 264000
1303 394992 102800
1304 999281 614924
1305 590131 595640
1306 71424 335661
1307 163504 35877
1308 348308 296142
1309 107245 295136
1310 836188 465229
1311 767746 67054
1312 347085 41140
1313 360758 507355
1314 41317 714728
1315 432652 673741
1316 865044 477903
1317 967821 952189
1318 718136 399318
1319 662481 265378
1320 151788 837009
1321 816201 686992
1322 674739 995737
1323 401139 657148
1324 377930 385323
1325 790241 488473
1326 661904 558574
1327 95149 279366
1328 682648 727745
1329 206385 849177
1330 545863 995674
1331 440319 733902
1332 463136 753121
1333 779439 384432
1334 660921 167767
1335 634738 691159
1336 918212 721922
1337 504895 347714
1338 803325 209171
1339 971904 67718
1340 358492 633013
1341 300969 192140
1342 168865 436977
1343 233422 131141
1344 14767 214700
1345 172749 333704
1346 738397 494713
1347 630640 460628
1348 918797 94278
1349 182097 327024
1350 192411 191968
1351 685244 310211
1352 26831 157228
1353 187503 469764
1354 389709 658171
1355 45944 551506
1356 712978 991684
1357 676427 212159
1358 257276 945605
1359 103262 2507
1360 834323 685160
1361 202334 333896
1362 975355 442770
1363 5914 608000
1364 695090 347667
1365 160211 333560
1366 819461 313732
1367 21773 806985
1368 920034 309285
1369 515712 956706
1370 179701 287816
1371 27879 12259
1372 380377 487589
1373 131369 404500
1374 519357 187870
1375 454714 310797
1376 399188 834430
1377 166813 858850
1378 372506 371512
1379 288438 219845
1380 237193 878218
1381 954051 433003
1382 478470 758128
1383 523626 700718
1384 611307 188838
1385 80789 852776
1386 426247 915391
1387 547793 523526
1388 285972 367904
1389 167083 116504
1390 70263 634402
1391 319561 475245
1392 110473 281993
1393 379509 386458
1394 835261 263645
1395 283359 219315
1396 697977 326873
1397 875916 326924
1398 861568 112488
1399 464466 856851
1400 201616 763465
