NAME : portgen-700-703
COMMENT : portgen N=700, seed=703
TYPE : TSP
DIMENSION : 700
EDGE_WEIGHT_TYPE : EUC_2D
NODE_COORD_SECTION
1 237421 312983
2 582928 242048
3 397100 9989
4 100264 218279
5 263578 469455
6 756990 862209
7 700585 7068
8 450389 129525
9 998767 539922
10 794628 495757
11 250211 571262
12 464362 107149
13 266657 778387
14 610286 251602
15 237428 111872
16 635298 681278
17 298473 608528
18 922870 281213
19 229676 472006
20 238883 211179
21 838665 632542
22 702215 604109
23 283123 12658
24 245636 363056
25 3483 25445
26 219555 892411
27 869864 966329
28 400514 556143
29 14510 974399
30 319178 115886
31 780313 628258
32 979396 52399
33 630789 124447
34 159994 96475
35 723945 437731
36 883889 635711
37 536438 769182
38 276201 357800
39 701397 498032
40 706634 710514
41 763877 635887
42 932423 121541
43 331559 7040
44 701882 246073
45 977738 798422
46 121219 133200
47 748060 801151
48 327289 202954
49 96103 933032
50 327907 925322
51 311260 747603
52 656421 292969
53 261568 583668
54 959987 748322
55 634769 393474
56 854261 768436
57 996660 520756
58 994667 647112
59 880197 178244
60 725109 427835
61 28344 226962
62 768568 798622
63 126471 136286
64 979289 243469
65 507614 692532
66 397813 953074
67 863263 313159
68 856252 995441
69 639227 411667
70 126874 684447
71 126842 523637
72 520964 549903
73 770077 894257
74 364632 949438
75 674680 191003
76 223664 852634
77 425418 635374
78 527509 358185
79 884340 343261
80 436717 266127
81 944441 548319
82 621448 950322
83 266631 330624
84 247471 446757
85 750678 100409
86 282480 930759
87 503563 534105
88 204171 175710
89 801543 133193
90 271112 768285
91 251946 636027
92 806751 241486
93 748091 849493
94 331626 912940
95 46527 525628
96 747969 192470
97 660989 26464
98 401967 196083
99 20073 986858
100 345731 594367
101 92713 231439
102 678325 906395
103 939057 587636
104 45882 183931
105 887283 678016
106 26559 971399
107 296734 911089
108 518158 751971
109 887330 594984
110 548355 70548
111 310550 260613
112 101025 156311
113 7696 51040
114 252433 597168
115 595048 616534
116 129828 617611
117 245910 593096
118 741726 280546
119 339293 895662
120 723328 996120
121 962163 736642
122 364585 975979
123 215077 487355
124 91444 504678
125 18768 350926
126 943649 422905
127 391809 729197
128 464538 475102
129 985529 85228
130 164669 658510
131 248343 150219
132 460603 891162
133 715853 289917
134 606813 320754
135 696011 30802
136 660526 382651
137 576215 197429
138 126898 887645
139 868803 371828
140 691772 532594
141 65511 167205
142 432499 936538
143 368191 979609
144 157008 354747
145 877243 451808
146 673733 18539
147 199651 692525
148 335594 579511
149 160426 167156
150 849081 327432
151 618551 719616
152 812905 486173
153 285414 776444
154 990405 455271
155 361005 484929
156 318093 630781
157 207985 712860
158 984777 229803
159 950567 768078
160 555568 136341
161 129491 439657
162 471672 368578
163 412251 940909
164 569746 90042
165 912014 350454
166 897239 413531
167 10822 206843
168 214500 434729
169 959220 719639
170 951760 138387
171 29041 388929
172 799178 740901
173 322317 234075
174 546866 831073
175 280273 394684
176 9765 70384
177 255141 498627
178 430193 205019
179 708793 606062
180 271673 850684
181 817223 270766
182 503511 222618
183 455887 929164
184 831603 467083
185 390542 750702
186 682936 119493
187 487804 160884
188 126576 59107
189 184516 973044
190 938384 207231
191 232115 963683
192 818368 61329
193 533230 626472
194 910020 788204
195 750955 285336
196 603126 492136
197 329096 201058
198 455450 909547
199 901125 638294
200 614324 263210
201 49559 573822
202 892689 73042
203 162568 46081
204 252015 193811
205 965397 803720
206 294998 920589
207 855107 986337
208 247558 325086
209 941669 302452
210 767167 546339
211 28038 193309
212 852758 127332
213 701142 109114
214 226804 414762
215 998316 80495
216 807091 990704
217 7647 134663
218 912232 311526
219 108576 832030
220 813771 208143
221 684803 607567
222 21037 204615
223 257297 409817
224 639378 201764
225 499915 346336
226 682743 486362
227 639977 533829
228 456118 58854
229 566174 758025
230 160809 851041
231 937505 419984
232 380040 757254
233 118917 687431
234 899552 650492
235 729040 837741
236 685708 739904
237 802537 420830
238 863596 541675
239 553331 318929
240 671213 642288
241 542939 468779
242 253953 147274
243 142990 387106
244 610664 250393
245 15745 224801
246 411974 458083
247 102990 976030
248 522434 944898
249 805030 600206
250 341018 715621
251 856485 320448
252 530551 857627
253 803396 213964
254 232409 492703
255 390839 69012
256 448190 315781
257 742279 936007
258 439067 479421
259 316994 404009
260 234819 174019
261 882400 299345
262 309473 13419
263 981255 365259
264 209353 944909
265 617434 649632
266 309266 60627
267 928090 602200
268 194097 227158
269 726499 317945
270 708207 663568
271 70112 206654
272 15573 841726
273 342401 112628
274 148610 89571
275 994774 157174
276 735545 860120
277 982771 691385
278 406355 795857
279 392358 928350
280 663529 576237
281 487464 914464
282 784496 727270
283 998900 241536
284 300208 900553
285 593606 326438
286 330811 227422
287 409235 77644
288 438473 22279
289 316574 618088
290 607063 185397
291 972900 281002
292 281379 41196
293 162168 394801
294 276131 200820
295 603300 952561
296 926950 825946
297 724339 381768
298 332757 842689
299 797418 937928
300 403252 320121
301 796054 530521
302 482507 809376
303 184273 454543
304 578740 941574
305 529217 11553
306 519726 191538
307 325050 710968
308 649287 661518
309 190124 402728
310 394512 156210
311 444117 362279
312 497300 273484
313 530384 800289
314 744915 599858
315 893370 983930
316 443538 374999
317 88871 595510
318 665671 781362
319 955952 570411
320 391908 500650
321 204677 873403
322 806307 447089
323 508444 564670
324 328646 450854
325 851384 532468
326 97773 197560
327 44557 419321
328 876582 421055
329 441650 886996
330 143705 402911
331 498591 8329
332 549666 28567
333 806876 646323
334 385230 877960
335 202524 84617
336 332872 739270
337 551343 862044
338 58436 246557
339 317721 77978
340 396901 109328
341 358639 857918
342 456153 490459
343 485339 435209
344 825333 60304
345 788634 19348
346 396131 77991
347 367887 307291
348 167778 465407
349 322059 944263
350 388653 261887
351 246948 250667
352 53952 742055
353 173829 239855
354 741406 554098
355 933982 441372
356 595722 381346
357 98362 124356
358 6780 420599
359 640442 242374
360 860789 341469
361 324263 440967
362 489307 940637
363 837668 82204
364 685317 809288
365 688214 818581
366 505150 763622
367 143995 955528
368 513606 977292
369 759556 331796
370 483678 64740
371 794767 582958
372 199514 447165
373 695084 955164
374 588684 427250
375 469623 85573
376 780089 512771
377 256048 570071
378 756736 483326
379 106672 98423
380 228449 196536
381 480299 409610
382 70419 869242
383 646605 12763
384 181831 651196
385 429272 51616
386 831915 213191
387 772751 775215
388 561379 811492
389 184918 919235
390 183900 354342
391 975532 586893
392 580839 491678
393 338281 95539
394 693202 274753
395 308923 500842
396 795460 108359
397 902524 432062
398 232825 581575
399 810206 424299
400 885786 883592
401 770245 669448
402 243350 115280
403 110041 193196
404 931932 764370
405 231789 661197
406 790123 831918
407 789500 727606
408 401075 371940
409 507085 638357
410 636416 65029
411 202556 757531
412 765410 545679
413 281370 162466
414 969841 657470
415 665173 368182
416 879559 420548
417 687445 522703
418 564218 143613
419 797393 853232
420 90602 966341
421 588453 54845
422 638336 243893
423 298285 37928
424 342948 356844
425 150691 70358
426 611733 152736
427 759126 517603
428 4032 349696
429 982002 720646
430 551061 966428
431 395803 78700
432 673768 265447
433 72743 735277
434 193581 545606
435 429321 363146
436 28991 150241
437 487665 566058
438 453295 49820
439 998405 247807
440 541646 931674
441 180463 249194
442 106408 698745
443 972379 800859
444 746780 421998
445 449960 828941
446 950032 251786
447 423910 727455
448 937350 438212
449 567179 72278
450 790598 248464
451 39523 95140
452 815198 219017
453 889894 362538
454 46327 60381
455 545223 203173
456 602916 560004
457 270686 722120
458 16395 144016
459 654789 946312
460 328097 634530
461 168097 121302
462 755008 180856
463 323623 933850
464 335042 268648
465 676163 90756
466 3493 938024
467 702584 338473
468 328757 620459
469 978508 384288
470 682349 828363
471 146070 800467
472 93900 815429
473 660843 828729
474 496778 243054
475 403831 3499
476 103170 298531
477 396114 699841
478 244971 101498
479 392556 476725
480 890259 269435
481 384030 662039
482 378031 716859
483 57102 802448
484 466104 455257
485 61277 187665
486 647237 411734
487 542480 324598
488 531360 869565
489 725187 55166
490 935884 222124
491 541293 858317
492 378388 406728
493 706725 341453
494 559993 985724
495 281370 526309
496 154355 523251
497 323011 494683
498 181125 734335
499 257987 769302
500 284069 791277
501 103541 441612
502 307169 181707
503 462205 244852
504 920143 989386
505 993115 903517
506 541505 406832
507 195354 363950
508 115080 860779
509 339028 883347
510 535734 322766
511 544461 696802
512 171187 269999
513 84124 205625
514 104565 360773
515 862392 286507
516 949422 735801
517 62050 32367
518 680619 134461
519 662962 14437
520 291647 845945
521 2425 676645
522 449990 958603
523 981847 457552
524 352063 53011
525 410559 975500
526 629770 897213
527 906909 997562
528 841855 367740
529 379561 274802
530 501088 327744
531 581890 905705
532 697738 147169
533 901092 864859
534 956842 236751
535 382102 657527
536 508716 286016
537 472787 560233
538 692996 647247
539 789892 173624
540 428143 716383
541 826064 829762
542 859685 534648
543 704616 43716
544 38062 914881
545 131274 815759
546 177618 426211
547 632334 634120
548 337229 716408
549 203858 889756
550 265607 334600
551 667660 178438
552 624867 694176
553 149436 800007
554 37528 372261
555 292945 798139
556 329678 464680
557 143527 685329
558 150125 155679
559 273371 63618
560 809940 184683
561 661001 67086
562 971144 47502
563 989867 330277
564 661148 778611
565 410797 892988
566 609719 417631
567 880679 630004
568 386705 361384
569 686235 174356
570 384523 548937
571 770345 974443
572 104941 946591
573 154757 110532
574 455067 584832
575 644253 6952
576 55259 425247
577 478958 372618
578 724880 250028
579 297759 994863
580 307471 788052
581 113772 863172
582 987737 744007
583 27794 355234
584 359738 196936
585 530571 39592
586 700611 688539
587 419365 802987
588 129423 235754
589 588127 598525
590 322622 739838
591 32517 666285
592 471140 622745
593 779215 746547
594 429893 136671
595 602210 31470
596 1645 489299
597 643784 344931
598 848325 81806
599 555077 301953
600 817168 919003
601 522405 856541
602 262209 904414
603 974435 388974
604 954107 856213
605 593403 978333
606 820134 161088
607 392653 276000
608 786406 624473
609 219387 642806
610 895681 945988
611 800156 57785
612 379768 611568
613 517186 844069
614 426329 514950
615 828552 740448
616 281646 731913
617 5121 344288
618 919703 871428
619 273632 195139
620 836338 154742
621 527159 787087
622 240989 656222
623 231313 943860
624 109531 32216
625 827744 4255
626 655477 40127
627 473401 76719
628 637356 790492
629 851419 917921
630 984711 103006
631 115342 758967
632 19874 438661
633 451173 33047
634 920099 736430
635 44686 842546
636 514942 187170
637 815062 891425
638 290511 760029
639 584383 303048
640 974211 726694
641 992650 508408
642 530239 725545
643 625106 522679
644 712039 566460
645 893115 886655
646 951329 537201
647 150452 993792
648 639799 339989
649 972025 349563
650 365711 471284
651 359476 806482
652 58004 101050
653 11605 147068
654 509887 747855
655 451612 114677
656 78452 284959
657 24805 98055
658 151676 578140
659 608514 26082
660 798861 111184
661 61022 570535
662 370719 573402
663 483069 708460
664 129165 714011
665 879819 143442
666 250141 836528
667 851436 859534
668 648241 707690
669 483602 432183
670 573868 46966
671 914164 685957
672 767598 781930
673 825633 380794
674 166481 577050
675 510722 931339
676 210823 258013
677 469743 222268
678 221142 522948
679 955045 198470
680 452809 303915
681 663466 77703
682 173986 404645
683 200512 392495
684 517360 242874
685 272422 770882
686 411659 31464
687 515359 867522
688 900361 803009
689 100791 148451
690 352259 960121
691 753414 930695
692 261202 575904
693 479975 172437
694 662541 446790
695 659022 255745
696 190330 240727
697 159761 802985
698 635307 882700
699 170597 900076
700 881569 22623
