NAME : portgen-1000-1001
COMMENT : portgen N=1000, seed=1001
TYPE : TSP
DIMENSION : 1000
EDGE_WEIGHT_TYPE : EUC_2D
NODE_COORD_SECTION
1 237553 126017
2 559018 61291
3 487903 667966
4 493885 894429
5 4020 285253
6 848824 745749
7 975253 669992
8 958591 117279
9 35444 745003
10 149741 766253
11 329565 703325
12 109943 868779
13 986433 856403
14 984398 35699
15 26635 988473
16 670276 881942
17 959072 106580
18 602252 125366
19 478502 107792
20 801311 766051
21 162230 58040
22 510767 861539
23 392218 319626
24 201012 537791
25 869729 13080
26 340413 33292
27 553120 613481
28 852665 355611
29 166945 452438
30 459038 362537
31 189463 386092
32 93117 237968
33 123023 790783
34 234981 113713
35 277773 638965
36 916267 497653
37 875274 136661
38 425839 296273
39 150204 496461
40 16114 630822
41 689458 531960
42 576660 664098
43 799009 284183
44 788824 721103
45 983557 811469
46 890384 364789
47 830018 162346
48 849783 664576
49 182766 374106
50 435700 95945
51 169421 704550
52 521677 238907
53 323621 808453
54 456631 889022
55 814472 568481
56 566786 445842
57 468881 647569
58 472152 824674
59 556073 930771
60 388184 458446
61 608016 860875
62 678013 181828
63 469543 211717
64 975976 636367
65 813039 617386
66 839641 261182
67 681989 447632
68 64035 243616
69 63079 929090
70 191945 974334
71 728109 858053
72 332918 525110
73 203452 29508
74 686775 648190
75 692802 638066
76 688600 546399
77 561066 818313
78 256303 908238
79 22560 74044
80 174871 80005
81 745374 527541
82 697076 840138
83 840371 708733
84 112923 943770
85 444117 442643
86 137898 907883
87 237968 750118
88 769845 61617
89 299808 859699
90 925524 561304
91 189156 901932
92 461496 733034
93 872012 312100
94 564106 841851
95 607261 355302
96 130692 119308
97 484973 749301
98 836435 820226
99 620084 582800
100 755264 141834
101 729700 827076
102 722665 131497
103 448910 786668
104 84903 828032
105 946301 944203
106 344132 180709
107 466782 819568
108 949312 626065
109 42567 947774
110 3702 20145
111 88648 530123
112 188505 302282
113 712943 310822
114 185217 106471
115 301208 983177
116 976714 471776
117 913397 981320
118 217172 8447
119 435149 641927
120 783721 245946
121 269532 616331
122 838148 587116
123 266654 600569
124 930803 182690
125 36358 525613
126 635008 513613
127 281591 772087
128 165120 257923
129 913678 741344
130 914325 440463
131 351518 442975
132 44310 700354
133 674670 727801
134 342560 879666
135 552914 348743
136 695262 859876
137 911416 478089
138 385136 575035
139 248531 416418
140 137162 455020
141 397143 443873
142 192145 860745
143 631659 533739
144 427466 213043
145 306650 489371
146 665886 555483
147 89013 434978
148 550684 409656
149 704915 360059
150 201979 691618
151 352037 514384
152 45528 581338
153 128469 191135
154 321467 420846
155 140427 631381
156 830457 700635
157 434694 424954
158 774576 796034
159 353961 609331
160 149670 265014
161 22885 982500
162 677686 861295
163 996706 180877
164 814347 330078
165 349619 194001
166 253568 827685
167 275990 505781
168 624563 696508
169 9178 767191
170 86168 835624
171 179777 818134
172 63373 41636
173 466485 683385
174 877797 227717
175 438272 369806
176 595308 374837
177 10440 7978
178 438050 524351
179 238393 539747
180 956774 431961
181 181956 554275
182 334677 304803
183 451603 12322
184 637261 393058
185 958468 91191
186 918237 126244
187 171059 779863
188 669705 648048
189 972060 669708
190 423245 472354
191 942484 274600
192 373303 917658
193 12045 699292
194 493007 971187
195 54177 612240
196 59246 616120
197 808723 994977
198 917387 53533
199 647075 283509
200 371930 818437
201 711324 208089
202 804472 965917
203 427322 320708
204 1533 92781
205 995932 738757
206 31344 267206
207 485569 344533
208 372714 565835
209 745551 339700
210 387415 398070
211 365246 353752
212 21127 140031
213 379866 710147
214 321771 205141
215 352541 348997
216 646514 879278
217 673775 684488
218 441010 675278
219 789030 28769
220 544943 446209
221 953741 153307
222 583772 656106
223 246994 705494
224 594993 668692
225 615111 207239
226 731761 441934
227 930968 22933
228 171922 832045
229 534314 119983
230 524907 752044
231 531677 972764
232 547837 549723
233 785016 878037
234 683433 829463
235 97539 667220
236 970842 76859
237 724589 180176
238 666309 923311
239 422783 998193
240 968108 547820
241 175833 201788
242 680233 600496
243 817319 673749
244 331441 124052
245 899471 562972
246 991844 959567
247 931229 877723
248 475367 876881
249 428717 403595
250 989797 323682
251 282710 596799
252 700583 67290
253 31405 529973
254 761701 330471
255 205613 498172
256 500604 410261
257 220512 961934
258 760200 572110
259 41534 670114
260 74355 908134
261 449319 279838
262 839666 773856
263 384510 374043
264 376275 657298
265 148770 136336
266 161610 92312
267 792580 469935
268 47215 765572
269 981276 718298
270 840296 245209
271 632215 661327
272 49696 991337
273 113653 712006
274 119901 157373
275 493213 101324
276 500605 771419
277 254825 853460
278 162071 190398
279 804219 230647
280 20074 265833
281 548697 43402
282 490175 960404
283 865957 839277
284 360565 229174
285 848281 48194
286 452209 884161
287 176900 973031
288 407529 677900
289 25012 986205
290 611785 194112
291 569823 145627
292 637223 882937
293 587639 118208
294 602136 832175
295 603978 207938
296 405006 752101
297 870017 792102
298 793000 748053
299 484426 76664
300 583807 435753
301 686993 133695
302 545588 299101
303 531500 354977
304 134195 371888
305 265821 43863
306 588261 972043
307 626669 812136
308 860826 796596
309 173385 698073
310 167404 117903
311 354851 283900
312 645367 412528
313 361200 318513
314 338573 877799
315 441531 52551
316 543704 653124
317 720383 567921
318 605851 597780
319 518958 825086
320 22110 791043
321 944822 904063
322 664771 486074
323 853086 121106
324 106733 457488
325 430901 474486
326 409480 606627
327 635133 531256
328 892048 33868
329 413312 977666
330 693250 933719
331 836019 309109
332 349777 474778
333 99040 684197
334 307271 140595
335 959049 739720
336 689862 715896
337 267172 692917
338 708423 748223
339 648766 114110
340 520479 327332
341 905200 360906
342 184548 507811
343 216532 234595
344 303346 245604
345 468880 921653
346 290509 378363
347 866036 282389
348 101181 228926
349 636891 971854
350 777651 104863
351 472339 992623
352 937009 103569
353 569286 48573
354 422078 127322
355 314724 657453
356 730522 167707
357 508785 771596
358 643210 457656
359 443072 67388
360 373597 870114
361 47305 335417
362 362943 854186
363 267381 697238
364 778887 163603
365 123631 659849
366 326144 521444
367 799386 863025
368 596809 737492
369 852121 412951
370 864601 758875
371 791522 235958
372 872007 598766
373 874348 955092
374 15419 11850
375 15008 403942
376 450038 473288
377 848223 117801
378 778718 950895
379 193236 73983
380 506759 831793
381 196452 9127
382 262721 555848
383 865931 494563
384 295700 910019
385 897248 688118
386 442237 431222
387 52379 969655
388 420075 574016
389 487193 245142
390 75468 316486
391 504002 704903
392 656843 291837
393 463397 317017
394 258723 243538
395 997094 102246
396 441792 942102
397 515703 176482
398 316638 360300
399 183579 902352
400 178690 300331
401 467898 770277
402 936382 698522
403 899939 745135
404 816444 556385
405 654404 461700
406 692171 949697
407 76889 404512
408 390000 254350
409 493424 86238
410 239210 505630
411 310983 393348
412 731328 596917
413 220219 671960
414 494839 353856
415 69715 674940
416 757572 930808
417 590737 613767
418 624314 554304
419 628014 252331
420 901837 209047
421 823593 172484
422 4328 491464
423 791262 48444
424 210774 918785
425 956263 644678
426 865460 829722
427 832636 503750
428 542758 537090
429 179539 322615
430 74208 345634
431 117121 564113
432 654548 445357
433 638107 519687
434 945369 585425
435 613249 341555
436 43575 574638
437 129975 594531
438 640170 481261
439 560711 227577
440 54158 683129
441 492420 172224
442 279648 724081
443 557818 193459
444 276260 145380
445 975659 104627
446 608935 42589
447 639081 560281
448 165471 248954
449 42509 409796
450 851294 310001
451 487733 983197
452 864626 273133
453 152257 693235
454 550074 108555
455 945932 349299
456 260829 34159
457 346955 969581
458 736699 74532
459 925031 94266
460 279886 389153
461 477177 535572
462 734131 303248
463 853822 60378
464 710012 856841
465 442274 946934
466 931186 452156
467 281645 704859
468 422299 458261
469 825268 310066
470 987382 483286
471 268427 181993
472 865494 586506
473 627449 73362
474 308457 335833
475 706458 105092
476 538942 185667
477 967521 904359
478 378815 35576
479 701551 159767
480 850833 693995
481 867966 240008
482 121173 462645
483 80871 78836
484 168665 760449
485 342131 663336
486 766074 589197
487 387808 174793
488 850210 291509
489 568051 829771
490 924432 818246
491 358826 550244
492 6007 748279
493 78967 691178
494 330982 818999
495 623987 343463
496 289596 64819
497 967935 324045
498 717212 679230
499 794185 690700
500 736295 335940
501 505311 478686
502 411401 888212
503 746265 988697
504 179660 219242
505 825391 687637
506 704593 882552
507 535780 507370
508 404398 803147
509 272072 797127
510 745433 401641
511 284651 477964
512 24154 6191
513 158024 287388
514 177796 499595
515 428528 861513
516 111849 348808
517 4379 236795
518 113652 476274
519 14463 498637
520 343880 275820
521 419105 533855
522 73566 222345
523 58811 811631
524 40664 961743
525 166021 429824
526 501434 294589
527 262171 874782
528 224090 156502
529 474306 174605
530 774560 269990
531 974233 681023
532 875361 549571
533 268531 170738
534 808986 313435
535 448558 592767
536 762482 310329
537 631106 315609
538 900207 990061
539 215793 149372
540 782100 1521
541 813081 3190
542 725035 158537
543 887279 430826
544 473446 454807
545 968263 942913
546 667288 701028
547 50078 751113
548 513337 108775
549 902748 757957
550 322137 68750
551 595838 891292
552 179643 164499
553 616742 498243
554 569554 103633
555 987502 793264
556 683055 19498
557 206341 831647
558 602702 273205
559 630944 124248
560 36234 159755
561 267989 51028
562 991297 379808
563 996928 871190
564 130686 466607
565 698866 401964
566 420507 112159
567 161869 988836
568 318465 793582
569 796848 893388
570 555835 614074
571 799881 349197
572 418573 808507
573 674923 616259
574 709731 670269
575 754184 642146
576 978089 436141
577 59090 920173
578 648242 483679
579 729422 190806
580 846033 823160
581 701394 676165
582 547798 373428
583 993382 333858
584 600925 397834
585 156723 986442
586 563473 960675
587 370064 394087
588 181666 831848
589 991938 71123
590 731565 513249
591 141767 939879
592 620574 875705
593 700569 744341
594 564361 788440
595 995453 984607
596 192656 399014
597 736664 569393
598 50600 839206
599 979133 24485
600 626841 843075
601 624321 638608
602 938703 240934
603 500378 38209
604 815567 183384
605 219604 903900
606 919318 940982
607 195353 861425
608 630503 302380
609 939500 978404
610 322828 154176
611 354724 576439
612 770992 313648
613 362120 924865
614 21971 129129
615 893708 143456
616 16281 808553
617 851519 827664
618 593931 200785
619 744526 759148
620 245202 398189
621 804840 585956
622 465612 841276
623 629883 616217
624 628021 423016
625 207272 125735
626 817234 850003
627 130777 483385
628 826793 815768
629 787088 111038
630 647003 299593
631 293683 56418
632 938182 821414
633 99060 333361
634 475369 354076
635 231542 14286
636 674358 516484
637 771131 197092
638 336942 504720
639 445662 287607
640 486854 546352
641 137776 910932
642 482125 594115
643 849772 959862
644 870370 30104
645 728604 260569
646 725416 390450
647 527606 230916
648 723831 288356
649 814824 268520
650 504334 125162
651 170555 340414
652 936162 660920
653 987959 906301
654 367878 536662
655 633612 866930
656 945397 756984
657 382433 386434
658 574177 903233
659 528811 707266
660 97583 810703
661 518537 206849
662 849741 106379
663 843730 333943
664 580322 110211
665 209132 430640
666 136842 909000
667 653995 619923
668 600955 380792
669 528499 95690
670 19938 946539
671 431051 163104
672 932521 917901
673 742031 518566
674 540708 421227
675 387185 389887
676 708034 704612
677 59387 73694
678 988320 261555
679 686418 316238
680 59964 607167
681 377802 272187
682 516723 687072
683 435879 782292
684 824462 464532
685 644402 55610
686 362524 107583
687 320081 707695
688 102669 813924
689 147461 776046
690 118059 582175
691 647524 264083
692 50246 601965
693 52838 864655
694 392276 966922
695 184044 818662
696 556329 63966
697 451288 964327
698 584014 323467
699 843023 224826
700 815231 928107
701 371104 764661
702 303167 805009
703 742362 443950
704 654365 457422
705 20856 123664
706 869279 719495
707 132194 241302
708 50837 313835
709 820899 552396
710 103057 112411
711 939269 599636
712 649300 716295
713 684505 597862
714 804415 515072
715 965332 658719
716 159559 690039
717 755190 994394
718 712896 928028
719 131889 808944
720 551127 739002
721 43755 839879
722 863865 71632
723 879392 956693
724 414665 734992
725 279821 986152
726 519051 327951
727 259493 156512
728 768548 681065
729 9471 308773
730 92112 814333
731 312060 845421
732 906295 281854
733 79908 29399
734 855630 60561
735 361910 94144
736 899170 85907
737 272574 116905
738 593359 611318
739 340142 492788
740 947747 3440
741 588391 495642
742 422959 150999
743 346658 314137
744 783744 473336
745 914485 683497
746 72398 71328
747 447034 456983
748 839831 957848
749 567305 746959
750 478273 268073
751 616550 921877
752 787244 276381
753 397761 23409
754 904991 108494
755 809854 454410
756 897320 536135
757 394287 408615
758 741935 240732
759 398387 449311
760 442022 122059
761 462094 108671
762 582287 93836
763 477593 977292
764 298662 996193
765 719144 569950
766 706327 231648
767 682933 493337
768 106119 52255
769 101355 14343
770 409063 105925
771 915750 334432
772 31313 792426
773 221402 963726
774 489040 353197
775 979389 862539
776 659186 571111
777 27814 908322
778 561746 384902
779 238944 293906
780 170261 345505
781 922053 890648
782 699430 703928
783 538659 562888
784 504821 601861
785 187212 778209
786 751692 45189
787 469921 579482
788 462873 890982
789 80856 673965
790 532090 92690
791 738348 4755
792 825932 373639
793 647896 815678
794 532217 979005
795 954677 543231
796 547433 499494
797 827130 630854
798 354233 870560
799 864510 451830
800 329552 330420
801 882869 815075
802 821106 886699
803 124191 654430
804 745179 654175
805 260425 746067
806 852685 259939
807 339229 627029
808 798071 422559
809 63517 68576
810 349694 668099
811 698377 52991
812 272308 856792
813 895339 936616
814 224082 583222
815 455291 808443
816 145802 426681
817 413539 786023
818 240005 478409
819 665526 198902
820 575567 225337
821 752161 463640
822 629310 286578
823 844854 494442
824 227185 970337
825 735514 417617
826 646477 281288
827 996539 521109
828 184617 456187
829 401535 35083
830 646693 645782
831 988903 546277
832 78607 35088
833 993906 389044
834 630628 52651
835 782174 303629
836 195373 93179
837 333062 932077
838 21621 417089
839 56451 751199
840 672174 439151
841 535080 188999
842 936528 809509
843 819539 599525
844 348073 378450
845 792116 850961
846 847780 612875
847 416727 271938
848 29963 658981
849 130578 697232
850 264956 427765
851 437990 475986
852 298163 296362
853 882536 457478
854 344759 187029
855 701570 585092
856 108114 23085
857 242967 795732
858 798001 376028
859 129549 806669
860 5125 334925
861 258465 933395
862 787694 354409
863 865638 719387
864 795016 36699
865 49541 564143
866 72329 869422
867 49628 87082
868 331037 511995
869 946031 140795
870 11507 443510
871 469976 541403
872 373325 457191
873 592495 914385
874 825180 62318
875 406299 310575
876 863964 93879
877 647691 700813
878 355435 568568
879 426357 211080
880 965325 370540
881 511446 203963
882 175521 258060
883 115116 566710
884 649760 785775
885 203236 883616
886 550848 67230
887 400369 694549
888 470960 164586
889 285704 86881
890 998973 297069
891 293030 583936
892 71374 679000
893 52696 868365
894 693900 791568
895 971965 764326
896 862235 160256
897 937559 127891
898 892661 402745
899 141034 678775
900 986230 427909
901 628680 738298
902 63345 109230
903 17545 280028
904 22504 968690
905 648116 487070
906 874668 634788
907 239114 200998
908 508305 351190
909 266404 47630
910 365398 712371
911 425676 970984
912 799545 775327
913 254935 812549
914 3885 291139
915 677003 190932
916 142081 317013
917 438765 511903
918 422401 658241
919 344821 870375
920 170695 701505
921 601961 646270
922 426170 259594
923 338650 891251
924 360711 162231
925 872956 80112
926 398859 849894
927 1772 795298
928 285827 311667
929 299533 551442
930 686828 359304
931 935206 152128
932 797995 946611
933 885109 228398
934 208618 979519
935 862348 617053
936 990479 104172
937 174674 285286
938 313511 575782
939 969211 4247
940 489499 943267
941 513016 452443
942 604311 317699
943 255725 989952
944 519017 492153
945 626793 194003
946 449623 365301
947 8027 553641
948 711025 497788
949 471595 140884
950 946083 762868
951 922039 356464
952 672732 929688
953 567095 946416
954 245583 684072
955 539572 295875
956 792650 807379
957 924648 492825
958 909680 569905
959 144100 244354
960 235585 387321
961 756802 67733
962 33436 99479
963 695014 634015
964 431440 244986
965 718190 367095
966 330198 285139
967 464674 193624
968 150617 705636
969 527795 111485
970 408019 685820
971 845851 274663
972 256568 239472
973 437200 381890
974 331864 908547
975 858626 77010
976 66347 226609
977 422694 578987
978 432669 636899
979 891789 479107
980 779070 861458
981 418620 134097
982 276053 853751
983 450023 517986
984 550811 685175
985 55624 527790
986 238040 235552
987 385727 158575
988 320973 530192
989 645039 454448
990 666810 58114
991 742226 952332
992 465915 856731
993 948474 196101
994 9086 610923
995 743601 632631
996 154825 842619
997 55861 880228
998 447780 610299
999 888936 97993
1000 918498 907008
