NAME : portgen-200-205
COMMENT : portgen N=200, seed=205
TYPE : TSP
DIMENSION : 200
EDGE_WEIGHT_TYPE : EUC_2D
NODE_COORD_SECTION
1 774114 524759
2 770535 389757
3 842670 662095
4 583408 725920
5 147002 676610
6 301508 513206
7 53656 852250
8 735340 512406
9 393849 190491
10 818633 386002
11 157868 739828
12 439195 35700
13 634280 245326
14 481736 464755
15 589691 975809
16 919126 305671
17 597204 158764
18 82828 669173
19 525262 456498
20 272139 290621
21 16062 545634
22 183224 207463
23 369265 654033
24 635645 151585
25 958549 999130
26 957182 227448
27 16638 160014
28 208666 468443
29 927554 611770
30 306928 173496
31 136832 126910
32 453780 856381
33 660547 755873
34 329982 846193
35 482984 81306
36 876761 242263
37 231941 819503
38 428819 930419
39 723190 279181
40 827034 165837
41 317771 869966
42 157826 416194
43 838976 792215
44 851890 740823
45 498217 326955
46 339191 679069
47 973513 190832
48 413860 773798
49 313692 363721
50 778643 438846
51 930843 356463
52 324551 792711
53 681358 87216
54 69621 600443
55 321037 416450
56 616552 186731
57 113552 979973
58 834305 457763
59 153396 262947
60 442520 886748
61 442181 966260
62 67549 44138
63 150463 520297
64 917711 439230
65 138144 341603
66 860797 122746
67 958143 410583
68 549285 131040
69 756414 177853
70 581889 381212
71 638819 588942
72 298302 611468
73 884774 372930
74 611520 929375
75 40369 893562
76 856086 874462
77 225576 437040
78 578048 808096
79 398320 913968
80 243426 550318
81 330801 891768
82 18553 939825
83 777630 27609
84 888428 502083
85 95199 461374
86 846243 224020
87 222578 548957
88 30661 567718
89 740683 630508
90 466089 342366
91 121977 3743
92 195803 587826
93 10801 969029
94 104193 18318
95 632952 521675
96 242611 254330
97 82653 120514
98 534969 414798
99 366364 749345
100 580807 317055
101 632246 981011
102 463286 698002
103 771585 852342
104 678659 637750
105 426239 609018
106 703903 380001
107 281015 721751
108 307706 76471
109 809114 898039
110 404855 362832
111 661244 139083
112 921276 778144
113 829128 865231
114 760734 524575
115 777372 178318
116 889059 102933
117 204269 857070
118 638463 741975
119 722728 474052
120 280119 934330
121 159914 206154
122 613462 270120
123 860430 103528
124 333054 304509
125 291386 669737
126 654064 841789
127 971972 402488
128 427996 529313
129 776742 606215
130 59538 29609
131 129614 204606
132 357630 491909
133 449104 497749
134 766539 10894
135 861320 204177
136 743417 504605
137 606653 735118
138 708768 819455
139 167110 518788
140 350147 299815
141 88489 154519
142 465036 747762
143 48704 684452
144 745302 712359
145 407966 140714
146 975436 711834
147 612731 75942
148 190912 655308
149 599500 878344
150 561352 40975
151 936418 814265
152 954361 991570
153 581248 499544
154 376752 224210
155 353783 743543
156 784010 64382
157 198249 918824
158 54173 417780
159 591874 281688
160 300996 793795
161 898248 888194
162 449542 820345
163 267759 929151
164 550244 615082
165 153869 209223
166 442702 942899
167 165004 606604
168 515804 24106
169 956269 546212
170 693588 630924
171 92577 463613
172 411363 614170
173 242466 87241
174 262291 792386
175 808182 261761
176 105064 984418
177 724474 352129
178 598272 993518
179 649261 347757
180 475766 557142
181 543275 830540
182 530621 722859
183 650966 320396
184 653019 584078
185 676357 966931
186 155488 799488
187 473506 39234
188 688731 913829
189 163720 97413
190 222072 274241
191 279890 202486
192 139316 596727
193 665948 612162
194 412277 442145
195 955637 195407
196 371086 372191
197 869854 726656
198 475436 293089
199 990107 372128
200 925439 328636
