NAME : portgen-1100-1101
COMMENT : portgen N=1100, seed=1101
TYPE : TSP
DIMENSION : 1100
EDGE_WEIGHT_TYPE : EUC_2D
NODE_COORD_SECTION
1 969141 613612
2 477169 577815
3 719716 512924
4 55503 302533
5 192088 773777
6 530647 478480
7 161383 415940
8 62014 931962
9 819564 317178
10 960182 185882
11 336060 553010
12 299736 23688
13 442734 83926
14 861617 37073
15 955899 618205
16 10873 969413
17 979407 582436
18 682582 509310
19 206296 797653
20 3469 448894
21 411749 388745
22 365986 431147
23 294599 845454
24 528319 556158
25 959073 532420
26 911171 295333
27 138105 193063
28 722514 999727
29 634205 894733
30 895233 210406
31 306628 257849
32 299064 743193
33 362027 141902
34 112494 730235
35 121340 216560
36 403642 263406
37 358105 427761
38 274711 40727
39 414904 106672
40 301174 443006
41 449720 966884
42 141840 745493
43 311576 753024
44 670349 236213
45 220408 540679
46 396815 476060
47 676313 786908
48 45251 148343
49 30640 938224
50 156435 253872
51 430549 421646
52 254984 516067
53 82700 944287
54 153492 392612
55 881486 969490
56 329378 397991
57 674324 354553
58 813590 830568
59 581535 512156
60 697941 213684
61 111262 174269
62 573799 867467
63 786011 981996
64 8421 842037
65 345061 330424
66 887234 22292
67 225186 331684
68 113627 51729
69 292559 787286
70 931902 481008
71 171488 158192
72 538272 6724
73 429416 222546
74 902260 808845
75 897 63255
76 139921 188602
77 593163 826011
78 366637 408256
79 196460 923300
80 402439 30970
81 651727 366205
82 460709 400478
83 798001 171185
84 859719 667600
85 925137 591044
86 928307 772690
87 511259 634686
88 73763 922660
89 581105 747788
90 500830 377754
91 785535 85121
92 439598 314090
93 678697 521028
94 561582 824707
95 533682 942441
96 192009 624959
97 862149 340858
98 552700 398797
99 646933 903585
100 932960 506756
101 641440 154471
102 308014 623142
103 277719 54799
104 749004 279072
105 147314 845608
106 846674 371753
107 389617 459997
108 838961 26768
109 504056 119851
110 847778 399204
111 524252 956133
112 734639 418380
113 949603 773836
114 464675 888116
115 356966 18964
116 173656 302033
117 600474 655221
118 531080 413782
119 695504 979600
120 475129 651928
121 16972 441730
122 976928 134477
123 418189 235875
124 890319 443769
125 391254 778863
126 934121 758817
127 546619 913996
128 333100 339407
129 553997 652793
130 92062 863937
131 359295 769403
132 803943 495385
133 828636 404943
134 394824 255139
135 41808 603085
136 136449 60287
137 728597 68914
138 465082 765435
139 409514 820643
140 85279 610196
141 219838 811882
142 796054 493029
143 659668 404252
144 498090 105089
145 826585 126137
146 18957 440364
147 937792 872043
148 515479 956685
149 713133 908013
150 669395 652754
151 826361 69675
152 358489 781057
153 559024 122239
154 962763 53589
155 254327 928848
156 841317 448908
157 826207 965925
158 844979 918931
159 831610 931899
160 979905 871951
161 691809 486810
162 585744 389053
163 776724 66773
164 701798 947539
165 509889 342843
166 802671 355924
167 566315 156431
168 768879 770930
169 985674 830129
170 648050 740737
171 572641 566190
172 125183 954634
173 434327 532147
174 854619 548739
175 95318 448706
176 254887 765593
177 398124 326552
178 850082 470436
179 503360 202057
180 12178 788094
181 136564 132634
182 405539 513589
183 356206 275126
184 323724 871573
185 531597 312831
186 64311 282871
187 836580 531198
188 617064 926216
189 88686 259192
190 538970 306288
191 563412 499740
192 935361 721795
193 206278 670037
194 950385 52725
195 800225 493752
196 447206 114101
197 298531 335218
198 676426 289769
199 729609 593984
200 337570 508110
201 443460 595427
202 9768 789030
203 885293 755146
204 830231 676328
205 120273 180044
206 520050 450634
207 401832 518425
208 340887 22462
209 834102 70320
210 837163 66436
211 545517 729739
212 534002 23487
213 869370 468883
214 273103 47550
215 645905 861917
216 95985 412357
217 138918 358926
218 786237 112778
219 97907 416936
220 380907 183815
221 835934 880065
222 215562 733788
223 948235 717466
224 580098 275043
225 465848 207542
226 16666 682059
227 948079 475652
228 412125 31103
229 456508 650842
230 2793 772515
231 657238 413294
232 295420 936457
233 344109 639985
234 235072 668044
235 570190 623421
236 442363 559059
237 604472 629620
238 49770 863458
239 781660 58349
240 611362 838267
241 12375 622260
242 44757 873390
243 204678 682690
244 116936 202461
245 14816 146251
246 877706 429863
247 846746 757486
248 741452 276875
249 275592 585941
250 684018 84776
251 935805 521749
252 663681 627580
253 195167 394405
254 637302 74689
255 270974 729434
256 914166 254047
257 636026 856541
258 894808 227375
259 566548 537934
260 195005 67234
261 364392 649130
262 984025 485413
263 687615 920614
264 895377 976891
265 434453 655364
266 226156 706971
267 787375 881927
268 924101 758328
269 986234 188215
270 978581 977303
271 116142 579002
272 7455 947582
273 781858 228575
274 445837 361333
275 69870 820837
276 381498 298700
277 151487 28654
278 858620 228834
279 734373 781754
280 703479 436838
281 408171 449086
282 96107 293670
283 613292 335164
284 246591 688444
285 74682 666233
286 781537 205214
287 468063 374168
288 685735 65692
289 497643 955371
290 626792 458781
291 186241 113623
292 273412 997615
293 247193 777069
294 610863 493704
295 268635 588937
296 511737 297790
297 113533 312348
298 195766 910927
299 110939 633287
300 261846 716166
301 730932 490465
302 734541 611089
303 634596 267875
304 25288 153872
305 781460 81551
306 617970 240668
307 513119 114542
308 925101 110380
309 335553 783759
310 97904 702364
311 224224 613303
312 426597 358516
313 935300 291071
314 470673 856973
315 739571 417860
316 40404 343770
317 173911 545240
318 840810 945572
319 600503 158870
320 72513 136812
321 441516 827104
322 395799 566270
323 364712 898433
324 871192 755017
325 377047 904694
326 440254 253965
327 893716 843985
328 675762 387161
329 316554 189300
330 770279 689024
331 667371 866417
332 81358 644648
333 640035 790866
334 844868 946848
335 749830 26667
336 239187 580536
337 406711 193210
338 262109 970259
339 719587 582611
340 682753 548138
341 974516 281372
342 86694 50547
343 750489 173986
344 262411 529262
345 905205 49944
346 100703 653655
347 409039 45845
348 897625 860979
349 420392 202589
350 304160 394452
351 178846 288581
352 72263 828909
353 930177 158881
354 167270 843169
355 93496 501776
356 124750 787292
357 284095 720335
358 588321 13715
359 457377 35513
360 747023 779055
361 370474 642279
362 642687 355377
363 847821 950606
364 508273 577802
365 263032 103228
366 802988 876418
367 489115 180977
368 423388 187224
369 997277 366359
370 462225 736773
371 716608 226898
372 782239 126149
373 679470 458423
374 10967 53662
375 198024 947018
376 352706 842589
377 939557 200932
378 591464 302428
379 799465 891285
380 405520 742953
381 161604 800911
382 380943 356722
383 785167 897851
384 5052 157945
385 40864 129897
386 2748 403715
387 837489 800004
388 426349 527884
389 702722 441755
390 763913 545393
391 151140 616987
392 172281 520079
393 941623 2077
394 495475 132392
395 395809 525536
396 182172 839331
397 325494 332328
398 734025 312892
399 389409 982235
400 699799 151585
401 755701 569212
402 289748 652630
403 795878 735719
404 670307 419477
405 259308 589386
406 806953 667073
407 495476 879984
408 560780 322272
409 475416 48614
410 622697 472275
411 508442 22816
412 458145 889279
413 374195 433535
414 113966 184858
415 4125 690630
416 857576 283244
417 182446 174526
418 738440 484067
419 121511 292297
420 959298 619350
421 526660 446860
422 509694 923534
423 17094 159355
424 381185 436215
425 958132 300489
426 198925 204550
427 978109 9169
428 294009 472457
429 386766 115221
430 914190 311811
431 614207 378010
432 460179 639957
433 62726 360092
434 157378 571941
435 862890 401424
436 941087 39201
437 90481 322207
438 273349 303892
439 44706 448976
440 595270 901738
441 46768 998744
442 270667 692314
443 76422 479566
444 823065 542488
445 111800 378347
446 326688 549569
447 429407 557874
448 678263 487458
449 356378 187487
450 650185 713201
451 114649 932209
452 840944 56393
453 253721 200180
454 933882 285795
455 932747 814442
456 649391 844278
457 3421 535843
458 985123 64638
459 948602 902305
460 961694 575268
461 3714 969891
462 921756 149688
463 286775 8878
464 198256 34087
465 68486 73168
466 370009 758911
467 516229 780827
468 252347 202490
469 995322 734824
470 707191 11784
471 530963 920760
472 580793 536531
473 374633 356796
474 627813 279719
475 271098 669385
476 289201 322290
477 119000 577016
478 343192 355737
479 415979 60117
480 804046 51230
481 204857 199057
482 578603 920962
483 283479 728631
484 263484 466890
485 161210 628326
486 436824 668882
487 631206 292309
488 286066 681423
489 850891 344739
490 806495 931038
491 592898 138139
492 230041 17256
493 868310 170951
494 180308 595266
495 497348 523716
496 939006 528432
497 573614 78865
498 574959 862080
499 289553 288484
500 250464 693209
501 505905 283073
502 473223 340059
503 76486 151061
504 92249 101744
505 708706 172240
506 175428 820713
507 562769 280330
508 112223 676425
509 625443 499738
510 346003 421398
511 439077 974999
512 216425 468000
513 122420 153751
514 195659 291146
515 215822 135004
516 589174 749146
517 636033 634254
518 755609 772185
519 575370 949710
520 905032 191885
521 545507 680569
522 249262 75950
523 84638 964007
524 312007 105613
525 956444 421207
526 666421 998406
527 72662 115459
528 104035 756758
529 647040 838969
530 584450 304301
531 575691 142538
532 196711 516820
533 626733 494859
534 571450 486818
535 195691 148216
536 364417 519830
537 543294 924795
538 754976 440670
539 902336 100965
540 363965 365662
541 506711 356689
542 706696 911520
543 559313 446635
544 552434 119212
545 7521 260750
546 200734 88551
547 754018 756815
548 827467 25677
549 137275 324467
550 320973 643968
551 61670 211041
552 741648 590781
553 914496 309731
554 291710 161141
555 556146 657400
556 204323 527827
557 831447 323700
558 103566 487139
559 388519 439896
560 689353 601055
561 357583 246982
562 165845 551723
563 86546 153376
564 778182 952512
565 10298 445244
566 148959 741195
567 544819 706565
568 161338 978883
569 525242 382996
570 807954 72173
571 58115 112538
572 429859 406466
573 903167 953751
574 922706 202295
575 670268 674091
576 247495 184763
577 314168 875728
578 495008 320474
579 666222 35083
580 429443 935612
581 784489 908713
582 353187 483972
583 599284 91785
584 97967 424981
585 420532 149814
586 564433 186224
587 769627 15262
588 353559 172819
589 932814 290116
590 56714 766071
591 487153 743099
592 523068 74685
593 660755 240245
594 388007 60846
595 107280 69553
596 880915 100261
597 962463 658139
598 507740 871890
599 342910 414597
600 52906 730347
601 20937 632590
602 145580 904196
603 186937 504396
604 661694 239482
605 214973 254762
606 932467 605375
607 927802 359889
608 54697 684227
609 946250 695048
610 976232 727394
611 748874 683370
612 372074 690185
613 128877 931843
614 40643 865431
615 828324 849163
616 511124 693331
617 75142 801952
618 833604 881778
619 815296 163178
620 19988 976527
621 293995 692959
622 84613 379885
623 320678 197545
624 728186 272278
625 529262 575896
626 831247 477479
627 586272 203742
628 219222 327605
629 557447 343628
630 70591 305159
631 689100 498515
632 219493 238445
633 960767 239507
634 520762 547916
635 39211 857151
636 956041 673972
637 165786 400336
638 896147 271395
639 97097 168332
640 470962 801271
641 374395 697015
642 794839 523165
643 160063 12609
644 473837 836696
645 841185 594097
646 361015 267379
647 123967 162836
648 20486 620023
649 527173 684277
650 483738 49282
651 100447 559854
652 801315 727990
653 201501 134231
654 682640 63107
655 43679 206613
656 853767 720750
657 502443 476494
658 944143 421720
659 374548 56657
660 217959 340743
661 712334 836485
662 64178 989928
663 756704 396186
664 872656 437795
665 198834 761915
666 588755 33990
667 124652 264349
668 947503 653644
669 194571 318344
670 579021 738342
671 638060 417180
672 618737 500441
673 881762 524530
674 203201 134038
675 406132 624299
676 747366 89377
677 485442 721823
678 460527 66456
679 435201 536966
680 780486 547856
681 939660 364295
682 484085 305336
683 568552 436587
684 102013 2001
685 594731 419613
686 218519 240509
687 650524 593659
688 593376 622956
689 351042 342354
690 529401 690247
691 960984 335690
692 657308 650978
693 822255 224459
694 549905 819316
695 695796 510916
696 551631 192570
697 723612 159408
698 519822 397550
699 766655 25077
700 907064 258806
701 173487 860847
702 604636 715884
703 663315 411676
704 432068 834463
705 899568 236067
706 516551 615885
707 841169 269570
708 996224 747089
709 640683 324676
710 785513 171001
711 669931 76935
712 94936 335925
713 246125 357672
714 635873 934640
715 930344 181700
716 190887 516578
717 442785 293334
718 173696 345099
719 494521 387738
720 654754 75165
721 583776 225228
722 33802 524794
723 840984 474696
724 97633 387686
725 913283 162150
726 761677 832015
727 94733 725363
728 67918 656908
729 418061 311302
730 542188 318215
731 917154 44330
732 179709 824403
733 652291 291322
734 582083 316374
735 428585 521528
736 649456 252996
737 411393 623363
738 409324 837915
739 982202 369573
740 268007 589216
741 939610 324570
742 392451 612128
743 264546 146557
744 336869 618381
745 641043 882373
746 763015 178146
747 959152 133225
748 425709 330779
749 813835 410438
750 115470 3069
751 492493 728060
752 119679 324067
753 222539 437106
754 439563 482604
755 460817 921361
756 320039 799680
757 670259 659815
758 555200 739008
759 85178 46484
760 398694 321511
761 477487 171644
762 200903 425516
763 29034 921395
764 133317 87325
765 400824 972217
766 398351 499597
767 908755 346646
768 269176 139930
769 654311 732636
770 56928 525537
771 61378 290385
772 219687 319531
773 404885 591370
774 977242 533635
775 104190 504313
776 197462 726509
777 9614 143253
778 604717 992896
779 819305 773032
780 54890 82608
781 782795 706927
782 425676 935279
783 859982 29654
784 579992 350727
785 254929 963829
786 761765 551543
787 942293 894381
788 124049 750977
789 162030 57650
790 820799 36138
791 102090 360284
792 32435 318216
793 189422 691423
794 73920 973475
795 486664 239521
796 559938 303583
797 477706 93099
798 763772 509835
799 348091 325305
800 195482 653907
801 429340 919592
802 712835 68052
803 402222 837177
804 694074 691398
805 953831 913293
806 918975 845829
807 286368 815368
808 522670 479211
809 229221 332577
810 171507 350146
811 681563 254686
812 155244 601022
813 534488 842173
814 838707 874241
815 492158 286871
816 56903 470632
817 103819 907506
818 117162 256260
819 73916 217066
820 795545 710210
821 462202 741343
822 801968 136517
823 557958 305251
824 148338 876683
825 558610 921599
826 671128 473849
827 833147 908611
828 597004 958707
829 815772 805329
830 950889 145962
831 763261 477008
832 895852 243620
833 451091 177632
834 43861 149851
835 257410 217418
836 330872 352537
837 773967 249907
838 679018 207713
839 421539 246633
840 4017 575780
841 26400 33377
842 923351 346196
843 523610 579894
844 574780 860198
845 456415 939530
846 212398 924064
847 959655 578126
848 379337 109664
849 967376 552060
850 457498 350245
851 883711 901705
852 872666 982829
853 895198 637750
854 550498 486950
855 385000 17109
856 383927 955573
857 348914 11359
858 933563 839196
859 517352 317725
860 864283 341426
861 210256 491801
862 692352 907165
863 333707 429167
864 479871 791137
865 354708 41267
866 657215 934588
867 861632 986907
868 191853 70827
869 684463 911992
870 412633 684413
871 62542 257055
872 995915 114988
873 729273 720597
874 231711 52490
875 244419 950169
876 629792 176238
877 197351 416231
878 693029 949123
879 40072 885758
880 790976 824371
881 953287 638506
882 74317 700587
883 954567 126872
884 959658 233925
885 282085 212966
886 607484 464861
887 73305 914114
888 711634 34018
889 294449 276121
890 214135 384583
891 389095 594113
892 161 530337
893 87979 18709
894 860270 161045
895 32339 64980
896 111169 450537
897 629906 199667
898 76928 597680
899 183749 81801
900 403354 695255
901 426147 955589
902 838355 859836
903 561073 35679
904 176076 667014
905 328251 674320
906 88853 879026
907 853418 725995
908 713202 502750
909 8599 874650
910 623658 356887
911 943122 877856
912 830571 586830
913 786818 651895
914 626506 213469
915 353040 675954
916 857941 627435
917 947870 539814
918 295730 510068
919 740694 274166
920 817134 585229
921 10109 985619
922 537387 675451
923 121857 233312
924 619965 43076
925 412848 425033
926 971173 970280
927 728761 727399
928 837313 798711
929 7719 298541
930 564105 51005
931 294985 901910
932 849879 743021
933 664211 103233
934 341639 177966
935 604137 479890
936 882784 965523
937 461802 198624
938 385713 972842
939 149095 103171
940 749516 988106
941 644176 327964
942 649363 302035
943 380969 956031
944 777556 204849
945 875602 192497
946 168429 562727
947 670028 337244
948 702445 44585
949 523817 338762
950 289738 149015
951 84216 516794
952 293559 424741
953 780857 643208
954 320917 426726
955 346430 881282
956 21155 802869
957 422938 371608
958 882575 732257
959 231882 512634
960 40576 619626
961 579416 2877
962 888228 455122
963 395673 365990
964 671963 37060
965 417767 742504
966 651924 722369
967 756740 868233
968 966951 841306
969 905025 277754
970 419459 648711
971 724149 264922
972 164272 255976
973 613080 165551
974 674498 214905
975 941571 336454
976 372621 486756
977 920994 547233
978 497090 361847
979 760053 425325
980 457789 939551
981 738183 43162
982 7266 697719
983 157133 756233
984 638597 166962
985 758527 717023
986 57759 16976
987 571062 704121
988 247004 92659
989 81882 340995
990 958031 33825
991 605936 246637
992 579270 478215
993 4321 608761
994 715102 59021
995 711100 210718
996 202708 738063
997 519226 702435
998 590952 707172
999 693859 460150
1000 8972 520421
1001 83669 333503
1002 256874 907746
1003 730518 125984
1004 907485 442779
1005 542911 888329
1006 646744 701031
1007 714225 247071
1008 736842 119
1009 523935 304831
1010 106766 449960
1011 62373 178446
1012 157990 238106
1013 633354 724255
1014 760102 663316
1015 973603 121019
1016 185174 639103
1017 798084 69702
1018 387080 904905
1019 532412 332199
1020 741373 4202
1021 84825 410271
1022 952254 261140
1023 148345 24261
1024 580073 281120
1025 69080 866696
1026 947070 30543
1027 486547 887952
1028 335246 444566
1029 535418 187171
1030 520665 825612
1031 593571 575286
1032 701406 538708
1033 803503 236473
1034 748776 453084
1035 98726 712581
1036 420046 242815
1037 235750 240070
1038 502889 31830
1039 691899 270037
1040 902859 188788
1041 188837 572930
1042 142651 147990
1043 527448 609888
1044 937697 259375
1045 266199 150607
1046 156128 79328
1047 233472 28792
1048 584156 842010
1049 174520 712184
1050 758251 116514
1051 332362 310035
1052 378260 880292
1053 677859 374140
1054 887891 338556
1055 360504 725358
1056 506868 276043
1057 920972 370058
1058 669484 514243
1059 341813 672614
1060 954552 961492
1061 61953 36591
1062 694833 982211
1063 380218 110010
1064 864555 355458
1065 562210 128749
1066 143938 353342
1067 909533 177501
1068 681919 912794
1069 651958 772593
1070 478506 13205
1071 268075 265083
1072 304823 304706
1073 88653 119536
1074 384494 251261
1075 648573 474145
1076 977455 819062
1077 149973 629501
1078 972576 979019
1079 400502 200758
1080 198373 765065
1081 722181 115298
1082 860050 347298
1083 457282 241785
1084 971220 616265
1085 281404 549947
1086 129748 90552
1087 24040 480406
1088 984037 242890
1089 886618 65331
1090 9635 401198
1091 709507 663796
1092 157084 797145
1093 406567 28640
1094 493292 562234
1095 720218 440133
1096 941573 35692
1097 491189 928559
1098 883456 177523
1099 241042 824416
1100 320669 845763
