NAME : portgen-1200-1205
COMMENT : portgen N=1200, seed=1205
TYPE : TSP
DIMENSION : 1200
EDGE_WEIGHT_TYPE : EUC_2D
NODE_COORD_SECTION
1 89993 400711
2 952047 555000
3 160802 111681
4 199585 806962
5 27678 561841
6 119744 840521
7 914958 311725
8 769575 659232
9 235049 912240
10 923041 582297
11 222815 236683
12 337120 584794
13 197286 520549
14 253924 478503
15 882334 273126
16 325094 180384
17 800555 917326
18 886124 508611
19 803201 355109
20 293712 119051
21 511248 852677
22 735414 903539
23 393075 912315
24 908719 335260
25 851991 192535
26 664758 847855
27 866490 955828
28 907157 909609
29 600155 34720
30 668875 652190
31 308479 844476
32 513249 908627
33 50592 267066
34 105107 11419
35 918649 857259
36 750513 899788
37 60248 730506
38 917538 374959
39 370193 381292
40 677637 287677
41 920393 219204
42 809627 230143
43 964646 480617
44 667134 891928
45 866734 619058
46 403504 791782
47 436459 436452
48 368538 611459
49 792428 4908
50 986000 18116
51 542122 527426
52 657623 564313
53 272141 445554
54 38227 636346
55 991181 426539
56 242474 708227
57 167985 49817
58 248686 516697
59 408016 76796
60 540088 439132
61 474638 100198
62 25418 900533
63 315137 223086
64 242164 495935
65 458364 471984
66 336731 733846
67 390110 251097
68 45203 212166
69 51219 759810
70 981457 447948
71 72601 590337
72 351839 427601
73 144420 303305
74 766364 535926
75 121315 145451
76 369294 296493
77 546543 514016
78 681384 808275
79 137316 406526
80 519110 59975
81 394334 278417
82 654888 543233
83 353937 652136
84 356387 740383
85 905397 945380
86 750333 872089
87 955481 394636
88 69837 178144
89 553654 511401
90 219148 506861
91 85770 835638
92 976824 398389
93 77649 58314
94 78958 846877
95 897159 393066
96 855778 310835
97 854412 36076
98 697615 200511
99 634856 957203
100 357764 966275
101 749650 254962
102 316778 614453
103 59681 533655
104 319669 148154
105 436367 623069
106 729317 290438
107 509366 126044
108 204196 83499
109 424004 618812
110 845617 153426
111 17279 399184
112 382619 939122
113 195730 495370
114 555311 341027
115 334955 536181
116 858475 405500
117 75034 596078
118 777544 795331
119 326272 850780
120 194192 994150
121 634309 460146
122 1259 743733
123 375786 456594
124 928216 915290
125 840346 202244
126 645200 293829
127 622247 821582
128 107800 344150
129 179928 720699
130 836908 264349
131 207383 468888
132 953961 442217
133 988760 269171
134 289179 765632
135 750257 747601
136 155283 508714
137 778466 643373
138 508226 723450
139 776936 561037
140 831321 851580
141 315442 834612
142 504118 70605
143 328798 389586
144 451538 632816
145 607318 508373
146 506152 560640
147 100522 446591
148 838866 125594
149 681679 357886
150 235507 652336
151 679658 367178
152 83968 988765
153 886802 810587
154 789710 551642
155 492783 718213
156 892611 547111
157 113381 328535
158 758197 646743
159 368365 507370
160 603350 863165
161 587491 931292
162 530125 97921
163 67943 788104
164 424746 789700
165 756570 697638
166 933739 225293
167 68253 113108
168 958968 768330
169 721230 175583
170 312407 682055
171 21220 944167
172 29466 744152
173 920882 574859
174 30514 2601
175 378647 50762
176 700848 891979
177 601315 537869
178 718596 454364
179 298925 970860
180 29797 118472
181 89357 614127
182 239234 810728
183 696993 948443
184 517645 369228
185 407652 183337
186 616228 365764
187 128723 552587
188 162317 695511
189 329977 992256
190 379324 613579
191 489179 453885
192 759903 638098
193 608281 319612
194 986058 257525
195 416114 10524
196 250684 352002
197 767930 129069
198 65827 655456
199 815444 476878
200 581835 225370
201 244882 38258
202 623276 765067
203 561583 246962
204 132076 963217
205 929587 398983
206 468305 41399
207 554745 19272
208 867787 737354
209 846196 110165
210 744901 41537
211 132999 40767
212 787393 182281
213 938455 577969
214 742487 363655
215 991003 915354
216 563434 366759
217 62668 980341
218 145273 447779
219 899140 740630
220 770310 870926
221 473416 875893
222 512624 374577
223 877525 209917
224 564608 585649
225 190614 487857
226 912968 451788
227 485874 666481
228 661935 878122
229 975590 642935
230 619793 113804
231 347822 391445
232 192907 58661
233 925567 592412
234 528775 180168
235 141746 657870
236 172746 260546
237 919550 257043
238 128569 681210
239 554892 120911
240 520345 60332
241 602378 99552
242 743861 877199
243 567531 171988
244 173852 4006
245 54774 552861
246 919003 718971
247 598883 112439
248 698180 212869
249 956342 255580
250 246008 196315
251 655025 443696
252 65303 130281
253 885479 813415
254 707927 608675
255 98949 489947
256 704270 971583
257 588160 66932
258 194801 628850
259 792562 80467
260 360481 712697
261 636069 273195
262 934160 945431
263 2845 729049
264 195243 789269
265 371564 315153
266 973283 946217
267 21962 30398
268 356061 630794
269 511391 676929
270 682397 938681
271 379426 93384
272 643525 342077
273 916792 645808
274 784811 653452
275 109594 969131
276 17626 167073
277 884016 930854
278 223032 708808
279 421734 34905
280 774219 254684
281 302024 30997
282 926277 160267
283 110520 610885
284 328058 246083
285 150139 548993
286 844038 139109
287 970872 391349
288 695070 468996
289 389178 3305
290 722399 294037
291 307314 160338
292 15049 116880
293 13129 942285
294 19939 861694
295 919878 745175
296 302736 265307
297 526789 133404
298 94642 240316
299 122512 252175
300 647006 447796
301 256629 781506
302 931052 815557
303 661816 857288
304 152024 767136
305 917725 280746
306 688868 560039
307 115026 29044
308 951947 36716
309 504208 792873
310 65625 870203
311 488373 75882
312 599077 702343
313 292364 62532
314 208057 155315
315 729533 837781
316 316971 622042
317 85579 441652
318 605168 747275
319 45311 986005
320 164932 976412
321 438076 227066
322 796069 49674
323 256802 226854
324 666230 824446
325 841040 32110
326 32259 967196
327 522642 809224
328 130824 634586
329 695926 489400
330 210388 914541
331 811977 166018
332 602203 941312
333 842670 461802
334 763970 65351
335 772241 725093
336 370486 679761
337 951833 33515
338 837944 521176
339 553240 789852
340 571518 657777
341 366605 718657
342 944926 814992
343 25804 150952
344 19839 144267
345 598982 143366
346 983304 979959
347 213763 439839
348 605926 758315
349 275233 762554
350 211730 735625
351 673613 876377
352 252927 183262
353 665505 313602
354 22270 707649
355 783419 979871
356 614747 551659
357 890417 67022
358 931236 832017
359 952255 162363
360 335385 84354
361 186569 1416
362 853621 36616
363 51479 494108
364 426834 768570
365 368009 524341
366 498906 845590
367 6432 591647
368 43029 814945
369 828239 877903
370 883755 193787
371 198697 857475
372 808881 514627
373 956796 981888
374 126338 177146
375 388359 111818
376 331480 506662
377 394544 687388
378 236719 828022
379 869944 661279
380 140232 850559
381 485362 144367
382 823893 589632
383 781174 757271
384 742778 375789
385 110225 949347
386 705679 775108
387 774003 223567
388 752874 679906
389 606871 166232
390 799897 223456
391 624163 765554
392 628337 517450
393 38979 354539
394 21696 416800
395 810473 285758
396 72167 452449
397 767677 934408
398 488107 423588
399 83472 585314
400 761753 276890
401 375016 960105
402 377249 164903
403 487654 565926
404 878325 877093
405 648409 882180
406 806325 453144
407 850806 854474
408 778391 32912
409 376689 889485
410 101524 357585
411 673799 157463
412 614036 833335
413 574330 745573
414 397858 609100
415 735912 186948
416 801580 729778
417 517823 917716
418 417130 171019
419 914748 773862
420 739058 6066
421 977849 132211
422 315275 452887
423 611958 914703
424 838413 934342
425 360077 742534
426 25729 474371
427 849401 574805
428 475309 645238
429 442282 459533
430 747772 316635
431 651177 104463
432 138035 642342
433 904330 674114
434 137868 397918
435 242516 863688
436 194499 442347
437 529408 358990
438 331855 199428
439 308061 39231
440 358026 929092
441 303290 938325
442 861328 419277
443 535770 697117
444 591743 875480
445 13386 743016
446 33151 516829
447 531346 875370
448 811567 535502
449 602802 956285
450 121032 412530
451 606641 799181
452 576315 430984
453 439243 87403
454 613042 430124
455 39034 778191
456 53495 566801
457 446146 4755
458 283483 134348
459 573116 262664
460 830774 368828
461 71312 181583
462 276886 829985
463 257046 395317
464 866031 98423
465 919746 244451
466 586385 877937
467 196 579834
468 875596 736488
469 492179 856572
470 135793 401421
471 124001 329078
472 44705 644558
473 671703 851567
474 239942 701360
475 618323 416249
476 669470 504378
477 36538 876580
478 826144 728704
479 798984 996481
480 555388 702754
481 595224 756469
482 294330 637612
483 654190 724417
484 522096 801588
485 333052 431916
486 894405 871755
487 644341 414525
488 699357 566934
489 145044 400306
490 3841 528342
491 596332 869550
492 543035 216992
493 649227 829915
494 583606 362584
495 925644 151179
496 214392 690590
497 523520 703877
498 507016 252245
499 684737 630180
500 945201 104769
501 706523 839636
502 697519 89981
503 819917 799920
504 961342 819546
505 227352 996228
506 145097 436400
507 70837 404208
508 488361 904633
509 232949 590453
510 130596 401945
511 39680 891915
512 856387 228282
513 725392 54769
514 174236 554360
515 594608 899436
516 605591 325498
517 172953 7612
518 383245 159932
519 798713 138827
520 728630 744593
521 596966 993153
522 231987 523699
523 111498 322477
524 834203 295238
525 978484 452247
526 78008 130377
527 35572 45764
528 499177 381024
529 666682 689907
530 706735 659984
531 1207 822515
532 90915 482759
533 399262 151944
534 204413 547138
535 292709 165884
536 70430 937711
537 611969 678349
538 323936 909303
539 856342 810622
540 729104 344368
541 388086 484329
542 847624 934623
543 898229 783076
544 234582 690193
545 608350 231300
546 955518 251575
547 846117 562745
548 674162 659255
549 381183 553638
550 199762 202195
551 466134 23580
552 566133 634116
553 64160 593679
554 282753 100949
555 147535 716101
556 146442 976489
557 81557 475435
558 704466 749632
559 976398 528170
560 808596 740006
561 770760 650775
562 347375 90514
563 699749 46849
564 371577 977853
565 614188 730256
566 626550 755392
567 663087 13003
568 197926 411597
569 402772 372188
570 230157 148596
571 806678 706412
572 881596 868343
573 460540 304743
574 904200 755602
575 862996 627313
576 287677 403330
577 939449 469506
578 575644 710742
579 360493 553130
580 436189 652563
581 190907 910564
582 870792 998938
583 909423 440029
584 94892 213213
585 14894 399722
586 845432 220795
587 665173 181283
588 452329 367429
589 711325 877868
590 514869 989007
591 686355 818447
592 541663 961625
593 539348 715986
594 884600 664148
595 103579 757896
596 316705 189558
597 357294 830434
598 303164 585882
599 41238 700313
600 416013 93110
601 593418 26331
602 240732 873989
603 940957 469230
604 861667 977824
605 930157 859658
606 826141 696345
607 449550 678293
608 335858 1349
609 553269 40357
610 695773 323540
611 398791 394578
612 797200 921783
613 806304 819100
614 980062 791184
615 240325 983099
616 505762 733501
617 947710 655211
618 162865 990010
619 368896 863370
620 625766 537999
621 162716 844242
622 968374 780039
623 359105 922126
624 392357 435510
625 24130 484064
626 605820 250053
627 459987 432914
628 587348 859916
629 78620 585521
630 711123 950947
631 100333 998297
632 352057 392158
633 696942 981899
634 727970 669511
635 319188 413732
636 608991 117759
637 16226 211709
638 717720 148737
639 934590 364285
640 334435 946387
641 740479 394540
642 80061 289377
643 882765 507465
644 381443 555552
645 958268 180966
646 262039 699385
647 544182 212034
648 929007 44956
649 828016 756664
650 62319 210367
651 987535 28072
652 101074 77743
653 743584 211279
654 169992 170610
655 550149 79883
656 478473 523068
657 627253 530157
658 688908 400947
659 454114 140023
660 463150 651985
661 153883 971306
662 607192 108820
663 426196 580919
664 16684 938482
665 468125 506440
666 978745 763980
667 814136 254552
668 467913 217411
669 767287 549903
670 600468 481817
671 53350 241420
672 92401 306283
673 27083 290732
674 92193 435361
675 785837 348088
676 28272 889533
677 288539 555878
678 231622 223554
679 213936 846522
680 609829 526172
681 443991 620088
682 570141 68331
683 26532 237053
684 430666 320969
685 503074 398175
686 308754 18753
687 354186 115062
688 623712 264350
689 682766 51313
690 877197 202642
691 366982 170161
692 328653 941952
693 62448 358656
694 193839 745805
695 228019 230860
696 786745 446318
697 46829 202293
698 173063 34597
699 887233 977339
700 682570 762733
701 607966 40879
702 558164 583194
703 981105 858110
704 560880 346586
705 493429 872966
706 29714 468130
707 618503 378969
708 739427 997673
709 573258 367848
710 895268 991935
711 349819 453326
712 638398 740340
713 790209 267875
714 460588 770991
715 133956 765601
716 703469 336179
717 557883 4231
718 172927 898852
719 551658 949683
720 202525 64775
721 785397 825991
722 850537 236083
723 881041 333418
724 807919 306488
725 412083 905188
726 574008 116242
727 843382 916969
728 59263 271786
729 482995 553932
730 410267 82253
731 306452 611196
732 144060 428654
733 87568 203723
734 617593 382420
735 497928 406008
736 189753 266769
737 955764 990079
738 417927 233576
739 609944 721429
740 681077 518422
741 784879 906655
742 360723 51703
743 459149 92273
744 192119 129229
745 916662 969204
746 281258 169237
747 451755 796517
748 875021 518627
749 870227 860457
750 818155 647464
751 723474 86490
752 625411 893660
753 120308 667352
754 755519 791679
755 457819 966989
756 79667 353766
757 637270 441063
758 800995 137214
759 159441 347543
760 553633 568940
761 333496 757136
762 564264 850463
763 682534 103263
764 641358 62103
765 869771 750575
766 478057 818264
767 263609 714087
768 438755 431113
769 269385 919660
770 250707 321934
771 932831 844575
772 575595 347721
773 635707 524121
774 604973 601291
775 113983 771757
776 877269 808123
777 990685 67580
778 169406 905210
779 822880 911323
780 454905 689195
781 397966 835858
782 540972 135885
783 34157 235091
784 778170 289548
785 805355 276874
786 532241 558150
787 233560 781875
788 691671 525373
789 766451 496683
790 681057 777323
791 280382 730035
792 607198 180576
793 352608 642198
794 277292 127724
795 679929 203663
796 652942 979836
797 114304 973833
798 789693 374681
799 611015 793720
800 656050 110334
801 757670 108289
802 920234 336659
803 491375 147234
804 200925 810109
805 714972 527208
806 627917 695156
807 231393 251241
808 36252 418130
809 721553 567138
810 346192 659476
811 624076 984450
812 633498 695021
813 519203 423951
814 637916 896901
815 290500 544437
816 324447 956341
817 781711 153848
818 149405 585226
819 498641 355956
820 144323 934478
821 920644 710153
822 781532 20453
823 579586 668492
824 346338 419283
825 454629 365741
826 736765 714114
827 503219 111612
828 785886 801328
829 326578 766385
830 187253 906149
831 648592 844969
832 665786 780494
833 606563 917764
834 913624 210939
835 671655 367760
836 71791 302270
837 112508 980450
838 922711 909962
839 481230 521885
840 909134 717875
841 97373 871531
842 709647 384350
843 895844 479478
844 290555 1217
845 547285 231641
846 671601 287701
847 684300 776563
848 862686 618374
849 597645 801081
850 97742 669624
851 187261 824452
852 510149 736754
853 268367 865234
854 4466 118869
855 215768 306408
856 510773 325361
857 219099 955611
858 234547 360891
859 160668 889223
860 917808 988188
861 320118 112543
862 113197 2031
863 180498 247339
864 792120 375753
865 712083 57476
866 905496 362361
867 306116 602726
868 207101 772012
869 652431 754036
870 149803 534953
871 318810 401332
872 83408 559097
873 911522 559058
874 174504 682269
875 596064 615346
876 826254 221891
877 88997 40265
878 764127 824900
879 518335 907423
880 529653 496355
881 212802 250430
882 969065 680815
883 987597 109441
884 241952 660001
885 44088 675489
886 186386 478398
887 293158 302461
888 161934 98227
889 23545 72931
890 237903 355597
891 729003 884697
892 846100 215727
893 844674 655066
894 393295 625301
895 615128 97660
896 530060 992429
897 709947 474313
898 348566 840412
899 108173 780947
900 397163 813295
901 535512 101572
902 444366 240466
903 886343 941557
904 375790 873270
905 195590 109061
906 431605 893034
907 292295 431992
908 966295 220372
909 540482 494752
910 332249 147185
911 1267 461004
912 262838 230793
913 139977 84814
914 34031 52691
915 416117 220377
916 722436 150275
917 877340 128841
918 923992 835969
919 592401 414107
920 249432 624302
921 114583 898543
922 293052 467943
923 96393 69055
924 729591 479154
925 334336 263752
926 806380 55482
927 364829 176785
928 90859 385237
929 224232 315524
930 316474 50373
931 349155 961683
932 623838 571288
933 994478 533061
934 599982 824351
935 335599 897239
936 490781 61328
937 160415 68497
938 340804 945784
939 96174 86053
940 139933 754739
941 860582 718507
942 736217 365743
943 871222 760753
944 526436 306052
945 134363 390930
946 235987 768050
947 78508 352192
948 133521 53255
949 738127 224554
950 127139 150608
951 972881 643537
952 339220 579596
953 403170 87873
954 319265 999085
955 305563 330105
956 858800 918179
957 181161 925543
958 814386 581104
959 883174 271645
960 437767 941223
961 794934 375427
962 697212 184990
963 924358 847243
964 722107 580818
965 665327 252930
966 626519 97088
967 780489 809827
968 895938 942402
969 537345 810673
970 551357 290117
971 877578 254791
972 868284 193140
973 595996 860560
974 70837 893517
975 427834 286277
976 331147 157308
977 559227 874208
978 524089 875792
979 863048 529392
980 683658 460767
981 550527 508591
982 447728 15445
983 452527 604009
984 49895 988020
985 329546 953826
986 510266 989656
987 843811 151490
988 610075 637625
989 816199 823004
990 660901 48565
991 984195 192714
992 897160 204559
993 702403 117928
994 649359 765043
995 357300 291929
996 892506 549324
997 481126 597530
998 779850 887921
999 410979 716794
1000 583064 958370
1001 44360 247833
1002 232616 379268
1003 302082 138432
1004 260148 354668
1005 171804 406160
1006 226433 98004
1007 172092 391728
1008 568261 1202
1009 27464 850198
1010 235594 564605
1011 193029 333100
1012 404956 371176
1013 909465 262433
1014 757040 464542
1015 849407 471643
1016 377477 461530
1017 651199 254740
1018 822132 886191
1019 20622 505431
1020 636297 701200
1021 90464 799161
1022 529449 792694
1023 98899 559405
1024 144368 109950
1025 688064 517417
1026 130881 946437
1027 867386 111421
1028 580892 582830
1029 596633 977875
1030 557136 415890
1031 117809 754716
1032 718370 470604
1033 315696 427271
1034 568555 379397
1035 292829 8855
1036 856833 917513
1037 162133 718177
1038 433724 246592
1039 465714 293534
1040 790283 326635
1041 665799 779164
1042 907405 433516
1043 353833 622761
1044 743160 180595
1045 939043 394860
1046 317636 641225
1047 212602 627442
1048 844366 172950
1049 637028 811271
1050 358969 852307
1051 93691 850834
1052 319667 361429
1053 851618 351716
1054 39031 433869
1055 757588 958131
1056 839669 416038
1057 38832 162275
1058 98254 476584
1059 542114 90928
1060 626237 142746
1061 790243 757283
1062 20427 440522
1063 915164 5999
1064 597846 800704
1065 866558 82007
1066 207560 31844
1067 535945 832151
1068 486965 249760
1069 740332 745129
1070 335262 877248
1071 80647 652231
1072 554357 796297
1073 604617 560353
1074 620797 772079
1075 712277 838366
1076 575103 836324
1077 944713 276962
1078 644746 61846
1079 314888 487515
1080 874463 601857
1081 611384 293901
1082 98607 880339
1083 877484 187438
1084 861680 242534
1085 557658 537901
1086 855787 770034
1087 378650 787870
1088 567642 953918
1089 812569 743465
1090 795775 853318
1091 691111 110331
1092 926240 264700
1093 470623 913658
1094 933237 655606
1095 954667 299527
1096 388080 497797
1097 187471 797360
1098 21461 310613
1099 273580 766487
1100 228654 650699
1101 747783 877331
1102 976304 858959
1103 147255 464772
1104 910083 680012
1105 806339 731087
1106 128609 659282
1107 532847 574935
1108 213777 113587
1109 106430 301246
1110 858878 566870
1111 913857 95193
1112 13880 906959
1113 790118 978455
1114 793729 519691
1115 640615 102869
1116 43835 132556
1117 937126 64688
1118 724708 31829
1119 577484 351305
1120 50922 357035
1121 807228 631990
1122 796727 387797
1123 385669 292886
1124 483917 280512
1125 7242 43005
1126 516883 753889
1127 125872 125784
1128 606863 615226
1129 940205 911616
1130 134250 115425
1131 887288 558778
1132 629089 449303
1133 923859 496618
1134 862554 145050
1135 189266 920890
1136 629669 825917
1137 294004 815873
1138 49987 159968
1139 969321 888095
1140 300095 174891
1141 38250 882113
1142 385440 525189
1143 215581 485056
1144 503466 487823
1145 140828 228090
1146 169274 432433
1147 162038 130032
1148 727365 981311
1149 337986 980854
1150 337809 225700
1151 323565 595822
1152 980417 832350
1153 4755 634769
1154 368448 600682
1155 910203 121807
1156 111760 452381
1157 770787 906160
1158 946151 454854
1159 396739 499057
1160 721937 942548
1161 158632 881700
1162 807240 963565
1163 597324 33847
1164 845499 461653
1165 811117 415217
1166 791520 368638
1167 977891 178287
1168 63131 585868
1169 111326 479280
1170 579038 760726
1171 88316 4408
1172 765886 198280
1173 69457 287573
1174 625193 198473
1175 532707 693518
1176 135811 876332
1177 169736 922592
1178 434179 954927
1179 617930 802129
1180 769219 418886
1181 523443 889167
1182 21644 149476
1183 33490 107351
1184 686495 572506
1185 836702 658577
1186 829661 198266
1187 966350 28419
1188 806736 282300
1189 711964 884648
1190 529385 642397
1191 415917 43369
1192 692434 392230
1193 891773 902353
1194 346994 828415
1195 144797 955780
1196 899372 538819
1197 642578 920460
1198 931065 890050
1199 38058 737466
1200 391543 787157
