NAME : portgen-700-702
COMMENT : portgen N=700, seed=702
TYPE : TSP
DIMENSION : 700
EDGE_WEIGHT_TYPE : EUC_2D
NODE_COORD_SECTION
1 140106 988107
2 193746 376883
3 594782 71539
4 454648 444198
5 351698 644569
6 780171 204882
7 558723 719609
8 49355 901378
9 840926 784200
10 756523 1560
11 280146 862765
12 502464 255599
13 442094 976112
14 481514 641588
15 738135 105575
16 141892 650403
17 598270 643770
18 642067 627374
19 262398 255107
20 216861 964351
21 626170 349235
22 823662 378413
23 484099 377399
24 232362 922872
25 302590 240252
26 423848 569790
27 334014 920533
28 321816 489702
29 389837 549976
30 734816 967407
31 809141 199540
32 227336 387347
33 18399 430936
34 381219 180310
35 235509 671955
36 669015 918053
37 481610 516271
38 577712 710355
39 528750 581930
40 933783 952392
41 586274 931538
42 906772 770727
43 296434 942351
44 423066 210922
45 625370 211130
46 246154 82087
47 19597 544906
48 295335 708116
49 867624 307391
50 800700 773743
51 848649 650432
52 989088 350198
53 653977 492310
54 663018 563287
55 624099 379464
56 66635 178914
57 924605 523686
58 721252 727053
59 179942 682430
60 92012 310283
61 563312 73828
62 379610 461766
63 823306 18583
64 928965 131412
65 862293 85402
66 47337 965463
67 957831 554319
68 885756 407359
69 6932 383085
70 49474 569380
71 762409 740636
72 118910 315086
73 647818 172326
74 702477 557831
75 721599 276751
76 779151 736212
77 445097 715297
78 726406 883185
79 692601 434769
80 464441 246617
81 485377 279932
82 513812 54719
83 617055 325999
84 60004 609518
85 875868 548925
86 24576 622111
87 960830 815260
88 531132 827100
89 628730 664312
90 735359 940120
91 325982 494195
92 666970 615676
93 600024 767404
94 451651 903112
95 937263 559756
96 347355 397413
97 507217 500548
98 544804 140298
99 779805 303650
100 783954 820717
101 543596 38165
102 822471 781478
103 950769 284955
104 69241 829421
105 115273 959002
106 431533 789488
107 497505 904684
108 899261 87964
109 772715 13263
110 509914 476757
111 546194 756353
112 825564 55150
113 5329 986410
114 799639 179352
115 864490 246176
116 757859 799309
117 549039 776357
118 508587 536493
119 996690 762286
120 716414 512060
121 994688 438388
122 393197 460506
123 13562 591002
124 571849 452067
125 495219 558393
126 340658 600453
127 439159 537777
128 62858 744287
129 489126 46114
130 272891 414275
131 288265 306954
132 113007 603212
133 964313 993145
134 396291 36999
135 891122 308259
136 516114 320647
137 518044 951520
138 136098 945741
139 317193 287786
140 992291 261042
141 497284 753525
142 906460 450215
143 957911 450904
144 686301 945826
145 812044 515441
146 140202 959690
147 871163 408154
148 995946 674040
149 920343 441676
150 324407 67821
151 273808 284063
152 459776 234176
153 61108 587133
154 693992 988944
155 579866 611954
156 57985 543299
157 234069 757450
158 274073 328574
159 435791 704852
160 607266 290272
161 72801 954614
162 712591 823300
163 34451 232050
164 860871 283867
165 890411 548965
166 251748 328249
167 707919 380336
168 203057 953985
169 519455 149009
170 176141 629336
171 15113 981449
172 338560 521771
173 442639 185587
174 247098 47863
175 373703 763895
176 813169 636476
177 551264 775441
178 816073 945558
179 576144 79439
180 31119 107123
181 67677 544982
182 812802 950530
183 596841 76536
184 204738 712298
185 314811 88485
186 81476 387927
187 331149 843371
188 477103 436325
189 403349 937150
190 7227 88892
191 655906 781432
192 252747 783288
193 481287 706765
194 515446 757389
195 783494 126521
196 749246 807157
197 834198 87656
198 547860 627185
199 650299 495189
200 44668 6313
201 782237 309948
202 40636 284810
203 107988 31737
204 383728 767976
205 294154 109308
206 430111 818755
207 295944 904598
208 357876 260520
209 710784 725146
210 402669 969656
211 426236 709549
212 667629 308497
213 306247 771527
214 347291 46338
215 735382 445366
216 52596 635373
217 642995 897919
218 658780 837151
219 485487 348149
220 425411 220767
221 995981 790300
222 354719 813838
223 700284 39697
224 139527 525701
225 781408 776333
226 279894 603961
227 759806 599302
228 953716 146864
229 666952 142717
230 626030 270837
231 546249 35579
232 342564 73386
233 113326 639811
234 464035 482106
235 204313 318179
236 120993 185082
237 943738 626336
238 689762 822274
239 949742 68327
240 354780 159383
241 104574 204574
242 420307 464545
243 899116 17017
244 292809 569609
245 784592 18968
246 373115 3380
247 143835 107232
248 99773 810898
249 846561 728382
250 124076 878010
251 89954 71199
252 170920 622024
253 671758 75319
254 183653 295261
255 700185 936699
256 854054 97343
257 358124 607061
258 897721 542868
259 891744 235331
260 973613 302428
261 793249 735652
262 358030 326303
263 228224 49793
264 14162 321713
265 954577 614442
266 638620 654481
267 368142 418080
268 305328 7230
269 846449 813246
270 566824 356248
271 125272 57477
272 595995 482164
273 225719 637462
274 645350 817531
275 879007 49979
276 796736 524847
277 773805 509633
278 239389 435473
279 703057 752839
280 316695 664527
281 228869 370407
282 728437 343937
283 811426 796577
284 501347 875960
285 381342 260258
286 897517 74212
287 356323 923633
288 505691 268401
289 961847 848396
290 86913 792751
291 346736 261322
292 5018 290049
293 385572 268213
294 926044 24204
295 606654 508751
296 505882 970489
297 431904 306565
298 458730 51060
299 701153 672362
300 976472 957317
301 675615 796953
302 730618 86256
303 703243 535414
304 519829 483755
305 124060 971176
306 509429 678852
307 146185 807944
308 158645 258380
309 938503 421871
310 885207 760366
311 95423 828985
312 899487 424024
313 584643 100563
314 343594 270066
315 220390 970277
316 748571 478092
317 724335 115737
318 283321 667884
319 115136 197073
320 131404 127192
321 329710 504172
322 138997 846287
323 413327 676897
324 71001 7879
325 721922 358166
326 707466 431086
327 451972 6194
328 208745 197522
329 72618 614880
330 802935 35358
331 420277 322756
332 352350 996868
333 641466 5256
334 539854 299897
335 394616 481747
336 187378 930623
337 699948 527041
338 52899 664336
339 377013 893293
340 215279 387120
341 27945 728713
342 467131 185031
343 550000 425815
344 125742 727467
345 474271 278065
346 128029 815238
347 802457 649656
348 939813 399086
349 804224 611956
350 793387 748991
351 299883 177708
352 792600 334802
353 330220 978752
354 963954 266940
355 456194 782929
356 71780 345150
357 140609 524869
358 907329 605038
359 520298 702693
360 57054 242379
361 201031 927898
362 506509 645625
363 181863 9670
364 138023 365146
365 196820 74147
366 700381 110073
367 437098 432349
368 315340 682795
369 588104 942262
370 277702 944961
371 905516 423049
372 670412 231891
373 77033 200130
374 308728 156832
375 467792 930143
376 261063 439078
377 415135 719240
378 48609 189810
379 740609 360250
380 19461 647425
381 390647 21692
382 989237 511233
383 877413 648731
384 674738 908717
385 447835 707198
386 296310 363466
387 234900 126911
388 981316 761953
389 512763 787269
390 597015 992053
391 269060 777772
392 345684 549395
393 683499 678689
394 120835 925865
395 554936 666609
396 8057 679386
397 494426 570504
398 648651 542049
399 188148 543500
400 250575 315080
401 687367 521459
402 559816 475739
403 661082 483290
404 93393 865739
405 35740 369920
406 68975 814744
407 805314 352852
408 639368 711260
409 527266 418733
410 862582 335363
411 460582 131237
412 658142 132755
413 19831 774850
414 803650 759160
415 465829 498026
416 668559 647024
417 751528 227095
418 923077 454316
419 972458 992832
420 910027 972238
421 151423 702101
422 63283 219573
423 206027 876819
424 21244 361670
425 550673 873800
426 738399 428988
427 77671 752548
428 646520 40343
429 769930 332720
430 552662 206766
431 510832 100561
432 955711 63501
433 218496 366873
434 751461 585741
435 146824 762548
436 690016 165595
437 868060 988781
438 596963 31594
439 53565 905593
440 486235 979488
441 4920 470929
442 206498 259062
443 987193 567998
444 691312 688027
445 8598 556204
446 702855 386717
447 846007 147479
448 282222 985827
449 834041 74501
450 622609 174432
451 823254 115650
452 875435 571184
453 868880 267469
454 222489 818608
455 765355 78521
456 349030 81903
457 324122 996458
458 503911 124115
459 254553 808232
460 781279 232669
461 532832 676959
462 963131 972392
463 939294 574365
464 290160 296875
465 119901 329494
466 809104 234956
467 140238 407713
468 630457 923016
469 146807 210040
470 755151 863078
471 313445 883080
472 906747 775929
473 23371 25895
474 423585 873615
475 208185 707856
476 695667 537165
477 954600 293114
478 365327 588297
479 975412 467721
480 940727 945863
481 120661 12448
482 63457 902276
483 765076 465950
484 175156 548192
485 973086 478015
486 700530 380937
487 600046 73423
488 537001 995666
489 722359 670016
490 607064 350996
491 598953 822438
492 356147 174038
493 208832 796656
494 171499 237961
495 642636 164506
496 747860 598614
497 236954 277135
498 162548 932507
499 283033 833324
500 238928 27705
501 303535 753568
502 266551 857188
503 108903 873229
504 181017 780561
505 84282 568671
506 416797 737450
507 825084 776220
508 198002 522047
509 775494 786321
510 739728 832569
511 182917 341831
512 309264 945381
513 174480 946961
514 114386 742857
515 964519 663772
516 814648 941797
517 585734 38392
518 934199 861502
519 997353 579926
520 976036 686785
521 21161 385178
522 498233 810067
523 981589 406029
524 289350 291572
525 102655 215586
526 818120 540175
527 868804 575155
528 213056 361737
529 167833 228158
530 922989 247401
531 875875 601090
532 804525 397497
533 547510 31618
534 239217 15017
535 794631 791972
536 232696 483921
537 683665 524141
538 14448 642741
539 473027 734108
540 732325 812742
541 779127 886227
542 819868 717118
543 787896 213558
544 137272 188237
545 490882 902580
546 622284 982336
547 785295 184063
548 454088 537239
549 701513 974091
550 795618 338847
551 933002 555241
552 559247 289913
553 436458 931893
554 720306 151685
555 787259 999498
556 224465 979596
557 737276 20408
558 625116 893539
559 815795 620462
560 943408 10270
561 330105 265126
562 219398 455783
563 858970 677455
564 924673 393752
565 87683 82555
566 922434 321341
567 946849 732827
568 588276 799531
569 148951 799460
570 92002 894356
571 397762 516810
572 244828 480611
573 572475 357158
574 762937 329511
575 325092 776633
576 612565 307761
577 886408 713063
578 416412 611660
579 608391 826420
580 701636 636927
581 782941 920846
582 59683 892902
583 601735 707655
584 734768 256664
585 447933 267958
586 130602 486283
587 295369 166775
588 397704 22344
589 378718 506335
590 39370 247310
591 69063 98253
592 692115 450755
593 299613 1588
594 261657 53947
595 131091 880621
596 64762 892286
597 351526 824043
598 763754 911479
599 221440 78052
600 82907 550130
601 978439 256602
602 290141 77782
603 707569 514312
604 615645 435652
605 413449 414824
606 350003 554444
607 695328 821015
608 572164 890655
609 569319 235640
610 129147 690255
611 486215 656715
612 173757 897802
613 289518 874000
614 196142 217587
615 459206 883391
616 406698 943065
617 92885 624545
618 897306 514618
619 402924 871099
620 878590 408958
621 432268 26017
622 924799 440836
623 394405 408046
624 718529 453724
625 534524 889754
626 715336 3852
627 618846 199515
628 143432 35373
629 163716 665595
630 180475 192950
631 111387 744546
632 557061 4490
633 982556 323986
634 629645 254492
635 426609 164117
636 172125 115595
637 701115 239393
638 974919 482362
639 37869 974241
640 754370 254145
641 710283 530547
642 37112 266255
643 772003 662151
644 386004 88394
645 641989 573320
646 884973 148432
647 444489 714473
648 236832 316672
649 324901 685406
650 465916 912043
651 370177 744287
652 699353 280379
653 179470 184789
654 966740 352591
655 427511 481280
656 649369 75321
657 23605 607154
658 307977 962955
659 300057 842588
660 767657 665884
661 999084 944238
662 788575 514566
663 793940 427837
664 416242 420735
665 59922 790129
666 515622 685278
667 546730 273090
668 604775 634962
669 506941 429957
670 958277 809048
671 362094 543416
672 320736 976105
673 574235 940734
674 359856 929922
675 920532 808995
676 900430 904165
677 625483 675787
678 396420 684899
679 197557 426262
680 675603 544508
681 677848 536782
682 394313 618463
683 119185 105953
684 754584 47500
685 32919 367242
686 603099 370134
687 922055 958662
688 765453 94919
689 318755 112788
690 118146 109040
691 230280 989979
692 745132 515414
693 112281 978839
694 290964 928266
695 153904 498822
696 880377 459441
697 397038 591035
698 205948 991959
699 621360 362073
700 210651 479316
