NAME : portgen-1300-1303
COMMENT : portgen N=1300, seed=1303
TYPE : TSP
DIMENSION : 1300
EDGE_WEIGHT_TYPE : EUC_2D
NODE_COORD_SECTION
1 626949 238554
2 91835 341194
3 787979 79741
4 469970 666904
5 391984 400593
6 847931 258598
7 817366 482753
8 70930 17621
9 703487 972972
10 657273 13534
11 289179 669375
12 603117 36605
13 4461 143521
14 873599 259851
15 813013 890263
16 678878 206105
17 420484 463666
18 404847 584876
19 596439 611173
20 451826 308237
21 335776 616767
22 833529 21754
23 697409 167627
24 209480 473261
25 539549 141488
26 644101 464655
27 379775 443817
28 619609 420843
29 818070 628169
30 936346 203102
31 483301 858797
32 215077 83747
33 64816 231163
34 425069 795611
35 785344 903303
36 808140 230226
37 433423 515784
38 369432 824524
39 289599 159299
40 416996 583618
41 325450 245430
42 323504 609910
43 406961 820081
44 991028 336736
45 398849 173684
46 159807 800828
47 825828 548523
48 500096 105550
49 183344 317744
50 652321 872884
51 878027 50181
52 56264 955930
53 816038 398671
54 141150 769864
55 36856 799528
56 429814 481333
57 229319 762662
58 43295 682472
59 32969 666553
60 583650 959266
61 47818 107324
62 143289 912459
63 25275 757959
64 173961 477492
65 699746 970761
66 683373 519734
67 122443 617468
68 153803 844116
69 16110 560841
70 566615 724488
71 787112 324474
72 753086 439582
73 125865 52482
74 657538 913368
75 523248 742137
76 931589 705852
77 617998 681560
78 189511 358292
79 927737 438796
80 802127 971921
81 382561 580309
82 203249 312367
83 12415 105340
84 728247 789737
85 636797 990813
86 24934 119600
87 143305 841513
88 27677 341966
89 489326 461729
90 722948 666982
91 830222 735164
92 675364 727824
93 588200 103064
94 316485 810076
95 605052 48462
96 115869 226373
97 924044 575801
98 699554 667511
99 181169 911573
100 411905 783899
101 563156 195809
102 190420 856265
103 911915 196424
104 30488 890174
105 93360 86446
106 41807 117661
107 833744 753664
108 856052 156187
109 656264 627447
110 612812 344904
111 924171 816674
112 377831 852898
113 427657 829124
114 929180 287039
115 929598 831252
116 311478 599151
117 368369 636501
118 625174 712560
119 901419 921699
120 871772 432012
121 446800 689037
122 197263 260147
123 124291 299194
124 848541 71146
125 148144 870430
126 738331 894129
127 981974 580653
128 472421 964004
129 827440 553918
130 231091 199354
131 295004 108788
132 18402 661347
133 639646 352770
134 920397 573596
135 629373 556857
136 307645 585117
137 479303 742382
138 606573 30042
139 834699 797177
140 380476 463653
141 1683 375261
142 55948 730243
143 536247 202689
144 580749 707021
145 996854 272404
146 792162 327823
147 292326 314914
148 124366 861682
149 209733 454881
150 653574 94249
151 464495 51364
152 690669 684490
153 868746 363070
154 838180 251731
155 44405 269731
156 383254 120419
157 557064 958686
158 407191 967181
159 816462 703487
160 536981 777963
161 143037 465516
162 920022 535123
163 92361 256281
164 894447 794812
165 873635 243503
166 191861 582968
167 752771 110745
168 80398 881264
169 818197 97261
170 323051 569066
171 386227 877262
172 170040 218890
173 129367 326646
174 407800 757202
175 222552 868084
176 967235 414920
177 581246 410071
178 902388 881527
179 298592 579924
180 604092 987482
181 544873 740918
182 928679 475339
183 883504 505992
184 950378 338173
185 829319 80545
186 559380 59259
187 480934 668896
188 810728 728116
189 884270 509950
190 632735 210834
191 957689 314523
192 190720 886152
193 698629 450942
194 654289 277432
195 227241 574406
196 930885 480023
197 267942 242506
198 9685 326968
199 396327 501144
200 408162 401250
201 442375 897850
202 124466 11718
203 910395 652712
204 224200 695093
205 711441 451445
206 227237 21159
207 352683 29685
208 56597 64849
209 472976 686172
210 465653 556535
211 109664 449234
212 930011 428068
213 638169 661530
214 934792 469216
215 758500 158016
216 503916 189176
217 798508 181290
218 983596 936529
219 961839 161034
220 829554 633780
221 977966 968116
222 811778 670705
223 464741 481650
224 550012 839873
225 604336 348154
226 392175 927111
227 742643 250146
228 897334 253199
229 99341 943176
230 28121 973865
231 690872 63165
232 865538 77661
233 473478 259121
234 209381 681977
235 564944 574947
236 514837 633102
237 81836 117499
238 164360 182553
239 706591 679864
240 530734 384970
241 562189 991615
242 441094 784634
243 467143 440750
244 323637 720847
245 707811 724475
246 727148 279862
247 596090 254607
248 118943 344864
249 886279 694279
250 506344 282187
251 775058 870147
252 309139 219365
253 785965 400559
254 486016 958008
255 783002 456583
256 929561 378493
257 235364 303646
258 246717 411010
259 467075 610931
260 958717 128614
261 372841 515101
262 175632 282756
263 799888 644689
264 323962 862470
265 331533 763800
266 696537 748583
267 896862 74150
268 455409 183696
269 756251 137448
270 537917 56133
271 973675 712706
272 762129 579197
273 351633 212046
274 104229 313333
275 454718 474254
276 20901 23809
277 362745 742544
278 585650 26475
279 973285 234989
280 763956 602269
281 644308 348568
282 420091 726869
283 482908 216854
284 616363 656167
285 952012 34671
286 306780 153742
287 156212 484463
288 107712 349032
289 152356 433088
290 697106 773413
291 671403 88973
292 98514 729264
293 119492 347969
294 328491 169992
295 591242 238554
296 567332 100083
297 185435 503245
298 749353 819933
299 556494 277666
300 471484 2601
301 59689 671141
302 616226 681305
303 802850 931928
304 925294 633480
305 623051 237681
306 697984 803292
307 643747 525401
308 34936 544225
309 163132 916845
310 977516 662975
311 660360 338697
312 184683 949411
313 974981 635639
314 537515 474906
315 681613 175784
316 423737 518875
317 810036 459425
318 75429 868110
319 445226 573113
320 694328 575267
321 184836 411645
322 192476 928267
323 578194 228634
324 915400 236023
325 528263 113713
326 282417 81588
327 596052 295699
328 578863 540814
329 861104 156801
330 605876 934739
331 486701 352181
332 939152 47784
333 52844 286338
334 610815 715480
335 947206 806301
336 628825 927108
337 388581 863802
338 380557 578771
339 742644 888983
340 370547 434167
341 774535 380713
342 869029 746873
343 689082 71556
344 579723 762252
345 406580 789090
346 257294 729746
347 625906 888026
348 946442 257727
349 23063 328674
350 547710 999422
351 485990 26416
352 865476 94096
353 339178 901704
354 212558 849179
355 606616 507307
356 961090 98852
357 750221 816786
358 677445 756955
359 726275 51126
360 101342 795117
361 263274 282141
362 167770 947783
363 320311 602408
364 61632 294485
365 524623 478852
366 366213 893464
367 282366 863240
368 473076 675682
369 630492 52243
370 69428 932127
371 345281 528596
372 660909 611462
373 525816 975153
374 561975 678122
375 567714 344033
376 196094 728577
377 804051 68857
378 633209 592525
379 744049 2235
380 621019 663496
381 271211 160315
382 779751 674489
383 162026 432494
384 437943 138758
385 290969 702291
386 194979 48152
387 483411 757309
388 599022 534696
389 478089 98913
390 314573 727786
391 858358 59396
392 673466 861127
393 207641 205897
394 113713 607877
395 701214 40582
396 237739 491734
397 761273 367136
398 737147 297128
399 45185 903600
400 12440 991119
401 497063 463062
402 363549 839928
403 485674 136697
404 55111 942924
405 861215 427312
406 478811 136172
407 301021 580436
408 425756 779476
409 399042 412614
410 937342 864897
411 387309 534342
412 126318 299850
413 205227 731917
414 684603 643482
415 271634 462324
416 479584 535165
417 237697 887261
418 248974 722186
419 758375 93029
420 435370 428164
421 806855 701099
422 670534 836316
423 653273 703396
424 365416 461423
425 161909 5229
426 612525 401702
427 631965 550115
428 511534 961898
429 225365 476287
430 590954 763488
431 378322 962082
432 507553 433050
433 620457 777712
434 465637 464704
435 927163 722359
436 414060 937619
437 250705 932112
438 252371 985606
439 902377 576202
440 788315 243329
441 506551 208315
442 52528 508146
443 84001 517502
444 27612 804646
445 266804 471261
446 256548 293670
447 165865 713011
448 14103 869236
449 450393 738422
450 583945 667666
451 801019 789213
452 673107 918579
453 498678 404210
454 349174 123819
455 466113 994031
456 934286 420718
457 209483 119692
458 506939 84652
459 796216 794542
460 418946 751220
461 327318 727215
462 880759 259497
463 921340 624847
464 264511 332125
465 433434 848161
466 636432 778558
467 110089 794283
468 309043 85833
469 998832 932835
470 1206 999349
471 721286 233069
472 385699 515583
473 143943 529333
474 412911 906368
475 791670 389256
476 604724 118268
477 304987 735784
478 31234 22461
479 679124 878824
480 609536 412844
481 405378 416338
482 122612 466763
483 272745 701216
484 35018 693900
485 975749 977606
486 671741 889847
487 2871 29690
488 146496 209049
489 422227 144975
490 228262 898879
491 945722 385687
492 722588 20589
493 442783 220093
494 655945 643325
495 521538 607827
496 50814 304932
497 957086 23600
498 327608 831438
499 230198 356009
500 369087 934893
501 107105 267935
502 678105 892791
503 443533 219037
504 395680 284398
505 293000 811140
506 366515 35798
507 357285 1709
508 362030 100446
509 459252 99012
510 139155 441306
511 471018 679009
512 324812 40855
513 870501 403805
514 211741 110080
515 586156 927458
516 813369 137829
517 851974 417122
518 532363 909924
519 28401 720879
520 658559 342337
521 760841 556933
522 504170 80231
523 136809 371805
524 980119 916230
525 153099 923803
526 619696 120118
527 769853 441628
528 121523 969275
529 415961 260983
530 360428 533609
531 190635 674800
532 625838 950663
533 50299 809582
534 531628 277054
535 864900 990225
536 120326 543022
537 945913 215352
538 821609 350899
539 909155 883183
540 919332 901225
541 987843 950758
542 749651 52546
543 736822 138568
544 511990 901310
545 366822 722781
546 378296 751347
547 855979 668334
548 222010 217819
549 611020 288818
550 258622 785909
551 462649 96935
552 996898 251873
553 935959 668938
554 370466 717307
555 704806 982954
556 457284 514651
557 894160 637647
558 155313 439288
559 818821 957504
560 728653 832480
561 198561 242810
562 18432 78991
563 527575 23391
564 546123 694039
565 279392 152671
566 980433 191848
567 178377 936377
568 443941 473192
569 56598 112004
570 897233 297534
571 319747 554485
572 172657 534342
573 524219 135486
574 732915 776988
575 140758 198618
576 671695 916980
577 9425 105950
578 805475 270801
579 918557 60521
580 807931 462767
581 612340 258461
582 820074 407271
583 663207 902798
584 341993 359818
585 113427 19827
586 706373 41833
587 816745 530034
588 160785 281581
589 233384 912481
590 273515 256773
591 104833 485602
592 886108 816625
593 540330 721972
594 371774 771106
595 273169 541142
596 131198 696779
597 998576 877405
598 591161 277913
599 737739 642622
600 373557 242637
601 902101 820433
602 503472 883985
603 93785 186092
604 30872 192800
605 565619 83502
606 899027 147451
607 787351 266788
608 331568 915560
609 259884 942668
610 816110 385293
611 165058 699371
612 986260 870790
613 117725 885939
614 538361 932760
615 436249 974692
616 250709 40584
617 346861 190012
618 357745 957382
619 698251 619319
620 485057 624770
621 462088 429105
622 954995 887876
623 376084 431827
624 710519 127786
625 759680 705221
626 739552 804979
627 206373 398865
628 991928 861517
629 473572 313459
630 526239 136402
631 487841 411552
632 707742 940849
633 621414 469921
634 192455 899475
635 890704 899740
636 205041 132097
637 182987 110888
638 645741 360078
639 492997 587395
640 878861 256207
641 412367 224901
642 406520 299846
643 486850 839156
644 332841 406012
645 568597 887823
646 764926 798776
647 728615 585316
648 419729 329990
649 246117 844106
650 242135 16005
651 938829 123124
652 248925 503472
653 292854 514651
654 398459 906526
655 912014 152772
656 528676 67559
657 744862 638416
658 371475 689065
659 682937 122426
660 521119 291424
661 223804 348348
662 657340 874698
663 960910 81917
664 883172 679515
665 818033 131089
666 961619 586471
667 675380 726089
668 727531 344807
669 480038 768104
670 928370 797784
671 156219 210414
672 884893 277173
673 664019 416577
674 141435 853916
675 624405 337812
676 446818 566602
677 26073 111045
678 54385 352358
679 447743 522835
680 775941 948047
681 34612 630354
682 978155 114229
683 996552 318261
684 182666 467688
685 974396 954898
686 547629 829020
687 498020 183307
688 844606 657201
689 322275 546294
690 820312 608552
691 634173 360336
692 903573 869986
693 96477 331264
694 608316 561150
695 729536 409269
696 162141 12350
697 793707 973472
698 250155 327198
699 712394 701586
700 432567 6818
701 94301 595140
702 33603 15852
703 703638 86481
704 663029 156087
705 14567 723120
706 744041 886592
707 793299 366672
708 785906 22262
709 836647 4682
710 864074 669354
711 605867 481080
712 35121 967578
713 860596 952488
714 795417 482167
715 479668 758124
716 994172 166188
717 531726 97191
718 864511 747580
719 567037 536901
720 84079 74214
721 494617 603633
722 697075 60182
723 803401 681060
724 977228 826129
725 112876 297666
726 531781 230226
727 221917 674443
728 12646 928113
729 63413 936411
730 151341 956058
731 519444 126127
732 72007 940352
733 228503 140408
734 189517 733117
735 563270 104845
736 45034 10517
737 891806 566408
738 137572 375641
739 259162 360678
740 954932 932482
741 889074 859005
742 330826 523609
743 238679 868044
744 94181 591374
745 868688 724102
746 558063 833919
747 973630 979234
748 29180 484100
749 711826 130666
750 922609 427760
751 421898 616549
752 871197 180393
753 408591 672776
754 899399 698308
755 435763 144601
756 833932 472039
757 67723 427239
758 397994 685524
759 152496 92772
760 911172 744403
761 428581 58850
762 810508 135510
763 682946 428484
764 139320 711413
765 157817 464796
766 476241 560854
767 924914 810330
768 98550 417035
769 791282 903587
770 125615 553154
771 715547 1408
772 680201 124285
773 295520 499213
774 23411 838120
775 296287 600696
776 344779 413
777 972849 457812
778 951518 861044
779 691634 60866
780 81842 991556
781 881493 995812
782 572692 882609
783 429053 832523
784 791838 943437
785 131718 898781
786 662113 314376
787 796484 310476
788 399623 428168
789 86001 352695
790 183991 821902
791 736850 78453
792 629571 166261
793 583302 480429
794 988161 42305
795 381276 266027
796 625196 847844
797 771868 226833
798 891041 401171
799 204924 369725
800 724661 867352
801 413211 670716
802 654128 474385
803 863846 266326
804 370842 806587
805 874509 471089
806 872882 649329
807 679590 815814
808 366359 33649
809 223943 345859
810 991568 27882
811 627599 422112
812 218776 264366
813 485569 991396
814 660248 322099
815 446629 133297
816 57326 279413
817 478186 712902
818 949019 87520
819 398863 813756
820 799902 549653
821 256485 642302
822 50736 353393
823 638428 203084
824 629068 507502
825 741263 899644
826 740923 882824
827 923096 591364
828 810025 133798
829 192529 941225
830 525365 776325
831 867463 557085
832 6685 324855
833 214604 230580
834 598593 326196
835 177386 163274
836 404580 716441
837 604595 91924
838 286959 744774
839 499016 627411
840 454340 351771
841 798866 719022
842 796734 670304
843 265834 500240
844 272728 153330
845 498298 718439
846 488927 72667
847 636370 636627
848 145072 540044
849 37706 958812
850 66434 893654
851 704068 1657
852 53162 389492
853 100777 21900
854 86090 252791
855 325530 309785
856 861070 39199
857 442927 806925
858 287398 794795
859 920715 370057
860 179783 674560
861 192873 639781
862 259762 283731
863 459205 402923
864 663278 215103
865 991147 265058
866 658684 246224
867 301880 144554
868 490701 759667
869 276094 989808
870 382905 471038
871 579525 902670
872 973547 823738
873 525565 849146
874 812905 352638
875 177422 742148
876 876765 822603
877 967664 801375
878 234969 457844
879 699776 908607
880 898791 341109
881 745806 96281
882 869886 854492
883 730259 958399
884 65652 619189
885 281360 438252
886 981890 568076
887 192635 437634
888 797794 370270
889 672116 458386
890 48761 1361
891 703147 754670
892 316312 650037
893 519252 562402
894 376338 447388
895 414294 532301
896 694015 656905
897 708447 944653
898 489147 11448
899 710035 535912
900 25944 155294
901 177029 354518
902 303876 176061
903 39001 122095
904 506291 317627
905 282122 672567
906 81506 252387
907 494313 366489
908 647094 88900
909 387833 925232
910 365344 718811
911 248364 529739
912 593244 126065
913 261222 627372
914 264200 16574
915 398633 675698
916 863979 354489
917 176264 376194
918 919855 450760
919 260357 949822
920 2942 430351
921 174568 451105
922 82044 695483
923 283936 164275
924 63660 582382
925 683431 861775
926 747248 693461
927 137279 350245
928 291315 822540
929 178253 927681
930 256205 588240
931 861738 556469
932 314684 851770
933 497998 630400
934 170343 798829
935 82553 482818
936 25239 805451
937 241801 503569
938 971562 554903
939 392460 242999
940 834750 438681
941 449118 336518
942 760368 810392
943 813960 307510
944 39804 324493
945 878195 289454
946 280416 461527
947 867268 520124
948 405111 369116
949 209304 578475
950 723920 729033
951 771815 820661
952 747631 244749
953 412656 410730
954 933092 326886
955 536284 983805
956 782735 853760
957 49486 966751
958 307823 400210
959 689200 794560
960 446659 128881
961 421095 591868
962 74908 353520
963 711003 204578
964 57820 997052
965 90912 560832
966 621810 65573
967 706714 850945
968 655946 595357
969 287031 793617
970 502568 413750
971 618309 245244
972 877834 749313
973 868358 688548
974 386619 513748
975 809120 200533
976 311296 212252
977 487562 163088
978 107222 706241
979 113947 896686
980 588803 817298
981 123698 139475
982 824317 122534
983 365495 537491
984 975926 300172
985 98392 619275
986 13591 175451
987 985440 246125
988 817585 208843
989 104305 911820
990 246297 4762
991 90631 161133
992 408249 273613
993 437133 482335
994 241255 584180
995 485450 118454
996 619431 986859
997 695225 883293
998 400159 442857
999 259804 631708
1000 931728 659515
1001 584243 474798
1002 267450 804357
1003 109902 150162
1004 804003 213949
1005 725954 624887
1006 464985 529766
1007 411236 470348
1008 197867 136838
1009 444250 941024
1010 722375 922637
1011 277686 344217
1012 368443 438876
1013 35032 538792
1014 908001 181082
1015 136223 667422
1016 404840 890356
1017 185865 621410
1018 539776 560864
1019 749897 937900
1020 75746 300295
1021 38084 300231
1022 861805 562812
1023 840768 275214
1024 618416 256348
1025 848261 861366
1026 534856 78722
1027 495485 264306
1028 254674 693886
1029 288932 646039
1030 264581 549037
1031 400265 866102
1032 138202 425659
1033 586802 164753
1034 667961 848423
1035 629580 922653
1036 518422 187902
1037 92763 861008
1038 387780 198964
1039 848732 104137
1040 184201 341145
1041 249859 261961
1042 916501 587186
1043 267157 538737
1044 752153 760206
1045 34608 375022
1046 892902 901474
1047 308320 153093
1048 781872 850182
1049 207468 796
1050 175031 641803
1051 426481 514278
1052 72146 507115
1053 611507 272894
1054 162221 908299
1055 997148 715937
1056 941732 528726
1057 611431 889558
1058 656134 498791
1059 557782 985109
1060 643786 736619
1061 957285 667165
1062 673391 987776
1063 496171 4143
1064 115755 585647
1065 249501 114885
1066 36743 940433
1067 106988 468264
1068 399413 721133
1069 650530 26943
1070 931051 768366
1071 980955 767044
1072 116419 297988
1073 417737 225737
1074 228082 320543
1075 656921 777728
1076 734426 621821
1077 751295 60146
1078 605060 486048
1079 407290 603881
1080 107702 890373
1081 622364 135278
1082 977247 228782
1083 734981 174688
1084 412306 313442
1085 471820 430397
1086 270708 237238
1087 328187 866057
1088 2193 335464
1089 915870 613245
1090 382715 10122
1091 596853 511873
1092 477945 359127
1093 492521 901464
1094 963185 878206
1095 733283 224725
1096 308826 337088
1097 555122 500654
1098 497657 743717
1099 438856 250361
1100 295795 82273
1101 309867 614836
1102 937828 646799
1103 180875 222552
1104 143875 392167
1105 567624 703595
1106 522863 529084
1107 870598 882976
1108 581547 285275
1109 580155 476593
1110 731124 991264
1111 735831 161944
1112 17647 389547
1113 120529 655871
1114 299410 681388
1115 685182 779640
1116 191588 523702
1117 45621 679119
1118 487259 67769
1119 641275 594968
1120 777579 207245
1121 321309 486591
1122 147081 742019
1123 488893 146881
1124 319441 165574
1125 380124 841786
1126 444307 757468
1127 565179 516154
1128 890684 786165
1129 569215 258708
1130 159539 113106
1131 581277 548907
1132 614587 360378
1133 382286 36271
1134 382002 128579
1135 394082 434665
1136 965834 414580
1137 96469 889338
1138 546956 978363
1139 596765 501492
1140 498863 334364
1141 86655 40701
1142 521848 572076
1143 198363 642681
1144 909114 685242
1145 296832 450987
1146 685766 512695
1147 200885 342914
1148 241411 906728
1149 390122 257742
1150 195062 510530
1151 550116 817948
1152 666711 45759
1153 755130 403605
1154 235619 993103
1155 317791 248002
1156 877050 883973
1157 961875 708552
1158 427339 68581
1159 348021 271673
1160 118967 475558
1161 646149 124260
1162 933517 883552
1163 884549 147885
1164 747869 50709
1165 134208 143351
1166 742743 603661
1167 183700 250860
1168 457313 202682
1169 78826 813296
1170 144736 129781
1171 294659 637440
1172 566274 821274
1173 804838 561506
1174 579178 317333
1175 458364 93525
1176 158858 339412
1177 123533 51711
1178 767786 946454
1179 634248 415851
1180 588446 552447
1181 324779 422323
1182 848366 188010
1183 953342 239610
1184 317698 140601
1185 903714 865833
1186 489403 30688
1187 813309 25442
1188 316699 306736
1189 726 881806
1190 115765 938094
1191 513637 332018
1192 462263 581760
1193 818571 320420
1194 755294 995690
1195 297517 217703
1196 884983 938224
1197 909582 278903
1198 640378 263971
1199 824131 540832
1200 504574 498101
1201 560779 697372
1202 201567 520269
1203 579888 826840
1204 877149 541773
1205 233139 447366
1206 191159 638557
1207 118333 370742
1208 667463 386554
1209 512741 569463
1210 547632 689371
1211 415478 776865
1212 636027 405612
1213 305053 792031
1214 829120 293039
1215 445554 489859
1216 429587 458953
1217 648667 668399
1218 746935 875079
1219 213684 91520
1220 914297 432017
1221 807679 185831
1222 448058 608146
1223 802224 108118
1224 302197 503969
1225 973849 848347
1226 434850 531091
1227 95278 14715
1228 68514 101826
1229 48705 533168
1230 773334 704808
1231 613156 785628
1232 627476 801121
1233 639686 5328
1234 190499 510186
1235 568517 559345
1236 84356 8771
1237 595614 699285
1238 254520 884387
1239 681587 621312
1240 337098 203226
1241 743325 295952
1242 519705 740745
1243 876703 643958
1244 831477 847545
1245 28712 741606
1246 684579 703497
1247 523002 354951
1248 347660 798907
1249 590216 748773
1250 353625 917837
1251 426530 680885
1252 166870 770622
1253 105021 138898
1254 11386 354532
1255 138011 424556
1256 270349 201160
1257 504455 31728
1258 20228 909658
1259 262626 272524
1260 453461 840779
1261 415112 441726
1262 156561 650680
1263 132815 403471
1264 841901 824991
1265 594263 115622
1266 873000 327054
1267 483300 912542
1268 932877 542165
1269 791496 487977
1270 720516 967044
1271 381331 558952
1272 394083 187933
1273 326494 242853
1274 546936 872322
1275 222136 944189
1276 957006 765225
1277 154509 238003
1278 44836 99476
1279 197585 254328
1280 837745 562855
1281 347401 523409
1282 634016 170966
1283 43224 711397
1284 807076 316522
1285 705233 777375
1286 362721 390303
1287 50388 509272
1288 883772 649887
1289 287217 918558
1290 605843 33338
1291 205885 587573
1292 987246 31408
1293 768221 349591
1294 693038 312333
1295 869318 221480
1296 735089 474974
1297 782743 943141
1298 604323 991027
1299 508563 884811
1300 304160 676607
