NAME : portgen-600-601
COMMENT : portgen N=600, seed=601
TYPE : TSP
DIMENSION : 600
EDGE_WEIGHT_TYPE : EUC_2D
NODE_COORD_SECTION
1 311202 175636
2 886413 995193
3 560650 288131
4 247414 262012
5 251750 331161
6 121529 814823
7 230732 686202
8 544897 858549
9 898964 456304
10 907978 87735
11 303587 304583
12 350773 249141
13 161231 946314
14 475523 30199
15 309578 469546
16 307889 532057
17 877731 203155
18 280934 589591
19 567326 348348
20 992682 34679
21 164156 735223
22 89891 583109
23 782694 216313
24 891782 464321
25 512352 935718
26 57383 985129
27 213179 295156
28 373268 779144
29 297904 683258
30 714259 971059
31 720805 899066
32 269330 217070
33 167005 386306
34 724931 647622
35 903507 328584
36 966766 434643
37 943951 972260
38 30352 318457
39 91403 55617
40 875872 382086
41 648409 792265
42 315940 338518
43 748741 408823
44 262727 660661
45 36150 894627
46 864659 919703
47 444840 664098
48 67912 729512
49 791272 117631
50 552757 464237
51 124909 836164
52 588448 130266
53 287308 265118
54 669189 874660
55 546414 964445
56 516417 637243
57 647107 819631
58 106400 801101
59 454225 605231
60 149157 437492
61 595034 607300
62 94865 439270
63 203674 130601
64 846195 813685
65 684951 765234
66 649267 216742
67 509202 911427
68 865668 11166
69 145157 496308
70 232118 947640
71 954597 657495
72 511503 598657
73 299593 257358
74 824838 5569
75 460424 937310
76 883317 977586
77 432679 787523
78 814969 908167
79 326962 677021
80 264597 276142
81 119960 172881
82 642542 598774
83 9848 858922
84 125740 48450
85 520038 849041
86 976262 448656
87 144807 211846
88 554175 617447
89 174620 307342
90 624300 295506
91 803639 169174
92 549087 408809
93 645273 476386
94 574200 910427
95 901578 6746
96 885425 96706
97 976270 383077
98 971377 505941
99 512687 299656
100 44482 682146
101 82738 517496
102 381268 164917
103 133671 714142
104 428499 23870
105 142250 338583
106 333967 416534
107 775442 257851
108 390716 23254
109 196611 259465
110 627397 503907
111 346234 826083
112 3968 837891
113 766302 458766
114 67387 979890
115 78175 840032
116 188948 150749
117 165091 285717
118 961539 387104
119 393732 291236
120 18092 622018
121 279774 314734
122 283030 397671
123 660511 59342
124 92738 138378
125 616774 512610
126 438553 532797
127 221481 204449
128 493198 931988
129 352404 95551
130 203377 746567
131 320410 137262
132 5777 520231
133 58808 19232
134 133504 377770
135 597339 331373
136 930516 58232
137 642691 114787
138 65353 813437
139 604601 799518
140 344692 834314
141 106362 971835
142 776513 331608
143 519621 51685
144 144972 644860
145 226909 942307
146 253599 15961
147 693897 686719
148 691502 221542
149 672043 168242
150 332317 847074
151 454741 293219
152 793685 782460
153 406247 466717
154 756284 889873
155 684827 441513
156 787016 707543
157 868641 261069
158 492967 304449
159 443365 319058
160 828728 837266
161 347188 965261
162 45453 750265
163 876632 637296
164 264547 860230
165 708539 598635
166 57153 714727
167 114691 903179
168 47297 398818
169 103194 515443
170 838641 215172
171 608320 825913
172 816132 389643
173 595119 288338
174 970508 943631
175 810086 54206
176 956995 811812
177 459703 733682
178 789920 740013
179 178528 890506
180 735162 7429
181 363523 240840
182 51232 469655
183 833193 961103
184 891411 478998
185 665950 204628
186 333941 499733
187 508972 774522
188 880271 535375
189 505557 311770
190 960344 136619
191 458768 374040
192 125068 701110
193 235112 816312
194 663495 645035
195 69986 86194
196 507407 624196
197 849493 634012
198 881230 108586
199 316940 41609
200 509372 59743
201 782780 658737
202 983286 673467
203 595437 582954
204 686744 758593
205 498569 973607
206 76518 533492
207 820519 648968
208 500021 739327
209 391347 417220
210 588424 724606
211 644162 849801
212 969625 606206
213 421848 675203
214 516446 835505
215 179084 297316
216 848631 746964
217 813200 986737
218 60100 925276
219 553521 476100
220 201088 495784
221 424965 246274
222 56611 345379
223 442031 657605
224 654570 243286
225 212164 206027
226 592139 481435
227 862524 212055
228 211112 35816
229 845536 996549
230 613366 670161
231 29432 210644
232 557505 2785
233 548642 830243
234 476881 475139
235 206936 842416
236 84756 148061
237 205056 382397
238 132467 162726
239 987277 757570
240 395094 386032
241 829667 519896
242 222139 508923
243 267884 637987
244 189458 810415
245 438094 229857
246 448394 78381
247 269163 358672
248 411028 276904
249 41218 674213
250 212912 279304
251 670328 897000
252 848191 826131
253 376359 72242
254 259296 353601
255 944171 573125
256 846357 35120
257 558455 383508
258 221766 951051
259 941480 198833
260 591756 271738
261 789025 802667
262 262226 927631
263 172088 187756
264 299869 378924
265 6037 60224
266 903430 633675
267 813399 821969
268 539674 794546
269 961441 838630
270 287156 316832
271 696506 990625
272 218658 166356
273 440831 645727
274 816154 341531
275 186583 223271
276 977034 662293
277 668176 152688
278 375874 36652
279 83601 26222
280 286457 581812
281 110801 420666
282 66445 627338
283 876618 855732
284 816461 392098
285 942677 576039
286 134896 599948
287 12249 368485
288 294703 126731
289 134491 109538
290 551756 135435
291 104155 273647
292 92467 424225
293 949423 482763
294 567230 186060
295 945350 683942
296 978085 569343
297 895953 711117
298 181936 96557
299 978376 850173
300 871653 314100
301 511236 706616
302 789775 51148
303 119115 703387
304 569826 243950
305 203265 893111
306 469422 897540
307 80871 602514
308 603727 541458
309 524713 355328
310 445401 780060
311 877355 966288
312 520445 628577
313 64802 428280
314 810173 961100
315 249369 591315
316 556905 890540
317 906273 658645
318 666012 206615
319 192775 489952
320 820497 407965
321 958050 211902
322 740658 165289
323 806586 11796
324 48897 267376
325 646314 753656
326 286384 17275
327 600803 280337
328 757194 620696
329 800343 131130
330 385136 912500
331 510612 79874
332 423453 795300
333 935061 257520
334 156881 915581
335 795928 591930
336 492560 257337
337 709013 691745
338 493676 860080
339 365484 240107
340 871382 444106
341 627936 679043
342 575964 336868
343 80703 477030
344 467086 110972
345 723583 408492
346 49733 277193
347 694023 228566
348 915405 700712
349 502888 48913
350 671613 946506
351 646311 808790
352 395993 202208
353 125719 607341
354 441310 263935
355 199634 280164
356 153609 689370
357 407546 976644
358 862767 233418
359 385850 194886
360 879895 234348
361 754631 107967
362 243968 849422
363 945619 683769
364 861343 506804
365 566025 886335
366 418769 101549
367 40472 591218
368 290496 938566
369 271496 599320
370 474101 847284
371 91180 272199
372 231077 489234
373 653860 941765
374 33224 844601
375 282947 231635
376 839368 996084
377 482888 785278
378 527736 544762
379 768317 804775
380 911712 187153
381 335844 841990
382 789833 352349
383 188983 881409
384 458292 918311
385 322783 921001
386 200194 541248
387 911939 648259
388 394979 758547
389 625079 458690
390 321685 400856
391 915451 56567
392 595092 378871
393 550490 576779
394 311716 688122
395 402234 409086
396 480273 353185
397 276537 553100
398 647090 549931
399 360260 582818
400 94254 895313
401 316686 574534
402 522916 882090
403 316184 782801
404 400991 104016
405 234787 950957
406 233046 80194
407 402541 502625
408 706880 982658
409 565453 236733
410 705259 639052
411 521149 875474
412 824056 427470
413 604315 625659
414 18332 29848
415 332074 612178
416 357555 521063
417 223903 370728
418 167810 835256
419 654026 92466
420 671991 567831
421 11325 74982
422 982863 763182
423 887937 604799
424 529128 849066
425 948784 21430
426 531599 330412
427 250743 482076
428 537757 795622
429 350631 152187
430 714280 480927
431 128774 308525
432 432024 666955
433 939631 158063
434 97331 639359
435 614688 102080
436 453529 716386
437 287948 683829
438 107452 190737
439 624730 341980
440 889712 808692
441 275028 866144
442 315568 851147
443 483404 49030
444 89038 556947
445 431096 9746
446 737924 14666
447 477778 569911
448 114302 294938
449 787033 299034
450 655729 697200
451 980069 187148
452 959353 140091
453 746401 665454
454 14843 399596
455 998672 488727
456 706583 793683
457 721091 704533
458 743003 114108
459 830746 862113
460 552653 644692
461 371030 798297
462 983630 917487
463 122011 266381
464 757032 147856
465 937427 441997
466 175893 225133
467 343308 400985
468 102109 481345
469 145052 611035
470 108144 369295
471 218283 226925
472 4294 786403
473 638716 939627
474 31036 560291
475 447899 847920
476 537905 639176
477 361606 213731
478 521306 754935
479 843840 558368
480 37982 265055
481 520401 403808
482 291452 629376
483 270443 479658
484 789388 934687
485 65816 803375
486 83071 270455
487 414214 704732
488 106786 731853
489 436691 769899
490 396180 367076
491 422540 198664
492 109874 672371
493 921596 772085
494 933681 713931
495 130541 622451
496 691956 210365
497 545218 304768
498 286223 947828
499 812711 299561
500 679616 906863
501 502935 261137
502 164110 80822
503 425379 339241
504 529302 689234
505 292135 749221
506 821253 129908
507 427826 415531
508 573098 310036
509 858590 986684
510 343152 322615
511 666946 489826
512 255070 158953
513 300439 821934
514 106345 333391
515 279352 767545
516 202551 747456
517 477763 646958
518 545822 292632
519 770837 694342
520 99272 611559
521 913494 946996
522 370779 807926
523 955504 202130
524 955294 386264
525 4328 464288
526 841483 479319
527 20208 912071
528 704311 755479
529 783373 517151
530 535000 132747
531 568403 834959
532 589961 680575
533 835727 874257
534 759128 619899
535 460027 370968
536 354742 472325
537 982356 878863
538 481131 187626
539 469617 342999
540 454641 544960
541 38561 589193
542 798390 146605
543 199141 367591
544 157494 797188
545 811231 671565
546 533503 150938
547 234315 728303
548 256817 441169
549 964640 491915
550 326794 767877
551 732512 612294
552 931622 459367
553 425727 252289
554 680928 873603
555 712929 336720
556 597985 986184
557 705919 863435
558 599243 417465
559 600644 861658
560 423758 394557
561 909616 267212
562 293105 692149
563 638456 742447
564 540703 522988
565 453136 228842
566 506697 596014
567 630070 117921
568 946975 52376
569 883273 934955
570 547362 781676
571 766946 295836
572 373429 416673
573 761949 266290
574 857832 542165
575 89847 514369
576 900465 441652
577 38779 97952
578 261179 136497
579 982224 813701
580 512392 373350
581 369016 745972
582 326240 931252
583 569773 302148
584 612755 289246
585 101485 332952
586 559632 58478
587 771810 909389
588 494091 467963
589 228433 195152
590 430970 501959
591 760223 727001
592 10595 79785
593 859825 760724
594 269774 698817
595 548147 644826
596 439621 594027
597 833470 214410
598 222044 708467
599 524025 464039
600 922581 293985
