NAME : portgen-400-410
COMMENT : portgen N=400, seed=410
TYPE : TSP
DIMENSION : 400
EDGE_WEIGHT_TYPE : EUC_2D
NODE_COORD_SECTION
1 723869 124329
2 552744 748632
3 317887 44260
4 934724 412533
5 82540 778082
6 549246 265306
7 135223 781442
8 947358 282505
9 751295 113450
10 630036 696242
11 21182 981683
12 628270 603264
13 669697 711747
14 880035 517574
15 944683 266759
16 67349 634987
17 138891 934270
18 647504 706258
19 817240 920713
20 786562 890449
21 577575 623578
22 286423 475158
23 169147 881981
24 356625 389239
25 641705 963778
26 77236 364631
27 865857 548155
28 341856 88882
29 985438 618474
30 101127 611629
31 227020 14011
32 625971 192091
33 200506 925668
34 978882 660064
35 612295 65377
36 925880 362056
37 471744 666258
38 619006 656550
39 115825 80114
40 261407 580815
41 726309 261560
42 416446 333054
43 39738 53338
44 9015 946800
45 733763 721836
46 727375 157175
47 308417 721185
48 964569 215519
49 151833 620164
50 856152 512596
51 766155 276511
52 127831 60890
53 237469 815675
54 948185 532803
55 508417 288518
56 79866 38637
57 884711 379291
58 884253 69844
59 705593 904786
60 227522 984987
61 773834 358718
62 803912 99699
63 299221 649369
64 234224 410854
65 428789 803331
66 708364 583022
67 571696 972889
68 500948 687671
69 376849 37154
70 448800 969893
71 347744 104228
72 719277 748776
73 948001 368657
74 353263 208718
75 421963 315200
76 981294 740978
77 191375 52820
78 804232 183133
79 704814 154942
80 559941 549797
81 438826 911031
82 84002 538523
83 940773 975637
84 319360 135935
85 431290 515596
86 716581 496874
87 482823 912321
88 3692 32855
89 167343 751091
90 295466 116088
91 944554 79282
92 850912 878991
93 364505 797332
94 499020 33172
95 32115 525310
96 368311 240914
97 605864 933204
98 253311 850869
99 621405 806955
100 745083 915145
101 201314 602171
102 913251 305875
103 370645 902012
104 890066 312383
105 688315 6899
106 684113 671641
107 122827 34631
108 181486 197911
109 305167 150797
110 285212 89903
111 354232 512404
112 390851 516144
113 314281 114410
114 583622 176948
115 541676 101680
116 142789 854959
117 62775 288567
118 431975 272913
119 956455 816281
120 697504 166593
121 492165 348222
122 747960 942211
123 171078 855907
124 850062 89719
125 618922 138901
126 267246 444457
127 265279 643402
128 772356 346354
129 539395 624684
130 873899 97731
131 945556 73784
132 614878 521722
133 514733 335890
134 923680 180615
135 863552 325579
136 347849 215448
137 531874 146310
138 822657 909774
139 247124 747449
140 743788 967927
141 575014 958938
142 303048 443945
143 156123 69004
144 240080 541053
145 773833 96084
146 349233 775839
147 952729 371925
148 818743 276717
149 816347 601650
150 119554 261304
151 608782 102613
152 345930 650995
153 563887 308308
154 141409 821334
155 487278 703351
156 106273 998342
157 850851 777814
158 748498 169717
159 121055 242953
160 702978 238016
161 519543 322029
162 61061 602248
163 716797 245236
164 869517 880878
165 582423 514348
166 768365 425790
167 260170 40437
168 861653 576672
169 108086 525233
170 695446 986406
171 947949 997127
172 838074 535816
173 576541 27203
174 714777 350480
175 655127 573506
176 407200 935468
177 19227 605205
178 492938 182991
179 842442 305493
180 789342 987215
181 200221 616175
182 125887 500872
183 755401 109146
184 160267 315034
185 201273 721295
186 454939 770574
187 587825 129472
188 830816 584074
189 302802 455855
190 109309 533805
191 402794 564023
192 91536 595208
193 314126 152189
194 299902 759298
195 285035 752506
196 416404 793052
197 323960 974151
198 531466 177374
199 409301 708602
200 705000 992467
201 724400 258921
202 241171 121321
203 170712 843176
204 843932 424018
205 291079 340748
206 883088 83144
207 20458 36835
208 570810 407169
209 292214 151736
210 969406 578027
211 699844 451665
212 610033 208805
213 996894 196018
214 529403 466504
215 958759 987639
216 740142 878783
217 164776 768560
218 650716 319650
219 543565 54700
220 24397 906957
221 859975 148166
222 789892 707007
223 52662 964738
224 183018 115154
225 977256 335448
226 647970 942797
227 749842 717361
228 252325 845616
229 94145 472610
230 470605 851062
231 299610 789231
232 399621 384122
233 480773 734922
234 293252 313450
235 984173 606072
236 224150 177059
237 174479 633958
238 930057 757047
239 701822 892672
240 956480 151278
241 101873 56793
242 995898 107696
243 688028 950910
244 479162 780654
245 287787 915794
246 26397 230115
247 70526 418324
248 682806 682915
249 973687 155934
250 776950 295614
251 262915 290346
252 158674 825978
253 233575 591176
254 946898 642146
255 29332 301414
256 366454 313490
257 184823 554810
258 824664 69495
259 718704 981296
260 701316 797858
261 761235 137318
262 536499 688559
263 343156 933804
264 18385 348500
265 400382 338880
266 810148 59676
267 863340 655065
268 784823 788382
269 871970 441088
270 283032 618533
271 232205 497865
272 79338 489928
273 154559 889079
274 693615 381967
275 75168 749001
276 664529 625186
277 755551 438069
278 485465 203239
279 427006 503609
280 41154 445192
281 719205 505810
282 359114 410799
283 69209 868588
284 234152 694894
285 400250 935584
286 375879 336737
287 906128 952314
288 133328 136048
289 381767 98429
290 203093 139917
291 506798 514776
292 307345 955190
293 619675 304338
294 700562 452540
295 585855 916234
296 554230 177076
297 40837 347447
298 242653 895468
299 591737 127023
300 356599 18510
301 507312 595185
302 178874 935251
303 242202 149753
304 317840 800360
305 818394 181127
306 502677 974465
307 917753 124920
308 890962 542129
309 464972 11667
310 168145 173740
311 276851 107128
312 338294 381740
313 428272 780693
314 157862 970877
315 710112 983575
316 818208 581406
317 280035 21965
318 637239 532333
319 597023 182425
320 64227 77545
321 839366 688894
322 284395 412115
323 639382 447101
324 838781 659097
325 919174 461959
326 737606 620859
327 416911 373024
328 200302 925906
329 315150 156908
330 298011 709868
331 552730 135414
332 736133 740849
333 341761 813782
334 690070 505638
335 485537 443861
336 703348 805875
337 92492 706185
338 436134 655992
339 690217 965270
340 181438 502365
341 465543 953
342 672865 243
343 430845 682793
344 845272 539186
345 680204 823457
346 842263 91384
347 696887 620366
348 374197 33490
349 596402 578209
350 975980 983390
351 756883 873510
352 477658 416809
353 996416 736652
354 947994 416667
355 942179 517508
356 80634 775964
357 476704 474554
358 867605 461345
359 438526 115767
360 366652 308270
361 217379 111860
362 529658 502147
363 686977 829837
364 328216 675683
365 709768 699482
366 707997 273549
367 23091 663929
368 421731 689578
369 524248 198311
370 132637 969499
371 244266 729505
372 172533 371933
373 606077 730402
374 561726 194740
375 933388 544359
376 705273 920719
377 868440 276498
378 275392 483333
379 850419 813728
380 995077 306838
381 212404 749682
382 284029 972679
383 273241 351128
384 603430 104771
385 868476 137203
386 899618 243786
387 182379 822292
388 602996 296660
389 243420 253159
390 226754 203643
391 979418 514487
392 680605 402930
393 487078 958315
394 989520 50411
395 390688 70602
396 86148 419477
397 329835 995434
398 69881 480
399 547125 350241
400 768936 309417
