NAME : portgen-300-308
COMMENT : portgen N=300, seed=308
TYPE : TSP
DIMENSION : 300
EDGE_WEIGHT_TYPE : EUC_2D
NODE_COORD_SECTION
1 797649 986982
2 856230 501777
3 481438 322403
4 81874 456267
5 70711 639788
6 913786 217920
7 665370 460576
8 41866 11529
9 651493 29831
10 743387 288220
11 74557 715004
12 514681 745256
13 564270 879674
14 745272 296171
15 16834 624432
16 739940 485766
17 718149 528896
18 5568 14635
19 154890 797055
20 540361 713949
21 903066 726260
22 674100 454159
23 668718 85636
24 2771 490504
25 150574 874050
26 915063 457350
27 209172 876982
28 314610 311883
29 268832 327333
30 496209 466802
31 167512 284819
32 915905 356762
33 736722 187526
34 543820 211211
35 791857 956229
36 8757 160988
37 879257 869336
38 373157 617207
39 505831 637698
40 430646 252387
41 610841 417938
42 799962 550031
43 456920 455121
44 569860 361387
45 792174 818041
46 470815 943678
47 5197 584131
48 705192 742077
49 847002 804763
50 81001 51511
51 579805 365072
52 59858 898186
53 263209 497124
54 657388 659141
55 420062 859489
56 742022 907445
57 535159 678167
58 995986 223833
59 279622 331774
60 651570 994644
61 340524 739056
62 130209 740346
63 376424 643684
64 101130 981070
65 606127 876032
66 959819 846690
67 217636 571156
68 510364 703396
69 882779 121794
70 554045 233086
71 175498 238086
72 709817 797530
73 477517 731759
74 813469 264850
75 207707 61507
76 640947 865931
77 198636 204969
78 91692 733114
79 147436 488701
80 387822 559812
81 614345 535593
82 105096 186976
83 683990 503935
84 197628 737628
85 200650 264227
86 410364 14771
87 124067 590062
88 353696 474592
89 540419 925240
90 648654 643309
91 496248 612429
92 593248 46314
93 261686 424225
94 741594 30659
95 887166 6428
96 505768 145150
97 921144 289817
98 822721 160727
99 114019 119754
100 443833 2925
101 191339 888228
102 616195 564397
103 565259 28518
104 272683 152322
105 943282 667466
106 991520 116776
107 601535 381393
108 54044 469195
109 614448 815278
110 364254 523263
111 389916 77873
112 293794 197724
113 72888 522135
114 398576 559670
115 24803 325178
116 201909 388097
117 981957 981188
118 651789 379471
119 10893 211855
120 992269 792491
121 809777 926315
122 666405 363902
123 616512 427894
124 851355 723419
125 216928 300585
126 762151 554349
127 94951 118654
128 801016 803241
129 906270 635007
130 912607 185788
131 17624 60827
132 160052 150791
133 857689 65205
134 450371 237632
135 764880 626150
136 617839 891028
137 598349 63668
138 761112 835566
139 982922 175139
140 396708 269647
141 615865 763568
142 647062 839015
143 307554 141081
144 228044 831166
145 123499 586583
146 929100 773261
147 446974 366118
148 174652 918748
149 327965 602737
150 602790 780945
151 444971 676215
152 326710 947281
153 684720 998582
154 907287 255936
155 811100 659934
156 575196 75104
157 511507 326024
158 256687 244363
159 613853 793933
160 976138 938940
161 737240 847633
162 634842 983935
163 181178 941623
164 564317 651067
165 378947 762530
166 928279 726986
167 364039 736773
168 694450 540761
169 252060 321037
170 582327 63190
171 527227 434110
172 855027 184558
173 849343 81466
174 138418 463038
175 184940 233028
176 354430 676897
177 223789 840260
178 852665 717985
179 312176 589936
180 252831 143959
181 746521 586249
182 673609 747909
183 132707 141085
184 220076 326949
185 476680 175221
186 105944 150814
187 608993 743110
188 584510 60342
189 623844 794581
190 131269 463193
191 629446 974381
192 398236 234988
193 16008 342030
194 53377 616129
195 604066 553364
196 320685 925111
197 844356 407105
198 957246 376412
199 825117 111917
200 600048 789000
201 457621 343837
202 331768 721746
203 603582 380049
204 278660 988801
205 824251 510635
206 664608 696047
207 985870 699466
208 823274 821409
209 741892 266503
210 790663 756294
211 315968 108158
212 726900 687680
213 717600 762107
214 819046 887246
215 139527 204461
216 781681 635043
217 970330 620634
218 798584 933399
219 988510 698769
220 411714 194598
221 600137 786873
222 825466 847772
223 237396 212526
224 198210 156676
225 689505 195138
226 557366 937870
227 972389 395587
228 7318 822578
229 373506 711134
230 923161 670182
231 391538 579890
232 577086 629653
233 910498 877734
234 870581 138097
235 462070 610747
236 623199 585216
237 576998 595524
238 198927 378098
239 135768 331313
240 680361 895022
241 388600 107911
242 964084 469345
243 812922 201790
244 57956 340677
245 710135 920850
246 62818 850413
247 236699 800966
248 571399 14920
249 209874 229941
250 648844 859298
251 76758 866897
252 476314 794483
253 806538 449455
254 973785 503044
255 582664 805527
256 764621 32829
257 998 2311
258 607364 541125
259 343191 776120
260 58253 895577
261 667860 640639
262 489252 602771
263 533988 756301
264 108901 782515
265 788986 749472
266 404312 632724
267 748648 874833
268 130400 355770
269 106912 961773
270 861981 271797
271 858599 281836
272 282423 814558
273 252989 422178
274 361160 633928
275 266977 815097
276 906019 427359
277 440955 899372
278 454985 444034
279 118248 601480
280 664082 450767
281 342542 12012
282 641063 310867
283 946928 482784
284 750405 186440
285 749321 185185
286 179964 709262
287 509142 243155
288 989558 240500
289 199684 589879
290 147785 89954
291 638053 507421
292 118433 338218
293 406929 392300
294 991660 437781
295 927905 647615
296 605365 920472
297 212451 676795
298 91832 149336
299 772694 39268
300 825000 12489
