NAME : portgen-400-409
COMMENT : portgen N=400, seed=409
TYPE : TSP
DIMENSION : 400
EDGE_WEIGHT_TYPE : EUC_2D
NODE_COORD_SECTION
1 626553 799453
2 163563 883467
3 515569 105811
4 289108 638452
5 170660 953197
6 572428 607979
7 993362 493983
8 546324 54358
9 593454 357728
10 591932 202046
11 51117 273186
12 666372 751715
13 845134 909471
14 751263 907560
15 445390 260461
16 573943 604112
17 438688 969511
18 366701 52419
19 849962 703814
20 764540 643621
21 365080 340271
22 407871 249462
23 370123 246723
24 343352 949055
25 940811 178584
26 281528 42011
27 330008 502360
28 263158 22440
29 360765 194051
30 516766 463150
31 255848 585293
32 873912 527039
33 588116 232157
34 200107 743899
35 123860 299601
36 711006 644398
37 416916 413347
38 920518 9105
39 943178 164012
40 488557 822693
41 548706 557211
42 390794 982240
43 4612 988649
44 730200 911649
45 381394 134544
46 852311 106062
47 579954 464939
48 932614 720681
49 923354 994523
50 328944 361017
51 303544 179340
52 460498 118118
53 629878 724317
54 651217 347767
55 497747 274508
56 292240 449116
57 812656 382221
58 610839 149785
59 5338 408972
60 594424 867434
61 308802 205584
62 414954 762842
63 996056 531666
64 183900 298797
65 783469 196200
66 357888 595411
67 666264 214048
68 530452 99589
69 744554 8572
70 371401 854826
71 983310 321227
72 317224 513960
73 825741 646726
74 691108 817112
75 468882 400948
76 536781 624556
77 211054 132743
78 3129 708132
79 513075 246449
80 587666 530288
81 979762 642644
82 976366 642920
83 291197 971013
84 131892 298696
85 556480 964112
86 458677 188226
87 940090 193476
88 330653 684245
89 994530 282210
90 759713 287923
91 18591 937450
92 711131 253181
93 216438 715243
94 619045 23344
95 922851 559439
96 967697 445857
97 452092 407289
98 396149 795084
99 381137 123748
100 183306 141496
101 652196 408897
102 57398 180958
103 382357 599330
104 913425 957873
105 916305 287885
106 89087 489730
107 323598 28226
108 562590 533904
109 190552 569076
110 246771 496113
111 589876 8143
112 115390 414983
113 311915 49780
114 130828 759131
115 811119 731322
116 770820 36656
117 365905 471828
118 198836 528860
119 613851 682904
120 690590 682533
121 524691 49968
122 776573 426737
123 969563 959553
124 330467 37108
125 95373 346369
126 664255 622005
127 312628 451983
128 370676 615539
129 42992 585570
130 982122 853496
131 985479 230520
132 267282 233772
133 763194 39119
134 713157 896861
135 58663 603036
136 203437 153443
137 473702 900402
138 831857 967870
139 695514 663407
140 44307 696375
141 6787 545258
142 777009 957622
143 745843 540299
144 769374 132132
145 708633 159717
146 815702 716990
147 624241 87554
148 479095 371247
149 576265 876170
150 594880 1692
151 264039 667060
152 992801 398998
153 339581 118997
154 844996 355006
155 706139 830376
156 846165 910859
157 876936 822405
158 37794 268488
159 606279 179727
160 754676 391947
161 462853 836986
162 301981 56970
163 338997 536377
164 160642 74704
165 560820 712859
166 122874 340508
167 957267 213930
168 850210 95927
169 668321 954604
170 919827 477355
171 934020 589646
172 377456 316686
173 696863 978715
174 415009 567270
175 748557 942717
176 210604 501561
177 315350 882020
178 878818 923530
179 709792 778870
180 548788 243653
181 450675 890391
182 435179 228784
183 896355 256518
184 533403 560249
185 125541 59078
186 853479 39008
187 431170 811958
188 181342 961292
189 521636 419961
190 178152 415466
191 826584 381772
192 525915 317166
193 262184 232482
194 905329 728482
195 317574 593691
196 562524 108072
197 829062 860749
198 623875 895011
199 158476 565497
200 135344 735570
201 457079 995048
202 389118 333090
203 116132 828832
204 975645 998183
205 619835 646335
206 18201 981309
207 461295 955096
208 681129 342603
209 61329 574430
210 604908 1343
211 98042 967905
212 424904 389971
213 601999 858430
214 649890 98079
215 695825 352510
216 985647 523453
217 800125 531816
218 397264 845275
219 920476 570818
220 636037 919580
221 171153 330899
222 123574 316231
223 495649 594618
224 683167 439091
225 258749 765445
226 245121 60396
227 869671 782833
228 749923 933626
229 194923 857301
230 935826 270857
231 908355 404826
232 362145 700254
233 475182 687302
234 857735 145064
235 459447 86510
236 659435 622237
237 315680 839463
238 756222 37645
239 98233 642071
240 640047 668373
241 663507 792589
242 162253 424967
243 444155 580820
244 161307 99870
245 56633 709961
246 987539 775412
247 111371 549527
248 260145 548915
249 15218 284110
250 560008 458003
251 496384 41096
252 799043 590375
253 101937 452532
254 898142 444704
255 338678 169102
256 772318 95052
257 800667 225864
258 283318 132942
259 293454 812618
260 440109 926267
261 672084 573625
262 585056 1443
263 590125 618339
264 823194 725304
265 737526 303690
266 139503 653529
267 303392 470945
268 896054 568454
269 991921 936389
270 141649 311212
271 287366 348688
272 659760 130366
273 37877 413914
274 190356 109928
275 959401 641806
276 725720 289913
277 546584 256317
278 318500 842855
279 737704 328098
280 694320 533482
281 460611 961753
282 303054 27466
283 881736 423630
284 435292 670301
285 187986 869404
286 942586 183526
287 853216 798303
288 200546 382170
289 27040 328738
290 682943 747270
291 880634 495096
292 30984 204043
293 843079 177749
294 350474 275925
295 589209 472424
296 133162 321619
297 748402 272244
298 368626 103839
299 495471 861457
300 929819 655706
301 386873 861618
302 426985 212131
303 761171 230624
304 258929 342541
305 413238 140750
306 492380 461779
307 738888 221896
308 400319 138991
309 213350 30810
310 658840 777896
311 928158 573834
312 740482 532280
313 482531 80968
314 756541 641085
315 37131 969922
316 123241 684499
317 915500 542192
318 254890 418855
319 756207 809087
320 803723 704087
321 964399 319664
322 617084 811313
323 544266 559327
324 581136 216121
325 789713 287657
326 347298 854386
327 824325 959896
328 532464 702373
329 946118 884792
330 957241 342315
331 474416 449841
332 538817 709150
333 176351 172715
334 844694 927575
335 677629 840991
336 557855 997229
337 241097 371182
338 430597 73771
339 749509 780585
340 999815 780157
341 134849 871748
342 683844 694816
343 495505 673399
344 145681 206349
345 365841 82174
346 574161 828631
347 131457 962731
348 146232 967170
349 78567 245902
350 380715 470494
351 809818 800551
352 216306 9555
353 152807 475549
354 170542 129509
355 464391 859065
356 556691 739768
357 518951 875066
358 768154 645784
359 318383 576086
360 562917 209181
361 94148 598792
362 546860 207135
363 31173 757303
364 780922 231541
365 218374 955048
366 903229 620000
367 316194 140750
368 223465 395081
369 352797 808777
370 926661 849720
371 355015 569595
372 643431 156659
373 988026 975369
374 281771 924322
375 931558 388928
376 186247 847026
377 27527 425666
378 567265 189818
379 484357 75555
380 786089 757726
381 122752 361764
382 202847 614670
383 504049 987096
384 96337 362291
385 887040 792785
386 364013 394061
387 644528 173989
388 22934 247121
389 571265 121193
390 639870 841354
391 272946 705366
392 445451 460648
393 832295 541464
394 417152 701523
395 636701 236369
396 298744 990505
397 921737 133876
398 485707 960954
399 925067 469442
400 133725 740904
