NAME : portgen-1100-1108
COMMENT : portgen N=1100, seed=1108
TYPE : TSP
DIMENSION : 1100
EDGE_WEIGHT_TYPE : EUC_2D
NODE_COORD_SECTION
1 650352 887744
2 201440 633972
3 335943 82071
4 574816 721101
5 575252 547973
6 368375 79772
7 154412 428156
8 869254 528990
9 924453 607230
10 226913 645256
11 126515 512488
12 33021 984532
13 214675 699852
14 763022 307170
15 450948 662286
16 464715 185536
17 880830 335746
18 648205 86186
19 977241 315943
20 157620 176693
21 899215 371894
22 515852 11019
23 887766 292262
24 621231 637444
25 865327 28774
26 481124 553676
27 889054 513634
28 273403 464816
29 6913 865693
30 985766 249757
31 104830 258872
32 563481 398559
33 648758 996481
34 563920 143392
35 540389 576992
36 907759 287008
37 741903 198138
38 164132 572839
39 623433 519387
40 711128 749859
41 692939 897328
42 321403 201190
43 557456 205842
44 622055 482271
45 686988 651724
46 522266 833849
47 775553 580627
48 268934 612206
49 629991 317713
50 846887 314927
51 668828 101843
52 926315 115468
53 335835 583795
54 232272 687863
55 956177 67560
56 842760 524642
57 178705 334042
58 727491 270980
59 483318 982853
60 129624 36551
61 366489 246206
62 296505 225462
63 908163 805915
64 360693 626434
65 862303 580337
66 340566 935570
67 563209 643567
68 907099 168297
69 718623 987360
70 473699 286475
71 722524 639202
72 352646 650436
73 285234 276059
74 537344 550091
75 672463 463018
76 251513 3556
77 455410 266550
78 974360 733258
79 538633 282747
80 208369 167538
81 865172 244912
82 214164 669702
83 345036 203557
84 171995 528268
85 48808 451432
86 733636 933227
87 310389 666605
88 785037 362933
89 790796 29954
90 251101 174905
91 267282 77945
92 418065 694764
93 715165 95653
94 721406 893507
95 298531 703541
96 996301 190354
97 938551 22267
98 552838 789297
99 328813 686040
100 865399 922301
101 485262 507389
102 298989 497557
103 195736 173568
104 585491 760645
105 551385 878707
106 11851 645126
107 984216 504827
108 171236 674817
109 306360 191897
110 116863 555738
111 874744 485954
112 662869 126507
113 966170 226247
114 634237 812831
115 470869 611469
116 777441 30151
117 478569 372394
118 163053 622156
119 93728 913237
120 523527 40347
121 789293 529508
122 776643 742793
123 828797 510347
124 527485 812044
125 56096 326591
126 155059 515981
127 215171 253930
128 144859 455111
129 28819 926594
130 334503 573580
131 79839 672253
132 237117 511037
133 89413 482343
134 868483 241423
135 676030 660889
136 147332 494316
137 135800 790272
138 400678 358762
139 270783 408939
140 981648 511059
141 197427 707643
142 478327 897289
143 531629 105188
144 793033 967532
145 282981 680710
146 753672 852305
147 237207 862638
148 893015 294977
149 393708 986370
150 342114 470034
151 239563 118546
152 830396 545037
153 129163 447416
154 37653 317881
155 722300 39670
156 662077 61287
157 643613 653793
158 819907 227533
159 435046 374479
160 618022 794436
161 88634 882112
162 899308 205996
163 421325 28785
164 663919 590762
165 661108 953262
166 321109 952901
167 686638 941977
168 848981 136140
169 64029 824534
170 77382 304095
171 670142 418554
172 349510 488544
173 592076 871560
174 952997 31210
175 441312 864229
176 631057 802946
177 325262 388852
178 148924 286662
179 431907 888419
180 696056 993023
181 383387 213119
182 240499 418205
183 369528 243523
184 711776 155069
185 61716 948346
186 274536 403835
187 933167 753792
188 163379 285688
189 556850 510456
190 57071 134663
191 596877 775500
192 894706 668085
193 569874 107990
194 712402 268433
195 572448 605458
196 424363 908960
197 762817 129035
198 29559 266306
199 485386 595717
200 325165 306387
201 314710 442541
202 974139 306648
203 267351 855557
204 908240 657177
205 818977 40934
206 574260 163474
207 315970 90597
208 568659 474426
209 450301 111463
210 388645 103222
211 758136 116059
212 829904 755329
213 633636 831995
214 429696 626518
215 486440 307821
216 377448 899673
217 691478 16136
218 560403 433403
219 459529 804108
220 99425 95448
221 657688 600938
222 879787 469226
223 847322 308304
224 79056 7488
225 495399 197563
226 836609 858867
227 109277 17343
228 928939 415037
229 751062 958002
230 746245 833948
231 396028 104131
232 557751 723529
233 383246 973322
234 283686 846744
235 243275 260355
236 395370 442813
237 616064 191082
238 266612 899268
239 6782 812560
240 826389 218598
241 80933 471693
242 880273 652492
243 911793 273316
244 341921 967949
245 632890 587081
246 149716 612784
247 560832 839069
248 700078 214875
249 984873 688705
250 202613 948053
251 301522 266495
252 181098 276800
253 116630 364916
254 978594 456784
255 105549 655623
256 73115 783112
257 325112 159163
258 684231 783243
259 543299 718681
260 23450 168370
261 988448 594981
262 644131 295222
263 958832 128874
264 261714 339263
265 74451 901696
266 920674 549997
267 707011 170766
268 145483 297821
269 146581 721109
270 968261 128550
271 730017 623239
272 944498 464519
273 598633 554735
274 968653 265610
275 880236 571203
276 953160 645610
277 614253 300917
278 27379 751524
279 559484 10331
280 131317 818809
281 218334 257484
282 488523 976999
283 925605 449876
284 838613 860592
285 560530 129495
286 814590 277688
287 838444 452247
288 215210 342837
289 980727 343213
290 267842 207308
291 569390 251382
292 207945 255642
293 683361 663189
294 61474 730011
295 245161 695606
296 459208 285988
297 160579 838765
298 313959 452328
299 784794 492251
300 249309 255795
301 574008 625439
302 997768 672928
303 1813 701777
304 437664 358611
305 617555 364189
306 690050 829472
307 765170 435710
308 359600 932345
309 96905 649757
310 663039 473276
311 665081 346361
312 611283 304735
313 555487 189150
314 279920 165515
315 450434 513432
316 905173 622115
317 725657 903653
318 517257 739917
319 486212 772235
320 896041 751016
321 566284 411716
322 66971 771884
323 30525 112846
324 674705 855843
325 283278 124809
326 172408 619279
327 41817 735876
328 350622 951892
329 899781 94115
330 155671 261895
331 215565 665429
332 462569 866539
333 797905 278333
334 762500 993286
335 405184 246754
336 257640 241061
337 366479 538230
338 300867 45802
339 304544 875406
340 954112 603595
341 289368 185805
342 9844 188538
343 297866 239743
344 159546 859118
345 105747 238924
346 977416 492925
347 367050 649287
348 493376 325223
349 45237 528741
350 471016 984723
351 808301 799298
352 901731 679682
353 835440 986603
354 609434 853278
355 438010 110878
356 792346 40662
357 988367 916746
358 284478 722640
359 298379 813282
360 373162 472681
361 233095 233759
362 522269 420461
363 438452 458342
364 339330 686796
365 702790 314264
366 436367 451266
367 437396 843234
368 811248 248705
369 197438 93098
370 904059 575226
371 941364 346264
372 485956 633066
373 5828 743657
374 970656 946589
375 210835 35034
376 985893 358440
377 825950 156751
378 548356 357035
379 361901 58496
380 868434 586734
381 789164 516336
382 949218 862784
383 169514 446081
384 554706 355300
385 910918 540821
386 751983 351790
387 602447 338128
388 486788 874655
389 407809 365517
390 872104 81416
391 96440 280833
392 818362 116056
393 525099 920031
394 502047 574612
395 673719 365166
396 693999 842137
397 182179 363237
398 823242 589574
399 743817 147827
400 146277 131173
401 335847 605138
402 74484 129418
403 938594 705059
404 540078 709894
405 631652 628324
406 854987 787289
407 384777 503267
408 892735 947027
409 334156 585980
410 39541 579940
411 702264 406879
412 209023 779744
413 204974 146845
414 277305 473028
415 399534 781728
416 334576 697915
417 733865 243779
418 226428 309150
419 896056 315095
420 223321 578072
421 585874 916066
422 535070 93779
423 662902 287119
424 633114 402435
425 158263 676396
426 312268 270788
427 748292 364548
428 796596 637932
429 871272 830704
430 902989 629443
431 809003 224982
432 486573 53579
433 42450 938921
434 252219 290997
435 840364 605615
436 313913 931721
437 427717 363144
438 267671 431476
439 658586 844474
440 983148 567041
441 275573 446601
442 570039 770090
443 972724 109593
444 211341 680285
445 201329 287507
446 56930 605058
447 474730 617705
448 264158 654153
449 488349 171925
450 826107 231425
451 628533 788639
452 419287 591222
453 400823 865667
454 700749 978201
455 391824 687002
456 426590 190986
457 629374 615481
458 572512 203945
459 750252 868867
460 789420 388296
461 450571 80293
462 464890 608938
463 977082 525273
464 512434 836495
465 962321 402004
466 730727 680384
467 452650 296145
468 140450 84586
469 817226 954557
470 197578 768779
471 359341 342474
472 890864 813033
473 836935 976637
474 140168 865791
475 640623 738885
476 141719 651854
477 209604 424102
478 500698 948148
479 335989 123141
480 450771 316236
481 48440 746191
482 780623 623045
483 327661 84116
484 300121 816341
485 778545 595875
486 63777 884460
487 228244 50535
488 246576 798717
489 870689 40787
490 108240 28933
491 189283 389292
492 385723 646084
493 353564 984535
494 899761 829605
495 968483 56333
496 784465 885
497 176011 601702
498 705001 474880
499 114229 840329
500 566456 38218
501 105947 99380
502 757551 611689
503 549602 752427
504 266130 563519
505 70538 516163
506 48387 506384
507 154658 394437
508 531771 47554
509 570179 178921
510 918043 852781
511 969887 459791
512 249884 740327
513 489928 964396
514 126909 616555
515 500932 494149
516 532586 307170
517 970249 592076
518 980546 682898
519 234633 991285
520 114312 306009
521 414356 720839
522 911561 115702
523 86446 324673
524 751001 435684
525 111773 740604
526 347970 497674
527 339396 72307
528 505631 798776
529 129131 165474
530 631142 866703
531 517793 274844
532 449206 764528
533 101807 327547
534 594822 38955
535 307991 207098
536 296553 134495
537 67147 177438
538 504810 472212
539 120395 177577
540 234695 691152
541 835265 961434
542 985412 634229
543 976355 257741
544 857964 205721
545 490269 652998
546 88076 195678
547 683294 907214
548 9456 279860
549 653692 734123
550 610892 614233
551 204278 573424
552 200988 420621
553 905339 386535
554 512261 705167
555 95951 247889
556 940812 923410
557 675204 978143
558 778627 322115
559 591550 541991
560 755071 821946
561 673854 860699
562 428063 693757
563 2819 723129
564 933506 646525
565 272099 118274
566 959951 415227
567 81625 986806
568 750339 911854
569 286230 7269
570 855602 654240
571 666191 315972
572 450649 668323
573 979144 227376
574 767614 989537
575 904394 286327
576 346353 7167
577 462023 492617
578 654282 789050
579 491798 214182
580 670281 993484
581 100305 504992
582 849564 441710
583 581698 624840
584 472760 6881
585 998999 551250
586 554500 602012
587 637597 468744
588 475592 666687
589 398675 935445
590 39475 213769
591 231330 719324
592 976243 278614
593 17968 454959
594 565663 639914
595 405107 125499
596 439093 279348
597 8269 304351
598 99739 64178
599 678374 981905
600 192730 312456
601 828700 832169
602 950062 690625
603 54996 627029
604 30923 183409
605 474649 199322
606 223387 851883
607 809074 544782
608 554390 820957
609 496722 545213
610 341971 517519
611 946465 490855
612 814150 686542
613 722550 722331
614 651950 946972
615 413747 848563
616 635763 215266
617 460796 840152
618 990381 379447
619 910250 431461
620 724223 197011
621 958236 20449
622 297943 887588
623 179033 948238
624 465198 321726
625 581801 377408
626 412228 731402
627 568157 344167
628 676692 613434
629 371372 109909
630 700243 675548
631 716779 599462
632 459185 277638
633 241086 202937
634 553939 921485
635 365748 606152
636 355759 174996
637 963412 964563
638 105291 215062
639 922698 469982
640 9850 109115
641 350959 542040
642 246729 738199
643 131783 36301
644 756080 183158
645 599065 787444
646 825507 988764
647 65712 118071
648 841252 783240
649 57037 333380
650 782297 963971
651 25539 995215
652 311876 472685
653 26449 870187
654 484673 829958
655 212383 640391
656 857353 188214
657 510843 912798
658 850041 728015
659 533749 341114
660 436385 457846
661 145900 220559
662 139188 401777
663 580612 360543
664 863120 490726
665 938114 235104
666 730389 92739
667 257598 369459
668 251761 162744
669 31197 333930
670 888157 403768
671 502551 414966
672 746772 141219
673 641544 604948
674 849575 663935
675 537458 480708
676 920119 566311
677 395266 547192
678 233581 932799
679 737616 942417
680 220923 863704
681 838990 150743
682 941800 808615
683 137839 442387
684 441441 369624
685 271254 245093
686 878439 869814
687 803655 955677
688 537726 579588
689 825293 591995
690 168195 647812
691 622926 920703
692 269803 74409
693 396114 579646
694 150939 448983
695 231619 809374
696 721302 661572
697 62675 643064
698 525329 632736
699 611310 791095
700 603493 61955
701 779654 257579
702 495739 889645
703 857781 999416
704 296508 320856
705 151078 653935
706 781860 288632
707 710797 411549
708 142401 177417
709 88068 298736
710 283285 505103
711 831077 650346
712 766131 209299
713 465438 620859
714 374075 914009
715 97895 538309
716 283080 504436
717 440916 514259
718 865952 334294
719 209905 858253
720 932007 218696
721 491577 852203
722 165697 726516
723 978296 70956
724 895441 853375
725 177625 904470
726 258661 697300
727 693200 65183
728 778874 275218
729 816663 981479
730 23693 523487
731 789511 438254
732 388848 932381
733 162357 929657
734 122935 984281
735 433253 71445
736 281976 234692
737 121110 378815
738 246441 133777
739 957146 700947
740 430425 190220
741 804196 392595
742 890316 574407
743 748798 844826
744 115588 508534
745 351902 936294
746 211358 225624
747 425000 860562
748 936720 256884
749 731092 786882
750 480074 844518
751 113809 194493
752 422949 987405
753 100273 866065
754 806984 118792
755 316385 934047
756 159630 308128
757 629577 87399
758 312128 563887
759 13253 528286
760 995661 905472
761 198565 336052
762 504207 588734
763 957635 87483
764 811743 133705
765 278542 380376
766 326793 838353
767 384562 496378
768 30590 496068
769 763018 802916
770 262278 184910
771 831572 587301
772 512873 446429
773 737729 875306
774 721417 836266
775 902926 849237
776 445141 597387
777 508340 99698
778 517725 275456
779 809930 926571
780 956814 604205
781 103047 4067
782 856513 131474
783 102475 572328
784 795254 183148
785 349670 436822
786 842470 176987
787 625359 146424
788 460331 601177
789 827712 404508
790 71009 682179
791 277552 885171
792 176890 674336
793 277328 322726
794 981840 253088
795 393903 458262
796 700813 579869
797 453246 825456
798 342440 654584
799 961941 366449
800 986097 136551
801 47593 316908
802 765256 220746
803 571684 559969
804 420497 834003
805 822369 194999
806 293616 556842
807 532668 498552
808 903392 523177
809 550821 31057
810 789034 447890
811 610386 428805
812 197050 213118
813 389229 525562
814 411730 404612
815 574739 900361
816 180680 993709
817 582139 876010
818 388563 720710
819 352503 678337
820 770944 754151
821 771905 950782
822 464054 946012
823 847875 272007
824 382819 240128
825 436226 816878
826 242853 557329
827 791710 85736
828 955871 53884
829 734768 889246
830 832183 850974
831 207466 742159
832 63059 68218
833 423093 342833
834 92788 586655
835 650676 631384
836 140357 310692
837 594830 972155
838 205036 53057
839 637095 111314
840 257246 335344
841 790793 522484
842 572429 723764
843 692895 438520
844 930649 513921
845 452916 45729
846 627921 765847
847 27660 139560
848 613793 461212
849 355951 491898
850 740976 794818
851 634912 271505
852 982881 100882
853 26085 720369
854 984899 67945
855 392841 517351
856 123234 220847
857 436330 786453
858 223052 441618
859 714498 923499
860 454424 961881
861 986881 600889
862 845679 855858
863 996471 868852
864 327811 493948
865 946070 484666
866 68157 569150
867 718473 739895
868 212110 569945
869 86153 785975
870 500711 251276
871 724021 7150
872 59496 491034
873 58848 27032
874 920168 171802
875 143088 744941
876 133400 862003
877 545827 256310
878 726661 65762
879 553032 242986
880 888771 456139
881 634216 198924
882 567233 141564
883 793329 116083
884 161351 945296
885 727605 196020
886 521449 542696
887 780410 709483
888 828481 124878
889 55062 589368
890 129196 930709
891 315820 84825
892 605176 489930
893 850449 869233
894 1916 576908
895 946565 96026
896 408594 140857
897 58370 304691
898 729827 181325
899 226739 350013
900 662553 933969
901 971970 330800
902 42606 212378
903 429120 48575
904 256826 55896
905 405860 857428
906 63845 976123
907 296420 792745
908 47545 493359
909 140553 262542
910 411736 612003
911 889344 811337
912 282743 793635
913 224050 190649
914 500089 568032
915 280362 779906
916 868052 999165
917 183508 271767
918 866863 339696
919 788405 812431
920 442385 357090
921 728679 739374
922 165172 334562
923 206682 597256
924 858113 264735
925 80640 539178
926 681235 658707
927 69650 882646
928 65917 972804
929 147292 770838
930 345515 89424
931 260169 444395
932 613511 48770
933 128748 324471
934 810951 961858
935 586063 450288
936 635245 875818
937 181901 872558
938 930768 230636
939 741687 400096
940 727717 251245
941 43357 729251
942 222516 190938
943 519736 423656
944 385654 134737
945 143019 542391
946 528745 826547
947 226368 992097
948 721844 852861
949 557472 292613
950 403793 976045
951 855569 458017
952 537017 829395
953 495820 951984
954 436190 878711
955 362910 642260
956 587150 12554
957 627819 803123
958 560678 433622
959 218026 621413
960 326925 275887
961 766999 518337
962 558064 610017
963 594719 177228
964 338800 352506
965 376737 978783
966 794445 862975
967 37185 85456
968 664094 30802
969 101432 419393
970 630260 86113
971 205630 764240
972 807811 867131
973 775392 10408
974 268483 616350
975 397377 544616
976 514061 204966
977 915876 425010
978 181600 992593
979 420831 451561
980 165300 465017
981 850552 16797
982 248451 276796
983 436630 822910
984 204742 760687
985 27730 550270
986 165139 601676
987 224036 782309
988 761826 562032
989 602461 133053
990 428417 602125
991 756396 887239
992 187205 911719
993 128231 777648
994 614523 760388
995 648825 841184
996 826060 340744
997 391662 79989
998 920974 603954
999 540204 25501
1000 105305 213360
1001 407946 135429
1002 187933 795252
1003 788219 626822
1004 17760 4156
1005 296779 403952
1006 378070 660443
1007 802735 324115
1008 638957 509807
1009 625134 168461
1010 355822 832676
1011 282706 179240
1012 655382 814370
1013 142323 29710
1014 413742 428783
1015 994090 135004
1016 544271 598305
1017 836274 24464
1018 224055 95953
1019 84503 863090
1020 272762 618423
1021 152513 446061
1022 404566 816149
1023 558478 646819
1024 685362 577291
1025 937666 891264
1026 190211 111420
1027 31411 970301
1028 669088 809641
1029 299154 163469
1030 571196 692266
1031 542318 154670
1032 731394 678355
1033 251439 932008
1034 255877 986586
1035 765637 992137
1036 824445 47843
1037 230795 464558
1038 642464 171285
1039 147829 685080
1040 145282 332681
1041 730555 250273
1042 857586 301824
1043 592685 389601
1044 866911 157919
1045 773025 292047
1046 840076 97917
1047 97452 280624
1048 793978 104669
1049 215266 940007
1050 173684 387193
1051 498990 281
1052 432008 604984
1053 160708 939938
1054 253833 729587
1055 377615 279487
1056 942730 141235
1057 390443 279149
1058 852189 444400
1059 57218 450769
1060 884377 146769
1061 716741 315869
1062 812902 378444
1063 493147 824163
1064 615834 625811
1065 303849 702526
1066 917451 418241
1067 307465 865795
1068 389951 589320
1069 859829 578437
1070 449634 148285
1071 332383 416141
1072 273541 626255
1073 575305 524207
1074 285015 719008
1075 787476 969814
1076 488835 589455
1077 636158 471157
1078 469741 80748
1079 692816 566213
1080 215032 571387
1081 80108 675396
1082 279953 229330
1083 947104 526589
1084 867693 764187
1085 703844 327982
1086 159385 338209
1087 663293 914562
1088 657934 127286
1089 679711 341744
1090 908702 412399
1091 131346 49620
1092 410778 732461
1093 622417 242054
1094 138288 78134
1095 918691 863362
1096 721627 95642
1097 874592 121651
1098 988899 994173
1099 752848 358978
1100 968321 448018
