NAME : portgen-500-510
COMMENT : portgen N=500, seed=510
TYPE : TSP
DIMENSION : 500
EDGE_WEIGHT_TYPE : EUC_2D
NODE_COORD_SECTION
1 455457 611924
2 470896 265156
3 549700 889219
4 496342 820638
5 270608 266605
6 231070 998037
7 321353 527390
8 50782 97188
9 535415 685625
10 440477 115872
11 27676 831369
12 818062 758173
13 125997 939269
14 757254 518948
15 873947 896490
16 407946 722458
17 159226 410126
18 727834 90202
19 545034 610574
20 988719 573292
21 827094 954282
22 141642 44766
23 71528 407809
24 683932 407606
25 731049 483118
26 647993 626672
27 450843 127737
28 211705 732998
29 452698 60769
30 537322 459498
31 344185 885767
32 831918 697316
33 439511 276787
34 856395 276587
35 455862 642972
36 413255 127808
37 954575 957358
38 467878 401004
39 380526 690325
40 546467 392999
41 486571 696484
42 981626 414449
43 552305 522178
44 890539 461910
45 970615 451046
46 233806 268446
47 154712 345747
48 160037 699285
49 999707 184283
50 576887 670523
51 27283 993607
52 861138 338050
53 996547 951509
54 645046 36393
55 575431 689527
56 842458 990787
57 90154 86276
58 225691 75738
59 731055 486171
60 537278 740225
61 277080 672111
62 699699 785338
63 615688 419648
64 266670 616525
65 960811 516369
66 755957 344132
67 114893 856940
68 550540 495783
69 606329 895350
70 188757 476567
71 791122 404368
72 924631 230389
73 173966 561694
74 568747 369373
75 730058 740389
76 432615 383182
77 223471 60518
78 914565 683150
79 878713 4198
80 787510 500763
81 345179 749696
82 847635 98864
83 898404 438090
84 66155 859765
85 912310 663996
86 506990 361681
87 756113 796889
88 307610 893898
89 448640 639180
90 870772 932537
91 540934 262471
92 829014 460047
93 171189 6261
94 496496 16028
95 958535 112449
96 429627 746564
97 983039 524760
98 969576 429441
99 648254 127741
100 922778 280067
101 113054 929566
102 498601 797520
103 199454 170143
104 554167 763423
105 889328 908304
106 186654 862684
107 45662 675060
108 71135 598614
109 766656 322874
110 129288 468963
111 789835 938414
112 936986 632242
113 550942 577424
114 863080 958593
115 597434 137467
116 339731 685216
117 749852 962468
118 745883 678249
119 216809 153954
120 388912 572575
121 239605 173621
122 886740 489572
123 322614 491213
124 809578 350797
125 973818 392152
126 566360 689661
127 530306 785311
128 940336 427838
129 179714 536133
130 51636 521205
131 953333 400212
132 374511 316753
133 668699 13032
134 975944 556089
135 352446 579922
136 789036 415858
137 349056 737135
138 902602 100173
139 408107 151674
140 691905 123103
141 397709 326947
142 906956 76229
143 184133 939518
144 310704 433099
145 293768 732850
146 702304 660719
147 801508 808989
148 783538 823746
149 824565 149604
150 586969 222440
151 83106 657904
152 658891 850715
153 994442 239412
154 782704 454077
155 601178 818
156 117133 746615
157 242364 318785
158 818900 292613
159 598704 565521
160 533214 844953
161 188467 826339
162 969119 130005
163 496815 131131
164 756967 498340
165 742693 663189
166 317469 954029
167 550495 691087
168 5969 651094
169 84582 588170
170 257328 891519
171 340813 745182
172 899884 448815
173 544383 875965
174 691599 671502
175 312174 652407
176 66778 326224
177 406911 923779
178 904971 129076
179 107408 967803
180 844745 343348
181 154830 194534
182 196748 709659
183 660004 371951
184 846730 793549
185 774402 942935
186 601013 927202
187 253347 880807
188 778174 862242
189 419428 45340
190 225034 367739
191 23723 789163
192 653595 399345
193 508359 122934
194 757280 840836
195 31083 634018
196 804363 291033
197 813768 314392
198 290505 413610
199 491835 19077
200 670640 682140
201 456536 646259
202 446467 944434
203 628683 277615
204 672629 7565
205 415419 782036
206 371795 266572
207 936720 210727
208 538984 863796
209 380765 882356
210 419153 246393
211 880115 827653
212 122909 92261
213 486399 954754
214 480735 308913
215 252123 500559
216 189612 411862
217 629920 442998
218 995944 757150
219 852442 442867
220 860361 644563
221 742169 874924
222 421682 784689
223 753902 976710
224 168124 721506
225 827993 335751
226 932875 182922
227 766953 170080
228 492527 44674
229 16339 3468
230 948490 871533
231 425172 229761
232 147204 770856
233 39867 496870
234 844890 152031
235 456824 562273
236 695672 659259
237 54362 83402
238 313517 697193
239 60699 952828
240 599733 441725
241 938414 477266
242 360422 380590
243 75387 959851
244 264657 859063
245 403131 499073
246 912260 700411
247 986043 298087
248 948890 82909
249 820562 338279
250 471171 56709
251 916011 215295
252 121772 386268
253 397336 455609
254 822499 386363
255 94693 532676
256 780016 157275
257 600337 449416
258 959273 724760
259 243718 849116
260 821965 956957
261 676308 506610
262 680859 400115
263 646262 480376
264 537487 668094
265 686066 857908
266 874693 674335
267 858135 67056
268 661708 781138
269 876929 911005
270 421317 350627
271 716132 415540
272 37097 446173
273 822764 405649
274 19552 585928
275 651825 468514
276 545422 152467
277 652213 613262
278 182015 241675
279 357160 54715
280 724559 616197
281 578679 911494
282 965046 744065
283 816544 364475
284 120178 154163
285 626652 553623
286 705207 657790
287 197291 353451
288 411535 523840
289 854397 67596
290 218100 404586
291 123215 482771
292 943534 69868
293 279229 963199
294 709288 114069
295 250512 297233
296 660960 722765
297 284353 867693
298 645419 58342
299 218249 683646
300 34638 298923
301 551251 951955
302 367827 247239
303 345298 62650
304 208932 582345
305 334033 218815
306 532386 243091
307 804202 427325
308 955237 855914
309 627140 97353
310 98646 758201
311 146225 436531
312 119525 327728
313 2371 753251
314 289962 950051
315 8152 348884
316 314908 272052
317 733562 999284
318 872199 880124
319 678568 516209
320 114630 423314
321 336059 611935
322 15423 492311
323 151007 224428
324 603240 956625
325 865321 892167
326 768380 268197
327 675493 685753
328 984015 279199
329 218392 368543
330 375040 465173
331 384082 692723
332 467714 910718
333 882756 920451
334 227667 311891
335 276318 730808
336 252673 670515
337 232032 206478
338 989821 878027
339 761038 433771
340 343712 723172
341 534859 921419
342 575011 542979
343 964802 622184
344 804337 822844
345 116528 951747
346 652457 366677
347 239891 383821
348 170641 665543
349 379903 808944
350 502489 272979
351 463390 169468
352 612912 142149
353 357308 846960
354 693186 132514
355 720951 361830
356 474862 395548
357 252014 423292
358 812716 17404
359 452832 83892
360 740077 217212
361 540548 418723
362 809401 3338
363 267418 83204
364 57602 89882
365 849170 142860
366 184841 628523
367 712819 981881
368 248310 139310
369 669404 151719
370 730262 947397
371 169352 720444
372 82766 899316
373 411199 233734
374 557275 236552
375 116403 87436
376 607941 290020
377 959774 359629
378 88138 834867
379 456648 631030
380 893839 217998
381 177556 541466
382 402251 773554
383 192478 754417
384 312782 352697
385 12092 578982
386 460129 216279
387 967489 652641
388 609270 250528
389 458948 449772
390 915200 432551
391 626556 426571
392 196043 631172
393 965304 643374
394 226271 939265
395 789403 493892
396 826527 316706
397 139626 151280
398 487268 953072
399 752955 430124
400 290045 160671
401 774785 107502
402 321352 683852
403 460880 181370
404 93976 328602
405 394324 444763
406 608595 517383
407 841627 399946
408 391470 860849
409 401840 250971
410 286285 239405
411 1461 882657
412 62652 851421
413 804197 352626
414 894926 283636
415 191761 427900
416 156551 130346
417 55448 470436
418 823955 109173
419 584943 796097
420 239701 104455
421 241534 975300
422 652979 549997
423 492431 943870
424 254054 288205
425 347083 134641
426 58145 469318
427 238363 862145
428 4119 644438
429 52054 850915
430 859896 351707
431 596426 297878
432 88900 289868
433 203228 633294
434 864403 291629
435 907515 447600
436 606794 113634
437 903887 151644
438 181259 532142
439 644294 200507
440 847301 159758
441 300572 44011
442 423740 840054
443 831474 858672
444 41446 765579
445 267208 190661
446 244769 293314
447 888582 792101
448 497661 127900
449 71412 501335
450 368738 960288
451 299575 53547
452 440904 187324
453 834069 14134
454 45578 398308
455 30670 145447
456 602992 286474
457 583707 669234
458 106937 303111
459 409296 296798
460 792207 75328
461 561881 363067
462 922891 947227
463 148024 553246
464 672730 716562
465 317574 167124
466 486564 245986
467 169836 701854
468 556765 14097
469 460303 754505
470 733117 528362
471 449376 744647
472 973371 191880
473 628779 881702
474 370422 941355
475 644077 944414
476 455170 354849
477 183760 201613
478 473723 53589
479 883710 739050
480 630559 819972
481 553830 291073
482 665191 502307
483 696071 858345
484 313103 391826
485 40455 225234
486 932688 467941
487 652721 847793
488 620157 207031
489 179306 721278
490 473503 94435
491 669535 933680
492 86003 497602
493 613294 195491
494 580795 667529
495 5783 698420
496 700993 68476
497 714050 507882
498 595673 981434
499 91925 125577
500 571722 421747
