NAME : portgen-400-403
COMMENT : portgen N=400, seed=403
TYPE : TSP
DIMENSION : 400
EDGE_WEIGHT_TYPE : EUC_2D
NODE_COORD_SECTION
1 42658 850198
2 828474 692475
3 701660 475113
4 415411 993966
5 699376 3885
6 711519 664015
7 142194 769226
8 140118 685477
9 646407 823397
10 363305 236868
11 230727 22205
12 894984 642420
13 897756 95820
14 978630 247477
15 449635 222677
16 613507 418864
17 237468 180960
18 681881 129382
19 46294 402423
20 632411 162650
21 90109 640429
22 136558 895286
23 575980 435173
24 263713 307953
25 735451 467424
26 507283 106289
27 114908 227585
28 790967 623793
29 612729 647514
30 10594 572278
31 428819 12988
32 361555 536725
33 913776 71090
34 527457 246908
35 193246 704945
36 421763 338453
37 87946 895881
38 729585 124438
39 907296 667399
40 851453 273962
41 483090 331115
42 236883 877356
43 793858 600519
44 57308 700742
45 267183 610791
46 601925 799386
47 209177 927465
48 740886 751655
49 552482 240676
50 165700 451541
51 527876 596314
52 456500 461489
53 984333 176167
54 869405 237552
55 433726 190447
56 566485 911987
57 380330 399802
58 970352 629432
59 803811 434089
60 795839 162120
61 518607 286780
62 81207 741704
63 177068 825449
64 881953 626457
65 911548 553418
66 255032 669744
67 233673 661005
68 707476 571103
69 950785 837080
70 907003 164426
71 796708 623219
72 904903 105063
73 92183 315144
74 718179 467472
75 750396 915436
76 869702 926024
77 329128 612282
78 196509 858131
79 362641 795494
80 754012 413230
81 225381 32324
82 330548 269300
83 393739 943266
84 7084 275267
85 307618 655208
86 911253 336338
87 683692 880402
88 292418 592582
89 957652 468925
90 545195 318936
91 462808 86459
92 872445 498317
93 328037 222707
94 339196 964373
95 267265 764210
96 564018 675518
97 529461 251795
98 253173 460369
99 939526 24500
100 812644 499601
101 357492 249253
102 922277 431459
103 452628 783242
104 53579 830810
105 284244 973801
106 518935 398268
107 528228 989801
108 849211 549862
109 502863 78752
110 16126 933369
111 3739 982583
112 462622 808017
113 297715 661999
114 414060 252232
115 427773 509175
116 539003 126841
117 184680 571394
118 800001 64540
119 558230 882644
120 649106 778174
121 719844 260444
122 948246 333896
123 760471 581435
124 212896 721443
125 954080 591174
126 46308 687293
127 596727 303468
128 960597 230650
129 64573 350883
130 631458 388088
131 225012 170934
132 181704 506070
133 253956 258490
134 450021 194332
135 229329 267775
136 336966 781419
137 124672 424952
138 887060 316446
139 385855 159153
140 847420 67064
141 597425 63177
142 620774 39685
143 284163 368068
144 945137 678610
145 317437 541511
146 614518 363897
147 653314 381330
148 441207 938425
149 135772 523293
150 446835 444024
151 195579 53742
152 874023 887015
153 993748 983131
154 66518 557042
155 19305 592528
156 285513 385963
157 33445 89946
158 773570 861114
159 517620 800373
160 64862 315530
161 122718 926728
162 747497 785305
163 72196 283223
164 907395 237656
165 431204 903929
166 249928 828813
167 139847 254891
168 781551 211462
169 29732 530828
170 266114 423048
171 850448 144763
172 613747 1907
173 418792 687789
174 616400 868009
175 309134 157983
176 31029 898115
177 92089 542905
178 194096 366765
179 913894 619131
180 105464 782285
181 953399 535690
182 290927 596257
183 742079 140750
184 772215 31538
185 671154 85780
186 244714 649611
187 491239 906878
188 284501 224602
189 834638 204591
190 591208 705430
191 369329 288263
192 132192 648918
193 950530 714237
194 537886 543590
195 512812 640801
196 439246 998193
197 859674 180334
198 178333 200837
199 653524 706869
200 717405 194190
201 853150 411808
202 276800 603704
203 788654 742765
204 765923 443170
205 592375 479858
206 828879 370304
207 106319 464663
208 343038 955205
209 676016 110592
210 417923 541241
211 487225 65346
212 314132 476963
213 232629 832906
214 372810 887535
215 118223 541735
216 458679 391468
217 612216 111350
218 876550 999025
219 181944 667528
220 305879 995324
221 38221 427293
222 125666 971570
223 153575 373900
224 684061 382710
225 947705 345426
226 828026 765988
227 588645 175670
228 735511 461682
229 799591 165450
230 727153 789629
231 560821 98394
232 137290 597050
233 441637 401585
234 244637 134749
235 311088 969138
236 271144 293305
237 162887 72496
238 713215 721237
239 476701 138461
240 741452 770946
241 33315 207360
242 160382 328594
243 980913 360284
244 254177 15165
245 669713 474965
246 754387 47194
247 356440 336741
248 724180 744915
249 264405 53169
250 258355 432338
251 897199 545599
252 641257 176758
253 312111 620666
254 605606 260051
255 194757 375226
256 207505 784425
257 495737 252188
258 35242 513626
259 741953 800549
260 872870 696721
261 137179 191467
262 876394 878750
263 71939 725544
264 652048 986129
265 760385 92548
266 115630 216650
267 943704 366225
268 563441 248889
269 711623 908194
270 293352 467286
271 618330 453628
272 142295 972991
273 337785 562919
274 170800 477690
275 264802 998635
276 92867 278276
277 292784 165806
278 316707 680548
279 601895 275031
280 613316 63222
281 909042 697412
282 966698 727470
283 756896 753876
284 642130 522745
285 914402 472322
286 342826 264263
287 535747 874235
288 603854 858903
289 898682 710588
290 562042 391390
291 123649 377016
292 372812 697162
293 183506 418218
294 249951 216233
295 609329 809564
296 606758 188877
297 993791 821029
298 124460 354067
299 917881 268059
300 369136 478881
301 664236 460211
302 915647 873412
303 874985 715850
304 905463 595622
305 982299 898489
306 430597 385661
307 665701 803751
308 456463 720164
309 703620 145669
310 603010 402828
311 835995 374070
312 153608 435521
313 808085 882614
314 348615 662334
315 999249 888003
316 953439 303060
317 728288 663553
318 960792 737988
319 711314 569060
320 240699 463341
321 714597 104282
322 613223 206501
323 973568 232688
324 35269 558270
325 12944 241845
326 5451 255546
327 268810 481133
328 525442 361176
329 731923 252094
330 912619 136997
331 4535 336403
332 354922 518958
333 183891 326315
334 772438 459200
335 830183 223775
336 684895 145350
337 132724 361165
338 397376 580449
339 105260 672475
340 910079 446909
341 150691 96520
342 749715 862251
343 883468 617036
344 948138 209330
345 479661 634477
346 965549 252114
347 738877 16924
348 778446 569246
349 971557 252057
350 809124 393119
351 127428 362793
352 648191 566035
353 91154 908931
354 505830 406558
355 597665 908405
356 413038 522593
357 772432 278142
358 171447 752421
359 597525 337998
360 740512 614644
361 354757 520380
362 650075 437063
363 96346 322101
364 497159 566689
365 270010 488445
366 74618 698701
367 74810 1673
368 33871 628097
369 324087 471573
370 690804 131046
371 19510 610139
372 468817 865016
373 279719 445169
374 602038 301813
375 920577 456344
376 72087 404868
377 982047 320678
378 318500 428726
379 287983 646517
380 532164 463057
381 584843 34257
382 715754 466618
383 888894 802898
384 53775 907416
385 998423 726278
386 150382 295711
387 417421 284168
388 542557 949889
389 538333 329396
390 118563 667620
391 34118 850641
392 34525 806953
393 903602 40361
394 982947 608192
395 112778 230972
396 574321 416671
397 473149 964525
398 980664 723799
399 192717 184649
400 322459 329829
