NAME : portgen-1300-1306
COMMENT : portgen N=1300, seed=1306
TYPE : TSP
DIMENSION : 1300
EDGE_WEIGHT_TYPE : EUC_2D
NODE_COORD_SECTION
1 918896 213182
2 259379 936690
3 194933 895089
4 406819 989147
5 127626 875249
6 778386 230580
7 242950 345132
8 274033 702061
9 177010 240137
10 771586 496123
11 199374 794865
12 488811 591252
13 478150 550346
14 259915 89892
15 310891 909155
16 159096 298730
17 521094 357941
18 247257 546394
19 498273 261868
20 517891 48722
21 973262 466689
22 469185 698842
23 94480 73402
24 249299 793812
25 642229 497068
26 31224 432516
27 987325 581205
28 855704 620166
29 692088 901437
30 689432 648538
31 396816 144950
32 471255 78903
33 901987 311697
34 761394 544107
35 250651 200631
36 452761 383198
37 597907 274517
38 464898 766858
39 807540 907605
40 735547 857983
41 858258 358477
42 400459 662352
43 512338 14146
44 827474 442190
45 455954 935560
46 784999 954166
47 11217 317260
48 595960 590063
49 868781 194668
50 233944 327622
51 265861 341693
52 58264 784245
53 638810 672746
54 32056 324972
55 68866 841558
56 792692 249898
57 445483 753871
58 863538 442649
59 133733 153995
60 482943 311923
61 442916 566726
62 310163 923028
63 934769 111068
64 324934 813662
65 635706 792152
66 734801 482568
67 838739 893989
68 65290 608360
69 912994 646587
70 798813 69689
71 880413 673478
72 959247 144031
73 492644 218273
74 644003 88188
75 382491 484892
76 265128 55118
77 558961 441791
78 592821 783293
79 502954 164274
80 718954 30450
81 759751 385468
82 526158 999177
83 961144 119213
84 290651 301451
85 261227 645265
86 798646 45544
87 771504 998050
88 46794 387797
89 7765 868371
90 330207 151475
91 608113 160660
92 94707 605256
93 32400 349332
94 956409 839561
95 932844 946077
96 317708 611542
97 385360 153548
98 271042 834868
99 901974 961196
100 97236 104846
101 210508 775631
102 757980 231015
103 876779 104468
104 960411 953705
105 409390 243489
106 826883 663392
107 231429 772877
108 712741 148209
109 108 372610
110 728134 126276
111 217239 329454
112 204215 156380
113 434757 23014
114 287563 540489
115 121271 942325
116 427386 54059
117 458981 86718
118 324591 944720
119 929230 321829
120 892514 884191
121 349223 583799
122 111426 806568
123 728837 988254
124 407327 228979
125 718791 248027
126 547304 361485
127 839925 154910
128 677460 156448
129 316650 671262
130 906423 932058
131 175237 638581
132 61191 525198
133 894265 243084
134 551965 424861
135 44040 724487
136 740881 771129
137 653819 480106
138 578971 855753
139 489528 49304
140 478920 278308
141 706364 616301
142 634065 189212
143 767088 788804
144 992868 933782
145 192452 81507
146 392754 504369
147 277789 168026
148 143310 578093
149 929979 631320
150 227597 873083
151 498725 358023
152 750058 440482
153 541663 931003
154 727419 650713
155 387822 888655
156 163580 382867
157 478809 824915
158 539303 670868
159 360791 893164
160 381888 316171
161 313104 920645
162 197264 170956
163 225762 382858
164 21070 213336
165 938443 647968
166 128334 838815
167 661481 590264
168 114728 323496
169 137491 809150
170 649908 96219
171 428013 99703
172 551894 876280
173 768402 472108
174 307105 106833
175 942264 760451
176 557022 716643
177 692876 579628
178 744749 659909
179 696541 159793
180 325754 218166
181 793511 918269
182 804 291603
183 460642 63876
184 830972 602528
185 56513 67194
186 363762 253958
187 950900 621436
188 759149 596461
189 227769 617635
190 426207 565852
191 686317 861277
192 887582 720276
193 854456 210065
194 838010 369878
195 129622 50851
196 492523 534963
197 752636 582713
198 732456 174055
199 148803 930458
200 117131 171941
201 244339 689470
202 680625 376411
203 74134 695745
204 829061 972600
205 725171 534683
206 821899 326662
207 30170 274902
208 725642 258548
209 165632 418091
210 559146 286586
211 915073 900514
212 485397 884572
213 822855 674292
214 573332 574488
215 547301 63403
216 767400 255169
217 892463 891523
218 743953 359654
219 831106 612679
220 994633 595908
221 44432 419919
222 810732 843035
223 135778 592009
224 49565 868064
225 759858 58163
226 600722 574314
227 383156 53727
228 404540 989170
229 797006 789102
230 632458 714480
231 864639 216381
232 977966 129263
233 490251 401979
234 515930 187135
235 139124 133633
236 208982 297568
237 658232 500982
238 685864 340758
239 517357 431669
240 480031 833684
241 877285 784230
242 942030 832821
243 198764 551019
244 277202 763199
245 401272 341973
246 843724 643971
247 473555 861000
248 386925 746864
249 761686 309749
250 157171 795020
251 74651 617896
252 388032 926174
253 180878 816492
254 632284 550335
255 854963 853521
256 711968 33806
257 387830 290484
258 870755 220668
259 742825 116965
260 742337 743387
261 640293 206180
262 29963 344103
263 58981 591086
264 909535 732058
265 320104 869371
266 708473 967022
267 576705 626510
268 121715 843478
269 396399 651545
270 962065 978096
271 808193 160237
272 20862 657884
273 701679 637543
274 614007 129452
275 802018 795839
276 837328 29627
277 989645 287799
278 86546 107628
279 41190 761522
280 804458 337399
281 420092 980738
282 588269 876867
283 45328 551731
284 12944 729945
285 588804 233212
286 606660 613373
287 314947 946497
288 906059 610666
289 216535 742163
290 257556 951353
291 549896 148013
292 927600 982705
293 449278 727734
294 378753 699838
295 581181 569984
296 830534 666454
297 62740 728852
298 371436 194819
299 845289 74364
300 751825 91013
301 421007 871844
302 871895 850665
303 245943 689315
304 102027 6940
305 838520 358811
306 728875 341351
307 180340 234473
308 506864 753638
309 917997 859416
310 505431 850508
311 706441 938579
312 978120 497791
313 812204 734816
314 741478 464281
315 700554 216744
316 508638 209595
317 903642 898744
318 222477 208544
319 967672 693126
320 475840 695640
321 809737 519336
322 194407 730672
323 863543 891954
324 688333 564949
325 916648 636620
326 453341 381008
327 373810 535081
328 582375 211412
329 968201 973150
330 628187 37398
331 721642 408900
332 531100 142880
333 549074 209538
334 146943 449667
335 370930 614910
336 65304 353048
337 942768 868810
338 397167 325432
339 564769 443038
340 915415 600791
341 766614 768327
342 836093 663155
343 495101 99737
344 678494 760761
345 349670 12939
346 61600 518004
347 322196 860929
348 630335 456689
349 576568 325596
350 333505 538110
351 327185 245295
352 649533 315856
353 870005 685013
354 544914 710655
355 39979 482637
356 532917 207439
357 623480 615248
358 975798 203637
359 86704 670170
360 512545 92385
361 632969 821347
362 116162 832819
363 287724 820009
364 703514 626911
365 998805 712154
366 780518 854114
367 403058 432778
368 67874 559174
369 144847 220845
370 687357 291463
371 13033 8324
372 248216 257284
373 379969 240253
374 401842 489377
375 573205 810325
376 753174 949656
377 326791 621350
378 757592 473071
379 842236 216754
380 247982 310830
381 540165 324069
382 23298 748515
383 469603 524592
384 959223 366196
385 235278 735544
386 801795 597327
387 96964 702219
388 339210 683312
389 494555 494811
390 75227 814653
391 977772 486759
392 378929 687974
393 171988 456449
394 830816 654542
395 963175 543281
396 599951 778651
397 985567 951812
398 489668 415706
399 911360 545996
400 918073 696657
401 745697 907030
402 414150 758552
403 832552 266415
404 570727 638816
405 449362 301142
406 642255 187693
407 253579 704701
408 710879 761514
409 338501 71485
410 258847 53896
411 613232 413227
412 448122 538621
413 989846 894764
414 183177 338412
415 869666 72795
416 112585 855738
417 45448 774084
418 172398 790079
419 233180 674228
420 977094 410473
421 117947 759330
422 395695 909279
423 930048 186724
424 330528 446946
425 961965 594904
426 232529 572947
427 676329 845277
428 584072 889959
429 861582 640065
430 586153 42473
431 33235 896499
432 661722 38888
433 183195 882924
434 791998 344300
435 774652 524155
436 430985 891555
437 109520 663942
438 821366 40285
439 736897 602844
440 954548 99887
441 33182 543111
442 752258 827193
443 39560 216086
444 194016 6559
445 590888 289473
446 998081 888879
447 899575 452938
448 979487 226391
449 649810 731752
450 87912 889762
451 449826 727683
452 492397 862077
453 561722 689418
454 820688 849136
455 805717 367986
456 695942 855022
457 49177 296680
458 44392 144355
459 996923 208783
460 59401 956804
461 233114 60245
462 256388 884890
463 74328 703302
464 399158 247442
465 102220 131948
466 219597 887760
467 797126 586562
468 403944 178160
469 493933 455578
470 782801 895204
471 219162 985232
472 947158 634084
473 56358 937836
474 632491 14685
475 378609 276185
476 827232 402367
477 629532 955963
478 670165 562066
479 930557 905834
480 458132 383561
481 195484 365110
482 66335 910513
483 148823 710710
484 907863 415093
485 240321 106556
486 511863 982238
487 830173 783215
488 129571 830747
489 430713 300424
490 214724 512262
491 772745 493324
492 789309 718658
493 936463 854486
494 821425 886613
495 437739 693234
496 270296 78840
497 215256 676244
498 383340 236924
499 155059 163943
500 504512 225611
501 507122 332067
502 799960 866347
503 503440 333908
504 613057 910873
505 19500 815678
506 740640 43943
507 468095 764898
508 113265 116644
509 149853 390090
510 527172 911899
511 555650 743920
512 910580 14710
513 599433 179796
514 182277 963826
515 279774 795663
516 217689 519839
517 280923 399046
518 771622 728801
519 25228 24411
520 605393 819819
521 704633 431334
522 359441 525839
523 137583 526376
524 168259 200546
525 76811 203544
526 54646 191232
527 884168 708849
528 7922 987282
529 51143 400914
530 94724 774638
531 308679 588646
532 305479 199681
533 111045 309305
534 684502 942255
535 627314 586888
536 948384 949307
537 313278 323627
538 857252 364418
539 859751 201731
540 6787 612150
541 128652 781363
542 869101 505135
543 486983 629043
544 214360 81242
545 288000 462316
546 44299 82973
547 397097 18505
548 871434 755326
549 118056 35813
550 668587 773165
551 666624 966527
552 193758 464661
553 74892 273282
554 322130 379032
555 221865 378878
556 772922 969900
557 112913 632408
558 730339 225706
559 191548 286974
560 328246 355719
561 191249 648688
562 273668 854148
563 920263 981856
564 755548 848617
565 248735 583969
566 42287 480719
567 979866 627909
568 839227 158751
569 668449 236693
570 774796 261277
571 437494 927386
572 752995 932281
573 271066 395610
574 809304 542948
575 98241 889577
576 999777 269439
577 787078 84617
578 730878 185905
579 986661 565849
580 625433 916140
581 604833 85437
582 604235 960588
583 941384 845536
584 216905 180632
585 361342 334728
586 416401 648600
587 188732 438669
588 355941 921810
589 861610 189051
590 123270 734358
591 995195 189699
592 223183 332594
593 979136 956849
594 876483 19278
595 686524 993691
596 941846 487817
597 875350 440068
598 844875 788894
599 738653 314326
600 576339 349255
601 534000 620253
602 419678 363883
603 894381 810078
604 46256 454483
605 105480 774028
606 309422 967383
607 879324 631742
608 974294 117015
609 210086 164167
610 115712 152490
611 106883 902579
612 604293 12086
613 800728 796148
614 228921 824849
615 544287 545863
616 875554 407127
617 83570 349241
618 424935 27812
619 310374 591440
620 358300 862120
621 746762 712315
622 903565 534034
623 886808 39267
624 883524 863264
625 639340 48726
626 559972 913803
627 770038 30476
628 473701 126872
629 536682 70437
630 938947 866569
631 499704 454815
632 96182 243360
633 27266 597106
634 63817 345290
635 744934 935026
636 233491 346822
637 524827 66985
638 592517 193079
639 132540 573817
640 538384 673855
641 259465 158483
642 885901 677718
643 46159 420738
644 310945 840210
645 321975 827829
646 963994 965083
647 846506 423274
648 628629 399940
649 187488 836579
650 941517 693729
651 906726 309707
652 324879 965484
653 789261 401489
654 27902 92319
655 984316 52962
656 815927 696472
657 748462 111117
658 902574 534620
659 608309 672908
660 614730 627325
661 409617 227238
662 403773 51205
663 28300 923784
664 21942 559342
665 277724 191027
666 165177 40221
667 589500 485422
668 857927 562993
669 410021 774783
670 775143 511538
671 812429 638037
672 225479 694649
673 418211 736756
674 561310 795300
675 394974 704844
676 377998 628145
677 558854 750489
678 528551 866505
679 720206 839457
680 107557 226268
681 991468 253118
682 317176 472777
683 240533 177890
684 470992 53813
685 692906 165818
686 973309 813008
687 277934 909885
688 249327 781472
689 668383 653284
690 522653 161795
691 203577 182484
692 451785 51456
693 199559 912058
694 723045 116722
695 244889 680036
696 92000 356208
697 81877 609324
698 538229 999420
699 360103 315593
700 445322 636739
701 68373 908026
702 272647 233179
703 501267 195513
704 176360 507398
705 550929 616493
706 143460 603484
707 594568 427520
708 134267 635259
709 171240 707851
710 934548 241112
711 817787 155399
712 608490 56167
713 97444 65283
714 540360 44755
715 408618 53813
716 605112 160984
717 102354 906160
718 18335 600092
719 587916 24265
720 917188 564299
721 740818 15193
722 182173 3776
723 862249 936600
724 747717 25710
725 511880 472946
726 459060 315348
727 906975 391508
728 31627 907388
729 805671 366487
730 214843 901174
731 607597 152095
732 590209 986629
733 875674 128266
734 421310 590791
735 565270 197666
736 887542 145530
737 195971 461602
738 782051 502439
739 248424 216982
740 24539 190056
741 259611 173873
742 829911 507443
743 446215 453017
744 570775 115725
745 30485 890068
746 178782 997124
747 458994 719521
748 676757 595287
749 819222 720571
750 221725 359810
751 688176 530734
752 1170 321823
753 213334 285187
754 485436 399531
755 945292 578610
756 336613 689946
757 336002 324775
758 722392 610473
759 693100 870687
760 309872 280386
761 309043 700739
762 369066 205460
763 509490 356807
764 144359 874147
765 248268 496864
766 17002 848892
767 271689 445929
768 853442 569665
769 837870 505135
770 785051 835742
771 759916 700087
772 805853 750098
773 581025 478042
774 628057 253533
775 210031 319949
776 450928 945075
777 472303 724860
778 342807 839284
779 259045 555240
780 468381 643669
781 447316 980301
782 614480 109550
783 818693 636526
784 884093 585903
785 743749 244350
786 982415 439567
787 660655 989922
788 829458 363968
789 228436 644206
790 862653 670206
791 97762 589119
792 405766 604598
793 49548 36701
794 234412 162139
795 627236 216916
796 685572 251967
797 761386 540700
798 853327 320349
799 39431 815930
800 920639 217056
801 249605 983851
802 390880 539825
803 222187 861808
804 539308 867704
805 675311 306106
806 604871 96906
807 928004 251464
808 958097 195348
809 218914 73779
810 256223 498344
811 597094 68162
812 665264 526692
813 994744 998563
814 48686 120830
815 767735 967649
816 824659 360732
817 968894 556547
818 65334 855
819 661115 154301
820 646501 854199
821 817786 160633
822 905916 128892
823 619821 617409
824 586703 234693
825 545956 854763
826 271662 918601
827 48194 952989
828 392397 888873
829 14957 834333
830 474491 221331
831 200693 385007
832 221202 821111
833 488319 444238
834 190990 799112
835 631643 340688
836 608645 984221
837 527822 401459
838 226681 678493
839 19968 712274
840 134295 105870
841 983606 214353
842 646339 546404
843 766956 439651
844 139529 147782
845 68227 621096
846 809865 862002
847 522658 305813
848 245553 833564
849 632810 504456
850 902210 941328
851 597440 874428
852 100397 440086
853 871157 57309
854 272262 501789
855 186033 952745
856 749344 867174
857 766105 853394
858 411465 338690
859 862349 915389
860 575557 654755
861 811427 686533
862 896901 690314
863 743247 734217
864 883823 87736
865 530302 169372
866 406230 518179
867 526240 181549
868 356525 116432
869 448247 792944
870 134939 428265
871 577302 224140
872 572224 413472
873 809668 123332
874 965101 832343
875 562565 511336
876 949740 545074
877 974154 732837
878 535097 79261
879 348187 918848
880 83560 754724
881 609061 479318
882 366849 757767
883 375443 525204
884 294949 352633
885 43725 288132
886 373589 30005
887 352823 64221
888 705014 266353
889 712378 164064
890 155216 663986
891 386029 964975
892 4175 775577
893 560311 926912
894 151329 768473
895 806106 831320
896 821483 95614
897 749218 846806
898 54675 547296
899 871316 508003
900 708457 543315
901 410953 801036
902 677126 898579
903 125306 984764
904 540898 198576
905 172526 608184
906 927931 579714
907 112742 252239
908 933241 513447
909 730099 520043
910 703092 828146
911 653887 786945
912 644175 500410
913 877178 572552
914 352878 454244
915 938914 720249
916 725455 513801
917 991537 547031
918 736054 806315
919 852233 751935
920 842336 46863
921 196813 631286
922 65380 977959
923 177432 34537
924 451438 248807
925 969627 482122
926 194417 417072
927 569088 988208
928 817859 897151
929 809499 130094
930 162524 318991
931 132531 788962
932 356240 125663
933 411371 296645
934 514333 134782
935 74807 898704
936 62009 481292
937 550415 220969
938 633728 236815
939 217856 655967
940 682550 980027
941 763053 222783
942 291719 619922
943 587717 936492
944 157561 865874
945 135660 439409
946 291981 717450
947 677128 943632
948 984854 715520
949 80871 844411
950 344230 940617
951 816680 795471
952 566256 989600
953 719069 971634
954 125352 949166
955 400490 881367
956 739590 943625
957 994434 723114
958 27010 415080
959 111833 412608
960 140808 695851
961 215774 669922
962 790552 134189
963 82023 266537
964 915035 560814
965 501899 662094
966 111462 268690
967 255476 801183
968 240436 819427
969 228348 568605
970 592911 172637
971 824658 744952
972 725065 439809
973 223635 622058
974 926898 542939
975 861608 718316
976 800484 520056
977 342511 682135
978 829154 547989
979 539994 765072
980 749164 899641
981 743285 556747
982 356254 227853
983 56708 994638
984 218559 554625
985 499479 404952
986 488182 568894
987 551000 422491
988 895366 695717
989 327410 108416
990 305034 534033
991 726542 149963
992 811649 602258
993 918809 554715
994 912436 27623
995 744475 245797
996 600868 673723
997 69126 187959
998 684454 255764
999 193952 302573
1000 544442 527917
1001 294647 818481
1002 237904 327574
1003 991774 650521
1004 708406 740253
1005 763326 274439
1006 635553 512371
1007 20597 503367
1008 298773 69562
1009 487621 168294
1010 543399 800944
1011 800686 915986
1012 10182 971561
1013 110304 669701
1014 330989 223425
1015 430717 244844
1016 987310 587157
1017 345090 30594
1018 898480 214170
1019 129365 308282
1020 303484 849247
1021 67093 744141
1022 484224 943530
1023 445111 684881
1024 663540 97564
1025 77655 14752
1026 924774 970527
1027 871855 299598
1028 540607 707490
1029 473391 207309
1030 429094 777603
1031 521156 400124
1032 436769 914079
1033 207346 891411
1034 28147 77067
1035 58256 613891
1036 406022 390057
1037 90639 528646
1038 876170 830159
1039 44130 710584
1040 430954 402814
1041 196310 123680
1042 794330 653114
1043 723687 587186
1044 150388 431010
1045 823248 7068
1046 186023 52298
1047 250026 689592
1048 443224 677036
1049 653502 955577
1050 67360 614951
1051 640750 952955
1052 666610 674840
1053 818442 801094
1054 176196 218740
1055 575910 953420
1056 557101 42380
1057 384061 422025
1058 591580 468858
1059 150098 747176
1060 470854 530309
1061 237909 72569
1062 9706 443304
1063 973140 453066
1064 723446 415798
1065 710203 75075
1066 653962 825389
1067 134673 477533
1068 845712 153930
1069 739618 372304
1070 61534 254829
1071 437087 403212
1072 960156 292938
1073 769159 113453
1074 42591 806721
1075 716451 990158
1076 953589 237703
1077 245374 992284
1078 960988 815360
1079 818282 189076
1080 829127 664512
1081 61475 803891
1082 157206 321081
1083 516333 153889
1084 82223 91123
1085 652866 478126
1086 426267 343377
1087 30724 480696
1088 576720 205
1089 827195 17422
1090 482315 157779
1091 634784 534370
1092 586671 45691
1093 13600 850071
1094 668183 813591
1095 961200 691823
1096 71706 648495
1097 719438 583407
1098 828561 93710
1099 372487 479460
1100 716217 768953
1101 286257 25168
1102 324405 558671
1103 355374 419219
1104 651032 199682
1105 978684 110917
1106 147177 4690
1107 227876 137304
1108 592805 412980
1109 84453 573798
1110 492520 422623
1111 781402 602763
1112 374905 883912
1113 191868 401098
1114 18971 472052
1115 125322 157500
1116 349173 627512
1117 38738 371398
1118 10602 630094
1119 306493 449366
1120 452885 600619
1121 765617 94385
1122 321071 538576
1123 910421 468942
1124 273589 835525
1125 391539 427462
1126 74738 900434
1127 354138 558717
1128 419780 658744
1129 986430 953007
1130 548069 725280
1131 112726 201666
1132 746796 378064
1133 345299 52791
1134 683618 689299
1135 226883 123863
1136 139390 248927
1137 182259 65057
1138 347884 880967
1139 248625 816188
1140 464131 533123
1141 414668 65964
1142 923983 400042
1143 44774 147506
1144 880715 660673
1145 26098 957810
1146 946475 617193
1147 222482 329022
1148 461228 516689
1149 912126 256014
1150 190692 29453
1151 220316 457401
1152 371394 858415
1153 12794 8774
1154 976451 954095
1155 513942 272274
1156 778029 325756
1157 926908 590258
1158 778804 495532
1159 979183 417774
1160 916835 828610
1161 140665 427603
1162 498607 197429
1163 903546 681988
1164 877533 323843
1165 52262 339110
1166 904515 294529
1167 302245 191857
1168 755094 88911
1169 139055 333725
1170 621237 549242
1171 168323 462941
1172 743837 197488
1173 817145 518871
1174 118586 25053
1175 425476 779239
1176 639156 588282
1177 203752 851581
1178 124938 925787
1179 155155 179536
1180 103320 923883
1181 869718 642725
1182 332858 964700
1183 103950 315087
1184 581919 729420
1185 773112 259933
1186 376946 954129
1187 992297 137595
1188 189453 552382
1189 223851 647025
1190 72491 977759
1191 526832 697997
1192 220523 128379
1193 469392 261789
1194 961671 337545
1195 87907 440007
1196 506992 409635
1197 560612 361304
1198 172295 214193
1199 470643 606241
1200 8034 264762
1201 295019 471560
1202 952561 447717
1203 252407 941159
1204 367759 75373
1205 382189 863148
1206 964115 817610
1207 91629 663313
1208 416890 460083
1209 82113 971554
1210 792404 889756
1211 844443 975677
1212 721386 508349
1213 964913 905385
1214 1568 544580
1215 885188 248294
1216 184623 148478
1217 264835 209343
1218 13643 709222
1219 606367 557210
1220 711488 9309
1221 179676 990117
1222 545141 198150
1223 595563 531315
1224 688249 52263
1225 396391 266910
1226 212625 926063
1227 721052 759739
1228 80139 146541
1229 206725 743218
1230 434073 543184
1231 334791 810549
1232 363884 372880
1233 683471 973998
1234 272468 893479
1235 67749 885575
1236 771834 29849
1237 575162 525493
1238 677131 918380
1239 254624 961646
1240 428210 818372
1241 698660 258349
1242 110506 342004
1243 913503 374074
1244 784593 891954
1245 525872 39645
1246 436753 712888
1247 489460 825912
1248 237475 149826
1249 414954 19647
1250 521018 677183
1251 276690 726602
1252 624053 578018
1253 568249 954275
1254 815556 379048
1255 846235 706065
1256 361947 314770
1257 217346 394428
1258 106430 621902
1259 321088 537972
1260 135405 533644
1261 559043 252821
1262 372460 390566
1263 608884 45231
1264 405796 997144
1265 957244 722855
1266 102823 875575
1267 115410 722144
1268 456424 383889
1269 41003 716077
1270 235574 291600
1271 52985 246621
1272 756549 992227
1273 480601 183932
1274 340428 98894
1275 217027 192243
1276 744029 417810
1277 62403 798163
1278 574359 401115
1279 611191 901908
1280 121594 184359
1281 913272 99478
1282 143474 554635
1283 653079 115325
1284 558221 225118
1285 913827 922497
1286 281474 222194
1287 320944 943162
1288 789614 141233
1289 190417 574297
1290 816206 207769
1291 434039 503888
1292 875549 772884
1293 809582 3344
1294 732101 560775
1295 69065 341098
1296 825668 815884
1297 802250 313076
1298 10126 830791
1299 925677 813386
1300 202613 339367
