NAME : portgen-300-307
COMMENT : portgen N=300, seed=307
TYPE : TSP
DIMENSION : 300
EDGE_WEIGHT_TYPE : EUC_2D
NODE_COORD_SECTION
1 700333 662106
2 467049 636612
3 679119 383953
4 436258 682186
5 158831 814903
6 936968 560592
7 523509 173116
8 640832 783382
9 493652 274110
10 705282 794024
11 104492 6507
12 552783 893707
13 739707 77399
14 616500 686158
15 517541 618135
16 246534 454891
17 17946 564138
18 724765 360796
19 187612 580156
20 518340 467121
21 690571 442953
22 795547 228463
23 869694 450378
24 989498 50320
25 449680 88857
26 119355 134730
27 673323 831187
28 235912 245442
29 644160 902910
30 911847 318323
31 196340 856101
32 163846 691710
33 124332 494015
34 765045 295046
35 303422 190453
36 793883 443331
37 824429 616425
38 674668 969762
39 333184 721596
40 657795 494265
41 433239 713589
42 774310 199217
43 421794 390432
44 291045 326236
45 439806 230749
46 595751 892566
47 276734 327886
48 673237 247240
49 618523 179122
50 553794 899931
51 117193 267901
52 392525 955415
53 655618 405766
54 360419 474105
55 409392 845479
56 954396 317923
57 463104 681097
58 722572 303774
59 579367 835960
60 18472 877091
61 875491 585922
62 741251 403490
63 73260 525981
64 50806 869014
65 960806 268902
66 609343 859079
67 312204 812316
68 539868 115315
69 250484 93212
70 476645 118019
71 811065 455085
72 307763 562714
73 355257 9828
74 151314 873243
75 254626 147255
76 196434 749509
77 218315 284892
78 290588 258114
79 955697 580208
80 415546 540303
81 155282 267206
82 997459 291372
83 34414 499311
84 10160 900390
85 325839 712743
86 152460 706123
87 581334 871217
88 680657 125981
89 367607 456359
90 112901 815145
91 570284 470597
92 453467 420503
93 113619 342136
94 861619 20831
95 777901 40557
96 105154 350094
97 767372 763901
98 965559 104941
99 873751 436546
100 882056 229275
101 642221 694954
102 760342 439480
103 576971 725836
104 296042 797811
105 171272 948452
106 396495 934866
107 802307 374989
108 435148 805188
109 499833 233558
110 325813 929472
111 625560 573613
112 18333 96563
113 70521 457505
114 945781 141853
115 294245 954820
116 829939 569795
117 285087 164449
118 418650 635417
119 668290 78478
120 985355 308431
121 842302 628061
122 695017 848429
123 414996 531541
124 331760 670808
125 693380 508053
126 159159 731897
127 142300 927235
128 399336 72426
129 409867 595892
130 20830 941553
131 57546 217563
132 812456 862840
133 106149 768434
134 239848 953877
135 959992 903607
136 473427 829024
137 540178 817760
138 770312 893662
139 431312 91097
140 697227 998095
141 47638 349888
142 121023 352692
143 897274 612376
144 757338 422246
145 58300 650215
146 395569 714412
147 118486 81748
148 835004 13278
149 87883 877257
150 78116 521333
151 100228 240662
152 973581 695284
153 460415 809271
154 610874 789608
155 29961 786960
156 315087 987621
157 537592 370614
158 545983 343134
159 99077 730708
160 27836 92871
161 680550 362590
162 875761 438658
163 803378 232764
164 855443 844893
165 357345 961041
166 282788 641703
167 61135 910267
168 683007 60017
169 812295 750408
170 806708 554139
171 513299 26630
172 394409 965428
173 969664 32978
174 838650 679828
175 278369 602239
176 157834 242989
177 519912 117074
178 238545 458524
179 179526 63313
180 12277 400398
181 996975 860465
182 982900 475821
183 273661 288457
184 593211 572164
185 400949 513005
186 504483 419248
187 452338 425596
188 935036 437561
189 842678 758687
190 200112 344853
191 53237 792129
192 832615 956947
193 964066 422322
194 658803 585314
195 636606 394549
196 466805 240131
197 349458 293702
198 49656 94050
199 574291 968813
200 30391 532103
201 190300 79963
202 479715 933515
203 549002 365704
204 410373 562965
205 153008 816222
206 799721 594212
207 426707 617727
208 933592 756843
209 511007 689197
210 426165 179610
211 714165 624398
212 541772 868845
213 322705 424520
214 939532 518822
215 876594 569331
216 27187 279712
217 605678 383889
218 545132 459024
219 365422 214888
220 23354 207222
221 911315 969605
222 159148 456995
223 680384 842407
224 698359 480612
225 970997 625135
226 154517 55469
227 92218 461060
228 504916 910587
229 474284 95825
230 388383 89977
231 282 195485
232 539611 945785
233 904907 830115
234 435064 969711
235 937343 91185
236 58483 30394
237 718199 801029
238 25092 658696
239 532179 80711
240 363929 412117
241 950235 843706
242 130439 786616
243 569048 831701
244 740101 659893
245 478982 715017
246 23959 395710
247 277544 932169
248 148738 880921
249 251405 358118
250 431902 21687
251 310227 617647
252 116683 558880
253 674900 310810
254 925029 305602
255 892011 673215
256 170485 814391
257 616843 673365
258 66018 604572
259 917940 607441
260 797046 23986
261 578709 76946
262 537809 915656
263 780957 440836
264 913710 159319
265 126129 714281
266 733667 226577
267 188700 690714
268 241631 135843
269 226863 457073
270 720598 964476
271 913760 132659
272 862846 454996
273 136307 947013
274 857901 361888
275 151211 707902
276 967210 92086
277 231988 717620
278 288020 83650
279 428946 425969
280 317248 539057
281 83947 467955
282 585003 927534
283 759454 37826
284 951545 161847
285 537057 119005
286 746671 556052
287 456230 89144
288 56776 486623
289 844957 820188
290 627635 697307
291 11889 487741
292 842071 587071
293 630334 265711
294 641573 261166
295 931259 203805
296 184297 65015
297 920016 601593
298 217804 357708
299 676429 773701
300 398219 649684
