NAME : portgen-1000-1004
COMMENT : portgen N=1000, seed=1004
TYPE : TSP
DIMENSION : 1000
EDGE_WEIGHT_TYPE : EUC_2D
NODE_COORD_SECTION
1 529501 100645
2 726563 656786
3 894857 483314
4 430733 216672
5 739662 759909
6 779279 717731
7 400836 532370
8 161694 801720
9 508968 12169
10 264055 248841
11 239760 828815
12 995637 423426
13 460122 263229
14 370715 865740
15 524513 7365
16 150494 974566
17 59682 856
18 444662 86884
19 380336 758488
20 867376 506536
21 799716 907962
22 146424 538628
23 789290 225400
24 240831 858342
25 972409 368660
26 727536 1153
27 160669 750869
28 88760 554934
29 40963 725707
30 212124 807973
31 102978 672245
32 349296 233125
33 960193 871317
34 571307 862208
35 743080 936293
36 560888 650626
37 39759 895394
38 521305 238606
39 668145 244768
40 334665 905187
41 222266 645007
42 653615 716540
43 904386 478249
44 625270 826556
45 40662 573345
46 515577 518127
47 15407 931083
48 945648 149089
49 868202 251029
50 17322 550683
51 557255 996063
52 523676 67221
53 146394 82528
54 347537 444129
55 846482 610511
56 929664 214406
57 685044 638779
58 292395 584851
59 656837 418212
60 287477 811103
61 3114 320277
62 844886 192397
63 379037 564825
64 126949 972537
65 749000 438777
66 891069 224015
67 398285 724154
68 975523 7859
69 959963 14836
70 424144 319534
71 821411 207057
72 539078 229559
73 570231 195300
74 673240 823009
75 552045 380822
76 22140 895665
77 502029 578544
78 659613 333239
79 597777 799521
80 91698 138534
81 122564 332700
82 19985 526948
83 789100 722606
84 675327 455485
85 68547 97095
86 911611 833827
87 866167 906655
88 788963 107448
89 818247 266342
90 532783 45798
91 967047 327428
92 880839 610466
93 316212 558368
94 204030 871336
95 935054 252916
96 332532 504478
97 946288 327048
98 407923 987583
99 340889 632423
100 440595 462782
101 377052 406898
102 290226 506246
103 413774 694712
104 14826 891563
105 262331 101245
106 129208 726440
107 864467 838781
108 806001 618086
109 386412 692936
110 119024 801516
111 381716 42904
112 14889 605765
113 720043 504712
114 543601 359920
115 492881 94251
116 92622 926684
117 4010 431538
118 916589 240607
119 462960 42058
120 804464 698126
121 171956 511093
122 752312 133537
123 871200 289628
124 489588 340523
125 607005 903210
126 443981 980969
127 139542 346344
128 370159 450367
129 402888 858688
130 589657 173167
131 231751 972768
132 87099 564205
133 929289 618115
134 974128 730930
135 967581 516373
136 128498 45888
137 85931 215813
138 357535 400747
139 903361 668545
140 235605 269675
141 101824 684913
142 770263 319713
143 862499 119854
144 839585 439804
145 502248 298474
146 266478 732030
147 74476 288090
148 569628 126067
149 425161 536498
150 776002 470452
151 386266 821043
152 104917 337329
153 801386 759068
154 210706 819828
155 483844 250305
156 610782 963083
157 356439 291183
158 906688 499721
159 898291 799008
160 994577 803222
161 192953 437630
162 954927 497128
163 130106 307454
164 940971 748602
165 414427 598466
166 190041 83532
167 184700 985300
168 658892 138741
169 328473 479080
170 413025 362778
171 221563 40576
172 445227 699026
173 105520 828848
174 777102 577348
175 157983 262173
176 185095 676559
177 122070 177535
178 280411 302734
179 636342 119616
180 678437 662645
181 430594 731626
182 406803 121066
183 28741 570206
184 517855 657413
185 185662 77840
186 722619 320942
187 641024 732403
188 618126 516393
189 315559 777392
190 216717 827372
191 671111 821354
192 70165 751782
193 167872 458415
194 676728 63633
195 956558 88686
196 620885 671060
197 293417 335184
198 640158 900620
199 399551 712823
200 80899 589127
201 513288 999709
202 360631 330611
203 591061 363741
204 606394 370288
205 9663 821995
206 626005 572708
207 163057 589750
208 41759 759534
209 438208 71619
210 480908 128121
211 170654 805031
212 576513 596534
213 564551 722910
214 960311 310413
215 141342 254384
216 909998 945271
217 767729 394721
218 201366 98403
219 658296 480414
220 710022 408337
221 20206 605109
222 582725 828437
223 918031 815853
224 94546 696882
225 770633 917248
226 940308 89138
227 571481 826515
228 679128 568017
229 231979 965909
230 129244 492658
231 705444 125980
232 660265 601325
233 801789 20895
234 989983 334620
235 671718 225906
236 664988 741325
237 300985 563659
238 187813 81516
239 233550 749998
240 917406 996533
241 490930 994402
242 181169 648683
243 548940 784018
244 285006 166404
245 592932 180471
246 108419 323676
247 808695 484116
248 743349 278881
249 304124 19066
250 640623 836515
251 582303 344547
252 779476 774099
253 426318 945906
254 907969 922798
255 277574 895110
256 283011 65575
257 372977 948773
258 384238 381768
259 317285 176148
260 857975 522907
261 716771 970916
262 693996 835203
263 643603 320440
264 961848 526886
265 137341 241907
266 173547 310752
267 472424 22295
268 713522 425354
269 621424 232396
270 264444 167172
271 466733 108857
272 308429 70024
273 463699 137503
274 629679 973491
275 840513 422909
276 317032 777237
277 881725 398716
278 662968 271551
279 872123 757181
280 60577 963
281 324481 675573
282 658353 110402
283 428377 174154
284 757146 302953
285 485073 246735
286 752089 343793
287 335635 435065
288 205875 939533
289 89191 295280
290 172235 372052
291 448316 204667
292 466309 136377
293 917425 497974
294 652398 362021
295 593917 539368
296 668208 318471
297 747322 17709
298 415083 122940
299 773221 873363
300 864148 524165
301 48311 334399
302 801256 468461
303 974593 112364
304 310928 745347
305 481290 164994
306 619152 510101
307 163263 521209
308 332755 6009
309 928250 640643
310 695319 305437
311 400932 883782
312 438804 960907
313 198423 417689
314 542536 867174
315 460472 93510
316 628605 343843
317 813989 7241
318 752899 938214
319 41404 945100
320 803622 911416
321 569723 11754
322 666702 288480
323 138435 784426
324 879667 786414
325 819285 997393
326 580403 906047
327 412891 770638
328 895560 704467
329 520409 794015
330 715561 36378
331 70960 365828
332 941725 569874
333 595270 607397
334 843399 874782
335 382773 548329
336 126341 141835
337 821358 697926
338 725033 494884
339 470891 668165
340 65347 493956
341 897280 748520
342 151612 424093
343 22550 262776
344 402118 244114
345 411970 145502
346 94815 166621
347 562326 255293
348 785074 427887
349 190396 968776
350 563446 643550
351 313534 211501
352 721067 325329
353 100112 831882
354 754434 988797
355 748087 632783
356 302348 276295
357 382044 570058
358 941563 904338
359 803501 686431
360 784800 167382
361 417000 874622
362 311336 739222
363 234794 914839
364 420768 496029
365 597813 893150
366 740450 482093
367 920078 432564
368 191607 620984
369 366475 581553
370 482529 118212
371 459275 715686
372 459314 244587
373 728501 220192
374 855285 823104
375 20499 870234
376 7118 694367
377 370963 670295
378 903100 831441
379 291423 288502
380 133721 479128
381 465406 172880
382 506267 629874
383 173508 586661
384 816980 137456
385 841557 721371
386 49052 980396
387 665932 914565
388 160263 722633
389 503659 641040
390 836121 403353
391 623416 132265
392 362307 118685
393 427744 567569
394 975825 290204
395 259056 604945
396 804004 229019
397 739996 761158
398 69159 478878
399 49754 544748
400 84324 5868
401 716532 214245
402 986983 617145
403 246817 874852
404 332060 252278
405 242551 335531
406 855615 1219
407 29446 528776
408 675123 236387
409 432884 745109
410 560714 694629
411 536907 272232
412 53132 835688
413 4839 834807
414 993413 48786
415 667748 285410
416 390572 251381
417 398488 500589
418 547737 622197
419 102819 833530
420 443561 191356
421 134685 230716
422 729489 564426
423 68037 531771
424 175886 904308
425 756319 234352
426 485464 967
427 877000 798913
428 615296 465151
429 815756 486393
430 69407 624619
431 772033 498530
432 808717 51195
433 200846 624899
434 271729 465020
435 460738 143351
436 60501 528575
437 988790 326362
438 209165 535940
439 395231 254219
440 220392 539687
441 19051 507020
442 979378 43128
443 513376 892042
444 442664 347293
445 299743 922838
446 350468 637798
447 372791 300209
448 130854 606109
449 241925 403127
450 355260 532097
451 136540 921667
452 683916 216631
453 215301 978444
454 21588 833872
455 285536 723254
456 22486 468462
457 186649 146569
458 274151 134235
459 125738 508507
460 920340 594736
461 382973 868602
462 109759 928641
463 6811 138833
464 844659 772159
465 111061 230721
466 514351 561358
467 968682 497138
468 517201 550588
469 320370 832809
470 768976 379141
471 766303 934156
472 426953 705006
473 539865 481865
474 528038 444150
475 293397 992021
476 761450 469766
477 292066 124539
478 17746 575181
479 952984 186778
480 699430 664712
481 658073 188779
482 64896 906395
483 956950 88330
484 41509 481642
485 606703 792285
486 606196 681588
487 215110 928319
488 833286 913206
489 576536 985220
490 910894 431629
491 185849 657881
492 72728 446348
493 572647 325571
494 496462 62287
495 540187 428870
496 509078 838727
497 226105 976690
498 772944 84715
499 719046 498633
500 871720 626658
501 905329 542817
502 533255 861767
503 806171 103568
504 397037 845717
505 551891 692175
506 78719 890697
507 646590 270559
508 155633 819345
509 962674 88205
510 133450 872234
511 369283 542875
512 609922 980045
513 886956 63378
514 148332 353342
515 122147 729717
516 516169 730818
517 433329 218719
518 352910 295151
519 11291 802169
520 290714 753302
521 362897 408256
522 928837 667953
523 59586 966202
524 228804 246059
525 89733 709565
526 936383 365704
527 376486 142002
528 110489 174510
529 109488 314536
530 508857 511019
531 92277 594868
532 555002 798589
533 329277 670462
534 961859 978636
535 210972 189430
536 590540 716614
537 998472 423884
538 935850 3579
539 166389 467920
540 869556 712446
541 953890 833795
542 844485 611127
543 637440 921300
544 175816 634739
545 889441 682448
546 333292 32654
547 591196 101284
548 162761 646282
549 409784 504952
550 732102 56006
551 799813 760884
552 376503 377287
553 755675 102588
554 521218 765359
555 504562 189188
556 998694 474748
557 425095 826408
558 177727 59623
559 3672 453718
560 635827 682994
561 260677 456907
562 246533 154966
563 389617 829656
564 340111 621184
565 668209 833262
566 482361 401030
567 963357 680368
568 713752 479141
569 408700 18076
570 433399 577817
571 917628 722098
572 998912 206446
573 421770 876384
574 786120 436230
575 711666 333105
576 306171 788600
577 836743 898840
578 573645 398783
579 797526 696135
580 663535 276534
581 693887 503142
582 331959 926745
583 271559 276595
584 475836 218648
585 404637 301343
586 273502 567441
587 742051 302722
588 376823 472077
589 620164 347693
590 581320 990834
591 32129 643976
592 957649 391675
593 139375 979218
594 69070 36612
595 408808 437156
596 3304 190052
597 613438 132055
598 304314 350186
599 980046 696189
600 829623 949693
601 256220 438427
602 854909 720832
603 300975 662195
604 830951 445067
605 759465 594426
606 329712 760913
607 287326 226379
608 273229 503835
609 889703 199903
610 622430 921373
611 296549 779647
612 389025 454944
613 45123 835074
614 712531 21218
615 1747 714627
616 641126 175096
617 588228 986893
618 661121 271215
619 356649 731269
620 118445 635539
621 89515 869166
622 414182 487435
623 140607 223657
624 801026 158494
625 86932 469240
626 637654 958828
627 694442 114995
628 308566 81123
629 850199 868016
630 59711 29760
631 305546 99681
632 326621 123925
633 504911 460546
634 346731 799891
635 85772 49572
636 702808 731208
637 112971 153189
638 283718 337720
639 85205 274029
640 146377 964000
641 984874 844515
642 961507 971986
643 409081 541445
644 848474 464302
645 481982 200575
646 924484 556757
647 645497 68873
648 932731 358306
649 756194 260992
650 203717 802886
651 138452 526997
652 12116 122932
653 484365 793139
654 997321 722455
655 705914 767121
656 232648 385897
657 386034 859136
658 105276 748788
659 454183 257748
660 191194 146604
661 704351 85738
662 596174 282886
663 911120 175811
664 719092 990039
665 668823 490578
666 340399 362749
667 568115 379256
668 731351 598977
669 458481 102370
670 866710 660293
671 87261 590726
672 273108 335377
673 496223 838745
674 960583 362611
675 157753 756920
676 639214 766155
677 592169 713138
678 462486 775702
679 958882 632860
680 391580 885388
681 334658 894950
682 855744 45620
683 679859 641921
684 112788 50656
685 362912 266530
686 788204 91571
687 99994 434274
688 507390 938195
689 493569 883036
690 820399 135417
691 216928 86232
692 598458 783435
693 155920 445449
694 507004 522494
695 699396 89429
696 486188 407824
697 739457 600180
698 872089 995690
699 490732 838833
700 827986 558027
701 345176 77547
702 542211 22335
703 539991 552982
704 167696 808733
705 557217 17036
706 268697 436387
707 933463 302150
708 399199 926833
709 155492 255564
710 173531 684169
711 151189 273955
712 222669 804884
713 921354 710656
714 549359 77659
715 894283 954408
716 770498 684835
717 325818 803362
718 866720 780541
719 152768 296308
720 384236 229087
721 289956 251440
722 348963 15227
723 938240 212233
724 185154 934573
725 678825 161432
726 446330 413072
727 944550 873578
728 787529 660340
729 751729 738849
730 155615 759450
731 400213 871388
732 424497 328130
733 727080 17257
734 87424 918235
735 363910 186965
736 741678 220919
737 576739 12099
738 237838 738116
739 329404 349091
740 17355 261013
741 958927 810510
742 922043 134833
743 554194 899110
744 260338 997687
745 76282 849463
746 693116 234532
747 932397 197270
748 487408 69036
749 674701 336863
750 777389 200123
751 882829 836063
752 917217 417811
753 202504 635820
754 491028 809717
755 319383 888418
756 400002 754041
757 662566 306151
758 66333 165680
759 938990 227227
760 840722 658043
761 342556 750560
762 140846 163787
763 304136 905615
764 303702 158927
765 809595 602018
766 247087 519686
767 29708 128936
768 861011 204885
769 147944 615892
770 68499 388514
771 960119 33111
772 156964 418239
773 506907 942555
774 93686 768610
775 893133 581792
776 765334 515773
777 527268 175370
778 953035 363142
779 806354 788280
780 556800 997618
781 487875 875136
782 741218 930869
783 928299 366891
784 597077 244327
785 799244 123777
786 71994 170380
787 334093 258929
788 892708 826782
789 223292 965475
790 210751 940994
791 99260 515421
792 602127 811976
793 114142 371951
794 778468 98839
795 200637 494120
796 607808 903616
797 816647 944721
798 316520 789738
799 699018 898035
800 525530 680124
801 719263 128210
802 557858 952139
803 482532 249912
804 913646 715292
805 61228 581084
806 584673 707515
807 587643 62679
808 389809 584259
809 58488 796496
810 614348 138560
811 667872 699041
812 718796 119119
813 404514 943783
814 612521 381953
815 776397 642795
816 913135 508000
817 904247 629667
818 356320 391744
819 927778 539447
820 422166 529883
821 313462 981971
822 484490 62076
823 826247 908766
824 184820 697528
825 540207 372736
826 177217 317065
827 121637 882734
828 766989 211263
829 223963 928191
830 595819 90787
831 322134 374199
832 293125 531344
833 267621 602701
834 223025 525567
835 236431 481042
836 399438 360960
837 256289 241612
838 961343 350807
839 577404 836062
840 352130 193250
841 719820 684330
842 786133 685610
843 320661 538936
844 214874 372903
845 362045 753618
846 168719 402210
847 303015 941123
848 130444 952501
849 725682 242877
850 100732 475439
851 331362 348757
852 345398 346956
853 652916 492886
854 530931 436027
855 562073 228052
856 996388 851060
857 566145 842201
858 922068 919923
859 71183 352001
860 400899 315120
861 877019 980147
862 424834 760992
863 149680 50681
864 15562 909332
865 588696 468456
866 819876 141377
867 273988 124077
868 196861 868760
869 118184 943931
870 763541 400737
871 467753 862873
872 972003 46925
873 876599 188571
874 977376 542023
875 791443 79763
876 936939 816349
877 654181 632275
878 655563 189985
879 74768 221321
880 150094 784155
881 374702 587000
882 672485 161335
883 760299 133515
884 879056 519220
885 965602 733496
886 942547 529159
887 560557 321136
888 378181 60669
889 325966 792559
890 105428 959695
891 975912 794241
892 759238 804540
893 93754 232876
894 468891 112653
895 363777 63346
896 989703 598964
897 978329 30044
898 458189 938593
899 302315 650866
900 668744 815929
901 862604 184817
902 436595 831748
903 103851 142697
904 57111 849640
905 538520 422687
906 721093 962115
907 857543 86748
908 794452 775737
909 608670 642440
910 703145 821706
911 831199 228190
912 850475 149672
913 870892 757730
914 92564 728809
915 217284 235483
916 3557 476325
917 254038 682740
918 238601 13796
919 936697 672489
920 10088 318017
921 624205 826450
922 409507 542070
923 232146 761513
924 748488 828657
925 159152 700459
926 846029 573505
927 433581 433261
928 812372 386279
929 930779 753855
930 593146 90055
931 206000 384622
932 839552 220503
933 798482 894643
934 552608 315473
935 854601 32939
936 27248 780013
937 483288 2686
938 975677 257693
939 794608 417214
940 337299 484612
941 826951 338709
942 135662 127229
943 29483 618935
944 636773 33534
945 884258 343958
946 461187 621224
947 817887 977149
948 290768 844192
949 343162 406820
950 566392 974452
951 966904 331273
952 491357 674539
953 873508 507319
954 437843 306352
955 403777 193437
956 749505 897244
957 869596 249188
958 628867 584775
959 566734 862402
960 929735 954290
961 551480 145787
962 749080 880149
963 66034 695974
964 288656 808748
965 129177 468357
966 819850 488256
967 13436 143862
968 735107 929706
969 469112 886474
970 498362 444707
971 52200 774371
972 103799 929967
973 792477 315399
974 872143 937738
975 911115 594793
976 555535 534414
977 277643 98035
978 154601 478648
979 317837 347494
980 939432 943801
981 38207 551369
982 807989 959070
983 141236 975133
984 793444 939629
985 456711 313467
986 712631 628995
987 951287 334941
988 398754 17066
989 868144 651045
990 725547 587385
991 378137 941161
992 869316 185376
993 430149 268481
994 680266 54366
995 2626 759973
996 136262 529483
997 429762 184894
998 732075 423205
999 823084 768858
1000 531213 775410
