NAME : portgen-1500-1505
COMMENT : portgen N=1500, seed=1505
TYPE : TSP
DIMENSION : 1500
EDGE_WEIGHT_TYPE : EUC_2D
NODE_COORD_SECTION
1 284756 863497
2 706500 104573
3 856242 646557
4 884438 31274
5 591881 27410
6 165215 38716
7 473349 549567
8 79845 103279
9 587409 628765
10 354363 841185
11 242299 785740
12 906498 49522
13 566188 203116
14 885581 482628
15 670127 162321
16 346884 442797
17 861560 344895
18 127113 660443
19 986583 424692
20 900184 167580
21 259804 844790
22 301071 612362
23 100218 489800
24 890641 390363
25 120024 750556
26 377031 633977
27 621445 694572
28 516704 841958
29 1936 361605
30 977459 195799
31 659974 459746
32 131090 424300
33 767605 320424
34 737644 860987
35 449348 590045
36 212638 197046
37 508741 603806
38 464154 608321
39 164294 211925
40 532817 724229
41 201180 523976
42 505168 474328
43 502347 887138
44 311707 437260
45 577289 806689
46 922798 125596
47 975343 310138
48 954941 62758
49 336049 697264
50 148208 491897
51 325506 678715
52 857545 395794
53 549376 853055
54 128809 147117
55 192225 629566
56 530251 564676
57 784315 170770
58 273000 534377
59 484402 820951
60 469359 704847
61 984375 40380
62 712779 957451
63 264539 533923
64 339500 112946
65 54430 611098
66 479512 17176
67 19700 903251
68 193978 636504
69 739660 334397
70 201327 967969
71 402736 490756
72 967900 872441
73 822313 882417
74 412817 17891
75 45599 421018
76 723257 223102
77 642834 537109
78 12385 308329
79 659014 954293
80 201815 912872
81 113394 794412
82 945789 224255
83 226829 39494
84 596775 911873
85 348457 390582
86 121560 466510
87 775351 48340
88 981590 761272
89 397546 175669
90 945066 956210
91 874908 385207
92 911130 141558
93 497703 685100
94 71387 795445
95 676421 154483
96 39728 827787
97 985940 810745
98 846409 936225
99 715404 919560
100 890851 61041
101 484871 237147
102 72825 89388
103 546110 338049
104 311972 501275
105 39405 327285
106 236941 863569
107 277871 47332
108 873143 285607
109 808471 135044
110 377846 290604
111 324090 677214
112 21022 287415
113 905711 884412
114 393684 685963
115 502230 643540
116 449300 896270
117 136263 617781
118 719269 11338
119 107335 863798
120 268414 212096
121 876628 936343
122 417598 385817
123 830393 362514
124 806764 698524
125 905034 961996
126 542540 29441
127 417330 247310
128 611741 588601
129 100884 455044
130 370119 534771
131 230713 448173
132 232861 827309
133 450657 300597
134 445971 892053
135 216938 510629
136 478842 109947
137 230010 415849
138 748063 294648
139 259884 773711
140 675674 317109
141 783528 938640
142 315843 967458
143 412826 1126
144 663409 308953
145 167123 418671
146 565367 215281
147 646860 757785
148 733253 766680
149 706333 1748
150 637753 535744
151 102630 33052
152 22850 587924
153 178468 603900
154 713598 449872
155 834483 610614
156 925191 791930
157 287920 951448
158 969404 15432
159 801313 475075
160 94056 683976
161 594264 444222
162 254300 681194
163 407998 445790
164 87096 642085
165 237380 144162
166 581050 810011
167 939228 65059
168 391917 991597
169 650719 364394
170 998053 397394
171 199813 188334
172 214897 483147
173 824407 121144
174 960981 965666
175 349786 287463
176 679583 64247
177 764368 493591
178 954693 292618
179 93824 957791
180 196006 186871
181 953181 349203
182 451818 437089
183 410801 736857
184 577033 804773
185 127041 848259
186 54450 835647
187 125288 806593
188 4392 530016
189 679854 760708
190 726500 115380
191 351965 129305
192 446079 50509
193 190981 231847
194 358193 502139
195 654257 655059
196 414563 845945
197 237353 149793
198 342944 364166
199 63045 408303
200 478754 294391
201 441290 200272
202 239165 234405
203 935497 550278
204 618168 713858
205 302609 722845
206 934425 591685
207 303533 540946
208 772307 107236
209 111849 302025
210 94144 46635
211 673812 168729
212 326019 832649
213 406968 854177
214 596481 890882
215 871096 454114
216 911847 965995
217 458099 3654
218 180955 760280
219 825772 905132
220 278202 83744
221 119998 56167
222 407994 607622
223 981247 245834
224 519926 404703
225 742824 488767
226 767684 172163
227 537207 24639
228 382543 475295
229 742173 235510
230 53450 175216
231 724506 713036
232 435656 218864
233 602847 878257
234 183690 695911
235 559698 526473
236 587310 707145
237 559200 605377
238 278950 501649
239 631522 301379
240 450106 931673
241 112003 360970
242 837432 695879
243 729608 198811
244 530339 239234
245 400807 302698
246 576590 129861
247 345433 751728
248 496434 412852
249 496967 802617
250 328671 479598
251 614311 218546
252 954597 811150
253 376763 406713
254 334730 841327
255 295031 183732
256 944956 502939
257 834703 750751
258 598626 594644
259 367602 683927
260 722430 189994
261 381289 381073
262 367239 80100
263 912161 368763
264 752547 748049
265 228613 872237
266 166918 790194
267 6348 266373
268 986717 609063
269 526267 86680
270 97252 134963
271 831208 846411
272 516803 210812
273 921408 195516
274 762621 265333
275 839566 127670
276 660304 748917
277 574003 456434
278 312679 824116
279 212197 688224
280 824433 767699
281 880446 248049
282 744075 160067
283 352524 98545
284 986135 623891
285 829343 403109
286 832023 102269
287 844361 594759
288 529690 632372
289 807069 910805
290 767420 88044
291 156566 64323
292 923616 460914
293 991791 918868
294 46119 846281
295 913849 888172
296 622927 902376
297 257337 694142
298 302940 728938
299 2049 922044
300 681122 289036
301 388446 851816
302 497912 751522
303 971104 595981
304 825301 113089
305 464642 393810
306 777997 365916
307 774375 936260
308 144771 978069
309 990712 49932
310 857127 623585
311 96495 64091
312 942768 540306
313 14662 980207
314 604357 92839
315 623654 933708
316 807071 693980
317 446162 373609
318 310047 790649
319 289948 987355
320 316142 13721
321 928156 996187
322 989153 290263
323 791677 558836
324 959607 717030
325 679480 322733
326 124581 909210
327 298389 747413
328 481964 694466
329 405653 124302
330 441474 180455
331 306032 837945
332 796946 450921
333 465654 781810
334 376762 484111
335 144583 585935
336 18462 273681
337 370452 534394
338 499004 187284
339 765702 195355
340 58341 320196
341 574553 480054
342 651364 443199
343 627676 969126
344 897034 995241
345 907955 528237
346 413886 805836
347 842772 730207
348 995258 654475
349 625735 454759
350 791259 604393
351 793134 764251
352 658689 359283
353 748179 644526
354 257846 855190
355 119736 512838
356 797431 410412
357 216346 913237
358 766568 500195
359 995172 66739
360 455662 811179
361 156074 922003
362 692852 540189
363 792801 254210
364 614992 11169
365 786214 854477
366 929437 910511
367 75618 545503
368 522765 164140
369 263708 738127
370 676630 127480
371 973954 830294
372 539578 96776
373 372162 491883
374 112984 302583
375 937405 741048
376 39483 614566
377 668545 936781
378 674955 882622
379 688633 113185
380 836518 584039
381 380818 519719
382 178559 992256
383 538884 967136
384 870833 119570
385 541074 274685
386 387211 692588
387 129333 714614
388 771696 541508
389 253457 756071
390 865233 910178
391 565577 501806
392 174650 202175
393 473659 409717
394 731952 83362
395 6618 555628
396 293306 144137
397 197052 401945
398 740268 281365
399 700961 824964
400 325080 830653
401 238426 356912
402 437349 27227
403 175471 537676
404 439915 466370
405 463122 265237
406 150670 605271
407 106567 280889
408 290732 236681
409 322667 776614
410 251987 257519
411 266175 45869
412 794490 710421
413 36259 30298
414 255239 102106
415 539143 234019
416 101593 787086
417 292948 599995
418 759508 960305
419 395239 893761
420 911442 236978
421 87050 955337
422 831374 749099
423 289452 247437
424 349647 486631
425 365685 709970
426 26125 598854
427 285821 91061
428 729060 451339
429 63963 837353
430 267718 215165
431 142437 546154
432 554927 226143
433 178187 195332
434 773896 357467
435 991437 43294
436 887033 836036
437 410928 542017
438 231393 667321
439 760047 703429
440 981360 584919
441 966334 417886
442 834388 323977
443 91581 555439
444 232158 66805
445 421808 564176
446 186409 37771
447 902323 868148
448 349944 251014
449 544409 289357
450 517705 622131
451 487389 646217
452 505270 780765
453 743635 608239
454 764466 961843
455 999479 173620
456 219180 997158
457 415544 703541
458 28755 104666
459 643830 686779
460 876199 927173
461 650922 484539
462 839762 369306
463 555905 240815
464 330765 630162
465 798382 623154
466 902855 798204
467 703949 807739
468 365739 969175
469 2341 130846
470 295221 986914
471 911609 545379
472 190605 494635
473 913253 701869
474 198009 533017
475 312243 109128
476 920248 914246
477 490974 894551
478 719275 689185
479 942268 697530
480 415026 774459
481 605898 633619
482 666621 12564
483 262011 673801
484 806553 920909
485 790288 326886
486 906657 110812
487 374536 767070
488 6925 736676
489 993564 945210
490 650030 866719
491 298547 633235
492 215136 23922
493 17255 269235
494 131582 691384
495 545728 691938
496 162622 81431
497 340558 968335
498 80257 800796
499 170842 423534
500 487709 176577
501 708304 252798
502 882987 445523
503 810581 287012
504 699110 467051
505 877295 450040
506 557602 250883
507 151802 723088
508 611836 524467
509 293061 698285
510 932307 461214
511 502958 383018
512 433199 613710
513 618581 653859
514 227824 929013
515 956489 719912
516 37565 526512
517 67915 199989
518 309117 47663
519 481432 492047
520 412085 492788
521 976174 433296
522 759077 84513
523 188979 779603
524 648231 726847
525 349753 426398
526 572972 241829
527 467044 767797
528 139012 181792
529 184883 682997
530 136405 762917
531 805580 207062
532 54965 384506
533 473865 124305
534 491806 67289
535 534108 832233
536 876235 566213
537 348531 505908
538 888242 261129
539 915973 665402
540 474698 436789
541 468976 544827
542 792607 193572
543 914332 830502
544 471546 683408
545 726124 184811
546 555857 414143
547 957939 579852
548 616553 409960
549 84764 253169
550 196270 927849
551 863629 982829
552 252148 912964
553 957422 28144
554 449221 273472
555 853465 308509
556 710245 501474
557 956873 951594
558 207060 391436
559 249123 475113
560 767953 63905
561 39540 238637
562 871019 606258
563 968603 893406
564 314065 435567
565 548486 860097
566 811907 642501
567 811936 166189
568 726544 967501
569 587953 841013
570 986512 522895
571 581379 996433
572 915454 662218
573 145271 317220
574 543124 351680
575 611249 723146
576 95895 649197
577 704682 336172
578 115942 221128
579 170892 85959
580 186420 989921
581 440191 608208
582 286960 330570
583 727129 713811
584 586019 294654
585 806322 889839
586 848312 897442
587 863864 44806
588 968010 390343
589 533954 534846
590 490316 747474
591 722513 228105
592 249147 558565
593 419906 203698
594 355540 481365
595 439059 12732
596 381481 293298
597 34690 96672
598 674582 683936
599 132569 870647
600 694208 754928
601 783266 8277
602 861364 863774
603 632 867789
604 400049 146117
605 916265 912243
606 865588 689526
607 646899 173687
608 608439 146892
609 573518 190288
610 655988 43193
611 581242 715371
612 600446 51394
613 106573 840035
614 36078 89
615 44174 100220
616 990293 387836
617 618580 578072
618 881886 32986
619 581206 75460
620 950125 273013
621 630180 165252
622 825377 395866
623 431490 666109
624 692852 983295
625 990098 834547
626 647858 132479
627 826473 593987
628 764634 395429
629 389696 283291
630 981887 967645
631 286583 324589
632 195991 643252
633 282062 700336
634 864149 251033
635 742196 942329
636 454040 590222
637 200189 821441
638 395335 448762
639 888898 6458
640 286760 711143
641 450338 752787
642 18201 76528
643 813637 665703
644 191844 975328
645 296010 181550
646 168837 330172
647 333263 7796
648 818972 39957
649 965062 3936
650 531 982728
651 777211 686393
652 696535 278954
653 384208 895070
654 114278 749945
655 780350 98930
656 203585 414368
657 987281 800337
658 798808 956410
659 991326 188195
660 824279 242105
661 735273 860212
662 250502 759468
663 165117 767647
664 893687 921234
665 437232 500264
666 334484 138952
667 226108 187829
668 507558 35970
669 765506 217864
670 277719 857227
671 674377 3648
672 151048 53904
673 446276 308624
674 79670 573794
675 842678 51325
676 146269 43827
677 566704 500266
678 648244 638259
679 460285 508705
680 771396 348238
681 129564 896414
682 472225 923123
683 424553 199936
684 263319 933376
685 354061 490183
686 876739 417531
687 345516 772954
688 95835 691446
689 293508 750235
690 111224 526858
691 307362 384982
692 149838 88993
693 370699 438069
694 666727 302985
695 763276 307622
696 772650 832129
697 863803 787536
698 980487 256846
699 658132 378094
700 958069 754830
701 15116 329434
702 462570 315820
703 743962 761287
704 893989 477710
705 129566 210174
706 971532 157300
707 745429 463773
708 575587 297435
709 32611 684689
710 942636 167707
711 541803 885225
712 975306 599230
713 475067 547305
714 954960 29695
715 28991 334547
716 797456 815798
717 620668 901049
718 555326 150062
719 639552 686064
720 513405 73264
721 405458 982038
722 360349 595569
723 765818 887425
724 856822 264572
725 312468 433182
726 301885 628436
727 349102 623522
728 957373 199317
729 708766 561520
730 760494 593900
731 121734 207924
732 964304 56302
733 804715 989493
734 796951 149859
735 697955 688162
736 440612 768038
737 372220 509453
738 865821 913367
739 536122 351784
740 641856 275749
741 838538 393439
742 269200 435091
743 212812 589531
744 851493 564366
745 96334 565832
746 353111 489693
747 988109 825243
748 632652 637420
749 609817 850895
750 729747 852451
751 351303 505038
752 622715 36719
753 594643 908445
754 359235 914011
755 410709 367841
756 347824 144399
757 465186 194662
758 240789 632041
759 219815 139060
760 423649 167295
761 379676 946056
762 420112 845503
763 336858 935573
764 145322 335501
765 914810 957376
766 554131 622111
767 941074 274014
768 927925 694139
769 928253 74538
770 194302 580770
771 369716 712432
772 140716 929038
773 186156 407055
774 69580 142605
775 488384 697078
776 492097 274316
777 936084 772371
778 298319 729191
779 563964 348700
780 108793 900504
781 980192 284697
782 719709 829939
783 998125 635391
784 3683 536147
785 8506 833734
786 562460 77209
787 650675 726570
788 675198 105359
789 9971 647740
790 547184 607666
791 371609 796622
792 226707 14306
793 977183 269434
794 902402 111134
795 275889 292533
796 690455 392105
797 66031 360568
798 18309 292506
799 61756 414145
800 253840 80796
801 397083 421840
802 595421 880718
803 325469 695475
804 47609 921777
805 795187 28885
806 826789 452829
807 72811 816260
808 210048 588087
809 218665 359141
810 811630 705618
811 573634 589537
812 282307 927709
813 436650 140620
814 481788 769957
815 401101 979722
816 57749 88194
817 852552 518298
818 780877 918780
819 723810 410446
820 804258 389096
821 50768 543261
822 299504 570270
823 718898 100918
824 109798 138321
825 923917 877688
826 810717 291799
827 13044 274118
828 23047 308888
829 569287 77122
830 99840 406689
831 971664 637162
832 117518 406090
833 978117 283528
834 153324 502540
835 97361 109129
836 478288 80344
837 435223 933941
838 894901 281835
839 576492 8189
840 904662 127762
841 571333 404666
842 670116 994411
843 8057 420586
844 970675 446462
845 540181 497348
846 765455 221269
847 313084 695128
848 910807 970424
849 108037 365563
850 675369 437063
851 524425 101609
852 233659 796155
853 306355 406051
854 621682 18632
855 266060 602460
856 338212 122825
857 536940 602492
858 641233 750394
859 324077 422389
860 495283 7693
861 175491 787760
862 827171 660298
863 584704 376679
864 846685 639068
865 627585 488850
866 660153 557860
867 742128 302201
868 789549 448507
869 867726 67624
870 353178 257663
871 96508 548285
872 951178 532488
873 321856 977694
874 394098 652786
875 110424 534128
876 123738 468968
877 737977 186519
878 776909 966565
879 359480 931457
880 6606 857847
881 538324 554057
882 665454 8397
883 505951 789927
884 171646 4452
885 280635 663538
886 356296 671291
887 311965 961154
888 883954 706523
889 49782 640651
890 883388 618138
891 17199 915227
892 632462 769737
893 950525 106095
894 892406 733731
895 796249 999621
896 276861 863273
897 786989 689640
898 901366 425217
899 236320 990023
900 648534 615333
901 927912 753446
902 769397 492285
903 516928 208511
904 836506 968240
905 235994 670813
906 74159 625748
907 135207 6984
908 580986 675051
909 767067 975814
910 107030 80734
911 553606 181622
912 355918 665301
913 735626 602849
914 901893 819679
915 444226 675443
916 870016 81542
917 404657 212575
918 543979 391451
919 780020 625478
920 188750 275474
921 339027 916592
922 626701 715515
923 446015 95238
924 507355 121687
925 954013 298516
926 523323 416641
927 545797 973091
928 745316 846369
929 348788 556822
930 948306 125476
931 428490 211028
932 779489 960520
933 331785 157567
934 999046 419692
935 560968 485747
936 167695 645380
937 21800 808513
938 557411 136964
939 635825 382826
940 919984 889256
941 254060 345071
942 871373 318750
943 246952 658988
944 302053 444137
945 880789 386412
946 392404 360328
947 64509 703003
948 107778 693647
949 894791 818187
950 158103 309050
951 459413 124528
952 201703 64756
953 44456 178251
954 545268 227047
955 726138 86327
956 544316 904651
957 676033 561893
958 733071 68162
959 146518 76486
960 852741 638137
961 262775 180859
962 261588 251918
963 26334 43166
964 443676 957043
965 764057 379159
966 591696 408778
967 656688 833656
968 344940 349409
969 669037 309479
970 585678 178789
971 512470 225566
972 591396 242651
973 123636 211545
974 98739 812591
975 676668 64611
976 249971 937748
977 54130 778943
978 717353 50635
979 467840 368046
980 719816 695046
981 509213 235788
982 641368 547349
983 573857 318749
984 313254 433381
985 438256 521526
986 969423 333927
987 399817 788129
988 388166 325027
989 126728 482645
990 534564 975698
991 575326 75629
992 237227 69011
993 869945 355908
994 767409 109338
995 259799 26191
996 36154 235656
997 871223 64151
998 209366 178543
999 825749 803266
1000 854484 798609
1001 84816 616094
1002 278026 700969
1003 489285 174341
1004 700521 985118
1005 908997 361445
1006 283226 358502
1007 108247 693625
1008 658891 273557
1009 364565 577217
1010 337983 395314
1011 492999 509988
1012 578897 639646
1013 436709 353329
1014 55900 698847
1015 298843 213825
1016 624506 141609
1017 573647 173119
1018 692472 216823
1019 967382 543601
1020 410119 596387
1021 991343 190191
1022 771355 864484
1023 533191 526166
1024 656758 231576
1025 627441 856036
1026 122642 126901
1027 504423 640659
1028 174103 943206
1029 42447 104907
1030 8496 272462
1031 206958 156919
1032 574999 312609
1033 370101 93034
1034 587147 243762
1035 160434 132725
1036 616798 132988
1037 949775 481946
1038 272671 366098
1039 5565 938237
1040 465543 493503
1041 310882 950992
1042 690350 26381
1043 6866 467587
1044 566610 261037
1045 803017 599438
1046 629676 723619
1047 383167 277394
1048 979589 858354
1049 240416 289408
1050 591812 167092
1051 520601 718521
1052 766032 133938
1053 545154 171649
1054 436550 478041
1055 633793 706516
1056 376596 781409
1057 301889 409058
1058 642785 483338
1059 773751 297605
1060 333020 511747
1061 852617 297738
1062 651949 993341
1063 612124 898277
1064 366956 815836
1065 936791 101022
1066 929547 527523
1067 304443 759027
1068 116907 529472
1069 649103 281292
1070 383596 523527
1071 693835 269005
1072 928016 291270
1073 746820 331938
1074 71670 389826
1075 665270 81311
1076 491398 424579
1077 352616 490790
1078 237545 993077
1079 414078 7004
1080 17031 15682
1081 522546 155257
1082 94445 110266
1083 12680 107590
1084 853393 10619
1085 662237 310847
1086 411668 383924
1087 632334 251708
1088 20349 428038
1089 945121 161159
1090 755795 619046
1091 484198 359951
1092 798805 921109
1093 578475 774289
1094 433078 194177
1095 746347 9316
1096 676078 638483
1097 619055 72748
1098 111858 309911
1099 636670 676307
1100 270921 318782
1101 386816 910510
1102 634030 46223
1103 597112 131446
1104 625773 431507
1105 912314 463255
1106 559999 219900
1107 260657 7714
1108 339603 884062
1109 536202 21696
1110 998407 702768
1111 470919 177085
1112 739697 343454
1113 924030 501158
1114 749893 586110
1115 654595 888902
1116 802264 513614
1117 248844 292540
1118 59046 264298
1119 99293 791091
1120 581505 694413
1121 238087 411381
1122 195770 43578
1123 538396 498992
1124 898786 275600
1125 148718 610700
1126 560017 50559
1127 21711 382019
1128 516518 873201
1129 661666 341490
1130 987177 332814
1131 32152 834682
1132 850001 217901
1133 225168 148618
1134 24130 217078
1135 469317 840610
1136 985276 260601
1137 872978 387706
1138 142751 420359
1139 155374 357678
1140 826936 50829
1141 839491 408403
1142 598933 321781
1143 856749 967582
1144 663612 30942
1145 67372 910428
1146 240168 882215
1147 321773 740894
1148 709136 977485
1149 538403 808063
1150 900827 118037
1151 343618 541108
1152 448664 97888
1153 771208 151614
1154 451626 699930
1155 525269 548936
1156 209588 630723
1157 274118 76748
1158 92646 149937
1159 512908 109106
1160 508764 247682
1161 610215 216066
1162 316251 351280
1163 496992 444167
1164 811936 775089
1165 616497 991137
1166 968733 455444
1167 832408 278000
1168 841240 208768
1169 134285 522185
1170 229135 706812
1171 454673 554506
1172 522178 819689
1173 300213 24101
1174 565964 970493
1175 243902 264969
1176 165548 763313
1177 191565 909690
1178 149303 888174
1179 708699 170664
1180 256648 562440
1181 17328 929440
1182 470794 818457
1183 94262 655082
1184 108545 454428
1185 776534 68544
1186 583973 542415
1187 865203 243795
1188 82133 846901
1189 24501 406560
1190 201977 608818
1191 735468 641272
1192 518441 54057
1193 973808 39293
1194 984649 13951
1195 183737 186157
1196 100222 679856
1197 745650 160590
1198 122838 912257
1199 689302 278382
1200 737555 453311
1201 999599 159403
1202 768515 635084
1203 529500 524276
1204 244872 137507
1205 935882 110009
1206 903524 694748
1207 986927 70491
1208 462217 337472
1209 183790 310204
1210 695618 182005
1211 965780 830162
1212 716873 323222
1213 68945 424569
1214 773899 230119
1215 714295 557857
1216 602029 886993
1217 470678 91967
1218 705293 40720
1219 654345 447950
1220 591839 636335
1221 855503 674444
1222 318332 1732
1223 220376 270060
1224 962982 422427
1225 91645 698269
1226 138357 459182
1227 564087 179697
1228 851282 112606
1229 688725 676548
1230 929791 488780
1231 869930 796922
1232 545668 299546
1233 254506 229079
1234 376415 985195
1235 850114 192157
1236 374489 761362
1237 218559 997349
1238 43647 506597
1239 266075 537175
1240 471940 956338
1241 735844 97351
1242 300328 225514
1243 687926 805107
1244 341325 171131
1245 837460 476213
1246 664305 669150
1247 597835 399681
1248 261845 94140
1249 455885 320983
1250 958084 713778
1251 3984 425806
1252 950487 135306
1253 962424 41006
1254 158854 338572
1255 491771 46175
1256 771280 517593
1257 839087 453577
1258 824475 200780
1259 199086 145986
1260 37700 160366
1261 773193 55431
1262 27110 136335
1263 188173 948683
1264 810875 83253
1265 34924 2641
1266 347743 927503
1267 45404 425765
1268 185058 218251
1269 258263 846750
1270 401039 487146
1271 606021 195338
1272 133431 677094
1273 703019 608873
1274 642039 461500
1275 211508 313162
1276 283265 372632
1277 286058 955443
1278 366035 76481
1279 380402 524721
1280 950248 744173
1281 782742 312103
1282 937532 4625
1283 440153 575941
1284 384162 161993
1285 750557 215601
1286 558740 737586
1287 934477 724538
1288 877100 400561
1289 769372 71667
1290 770300 111691
1291 568280 286153
1292 133004 290751
1293 219898 35639
1294 989970 40779
1295 985611 609116
1296 834088 96270
1297 96193 185437
1298 928405 868434
1299 260861 408893
1300 799994 302458
1301 839500 570372
1302 691199 99817
1303 744881 997112
1304 239627 995307
1305 735545 330395
1306 86511 339622
1307 539110 341131
1308 910084 686472
1309 215910 752094
1310 76219 571719
1311 315080 975269
1312 361998 448099
1313 376101 988367
1314 46386 834660
1315 979656 879988
1316 160933 774065
1317 336121 439904
1318 25180 228658
1319 747042 791873
1320 380666 533426
1321 819729 237875
1322 964559 413892
1323 294035 858819
1324 734271 648094
1325 809336 940037
1326 822048 426200
1327 429236 920006
1328 141524 65435
1329 234251 251295
1330 74636 516223
1331 250069 447754
1332 614641 202119
1333 510665 848635
1334 375062 125218
1335 47096 51265
1336 952200 567816
1337 942758 136182
1338 749670 888879
1339 546032 441992
1340 306574 310665
1341 754116 795091
1342 760024 463432
1343 629918 713179
1344 159424 134002
1345 929239 176544
1346 853595 621824
1347 744776 329401
1348 581225 251913
1349 295117 828377
1350 664221 405156
1351 312787 292278
1352 341519 498670
1353 185920 26957
1354 666176 965804
1355 290087 428345
1356 906011 100248
1357 322055 898091
1358 662628 628245
1359 702977 285239
1360 620893 258752
1361 553518 546685
1362 460996 641939
1363 738477 659921
1364 226296 444087
1365 950261 722712
1366 222702 580228
1367 151904 878229
1368 404654 653868
1369 473035 861932
1370 800804 1672
1371 10201 874184
1372 513109 670486
1373 623026 306910
1374 160828 102837
1375 590923 921303
1376 25617 851029
1377 878116 941509
1378 182453 732558
1379 140373 463290
1380 94016 532052
1381 553922 804244
1382 164999 288415
1383 418143 31826
1384 587138 651569
1385 275065 355717
1386 467417 600140
1387 694315 699589
1388 233135 702488
1389 668568 519487
1390 459486 5918
1391 519547 763005
1392 350070 418209
1393 168790 418458
1394 415228 863489
1395 460085 372827
1396 66729 821466
1397 586866 445086
1398 534255 410061
1399 179868 813519
1400 437351 920537
1401 638341 641340
1402 643350 585004
1403 401755 262611
1404 500959 459907
1405 772718 763995
1406 317330 276884
1407 3205 721188
1408 465322 732456
1409 217377 719912
1410 754159 8082
1411 851958 773619
1412 214217 354527
1413 717376 826076
1414 956789 109311
1415 297833 970523
1416 201529 208661
1417 746768 695490
1418 688588 242663
1419 759800 628881
1420 952886 436334
1421 201080 695316
1422 109330 452003
1423 520869 293110
1424 607248 232339
1425 727710 708178
1426 453271 70557
1427 515685 466828
1428 719008 429679
1429 894571 947860
1430 896416 159092
1431 502810 872077
1432 507020 336383
1433 562915 622013
1434 167553 551201
1435 200319 172212
1436 125207 985038
1437 992202 45981
1438 554810 781401
1439 257933 747389
1440 635519 287697
1441 931505 8929
1442 212894 138741
1443 467712 329452
1444 701641 410384
1445 132575 66574
1446 75109 208598
1447 428562 780674
1448 311127 216041
1449 703113 63348
1450 897192 739468
1451 35176 859859
1452 596819 440013
1453 776673 444341
1454 857662 376944
1455 999115 389556
1456 728038 484186
1457 815284 829841
1458 83982 294212
1459 443515 726345
1460 25256 346873
1461 918899 104204
1462 654009 460851
1463 137035 265347
1464 388218 552189
1465 269307 110469
1466 923738 880989
1467 748273 245963
1468 559658 447318
1469 193645 383053
1470 54759 173500
1471 885936 975295
1472 385127 785701
1473 147674 970904
1474 554589 967710
1475 643639 45779
1476 827822 150924
1477 794041 786723
1478 815729 154187
1479 111586 350856
1480 880354 329355
1481 250696 474608
1482 322185 825615
1483 503619 752742
1484 99058 29582
1485 682166 113077
1486 739622 475804
1487 82706 979477
1488 519050 767975
1489 310163 867286
1490 645122 982847
1491 153761 37362
1492 671835 939952
1493 859772 449130
1494 558803 922658
1495 742343 806916
1496 348259 164062
1497 700887 941681
1498 433877 410132
1499 892588 405650
1500 266651 379699
