NAME : portgen-500-502
COMMENT : portgen N=500, seed=502
TYPE : TSP
DIMENSION : 500
EDGE_WEIGHT_TYPE : EUC_2D
NODE_COORD_SECTION
1 676930 12917
2 357444 343834
3 131155 381622
4 331413 627989
5 975563 667523
6 416524 739419
7 186463 227714
8 842508 272013
9 272686 639851
10 135642 162301
11 267157 163394
12 122879 945781
13 529493 521067
14 727076 638838
15 879606 846112
16 460698 475460
17 557599 692057
18 481407 859486
19 806810 875385
20 812546 598665
21 127132 687826
22 113224 239197
23 679337 325743
24 577748 886137
25 123901 201571
26 282333 45709
27 164044 761370
28 582118 201469
29 455317 665386
30 862427 271668
31 574812 456027
32 815442 376898
33 540390 728698
34 626194 947265
35 548376 516764
36 694265 386548
37 515949 934070
38 879968 221447
39 999350 361508
40 363663 328024
41 65750 61690
42 776411 607937
43 271300 4671
44 660017 180701
45 151667 752709
46 233292 859545
47 327008 295782
48 904399 740584
49 171877 179153
50 359229 457889
51 326393 216239
52 522474 795877
53 135821 220642
54 269297 556106
55 490070 577446
56 541451 274615
57 513719 109717
58 38376 715266
59 129018 519660
60 472498 799806
61 556820 447040
62 588036 90487
63 190371 478025
64 864074 720071
65 798249 659326
66 952150 443243
67 871437 786216
68 786572 791134
69 547971 666694
70 569561 556033
71 875652 140357
72 708203 351860
73 195888 786251
74 271508 236521
75 105410 426373
76 876509 451805
77 380904 699902
78 505739 883149
79 344801 736257
80 9304 344686
81 672671 602603
82 986545 934037
83 701794 401094
84 566412 161858
85 913828 252124
86 443758 892497
87 414250 46124
88 923297 105014
89 66136 888133
90 584748 307221
91 133223 127816
92 710766 453563
93 986655 349547
94 456698 937400
95 84422 385478
96 224722 386112
97 752865 317436
98 112275 983155
99 726106 662078
100 428563 90873
101 720115 383375
102 651773 798188
103 293150 748692
104 741039 927340
105 713247 156192
106 426451 407401
107 651835 623826
108 119963 286558
109 849737 669108
110 821762 718638
111 674987 904333
112 733295 822954
113 532009 60382
114 240724 616061
115 752974 174604
116 363975 138795
117 174886 428555
118 880770 725822
119 475981 86940
120 333599 700096
121 499809 787589
122 115638 365783
123 710491 320389
124 652817 929911
125 785427 51892
126 742431 110045
127 909104 253959
128 726898 581319
129 208488 223217
130 917417 567327
131 272711 654098
132 593741 13150
133 656382 638861
134 291763 286051
135 913334 799574
136 633741 919826
137 883681 769869
138 976207 564942
139 995228 479336
140 96056 950689
141 851894 17506
142 698644 185646
143 901892 709877
144 545054 161735
145 772173 241909
146 434059 189929
147 173605 534024
148 66355 579983
149 903908 345768
150 389576 145549
151 325160 173480
152 833854 834737
153 199998 724924
154 411401 723457
155 352066 17020
156 36265 46753
157 451043 675508
158 133268 82782
159 480492 59716
160 946795 76398
161 734953 945994
162 896475 767785
163 474414 460260
164 85971 48943
165 569871 251282
166 153540 271770
167 127269 79035
168 914424 805140
169 566463 23135
170 52377 819110
171 229384 485338
172 214939 695775
173 506956 488064
174 293454 405820
175 59610 606095
176 494012 854964
177 775896 138293
178 992008 53389
179 46211 754818
180 920313 394857
181 158461 388265
182 671080 532956
183 787636 550926
184 831813 755268
185 168552 645204
186 789328 74672
187 105 340700
188 582386 879989
189 170098 758181
190 775776 421024
191 414048 331152
192 128630 175014
193 92821 765275
194 600690 594313
195 291399 363497
196 973327 811194
197 854583 407173
198 29782 154712
199 485232 874239
200 113389 626966
201 317965 535272
202 630043 638585
203 192046 162860
204 726333 600882
205 45472 226733
206 452698 451898
207 463419 556815
208 421530 347266
209 533681 263906
210 503174 632924
211 65694 957574
212 641879 541585
213 327238 254055
214 444628 361520
215 148654 419526
216 153655 569216
217 712708 549043
218 968325 962150
219 867732 571814
220 753484 745554
221 231593 336784
222 91139 658475
223 297803 15752
224 169315 312998
225 79934 775726
226 710083 123712
227 725585 693863
228 473311 748749
229 822563 81000
230 670259 229895
231 295127 154519
232 847398 299917
233 995139 115914
234 360759 804944
235 259012 405777
236 177950 220683
237 183972 727447
238 922841 941981
239 231989 948015
240 68273 578489
241 431491 363628
242 691260 918758
243 124398 999135
244 721818 412790
245 553903 852411
246 601391 62788
247 312802 347706
248 567604 10909
249 152812 363691
250 735633 355821
251 783763 221299
252 244724 501445
253 344235 346454
254 432451 806826
255 569464 474175
256 26931 409773
257 527096 817848
258 628504 232339
259 841717 499691
260 732313 984229
261 963102 997067
262 69310 903190
263 622013 956650
264 975958 682526
265 383211 576386
266 509530 425162
267 378551 594097
268 551558 21718
269 836532 873412
270 290254 892059
271 157418 222126
272 680477 569674
273 889308 604323
274 993477 409611
275 725693 610953
276 34950 470285
277 980480 159247
278 846291 358600
279 842748 650627
280 949887 322517
281 509921 559039
282 516572 677404
283 316757 804804
284 729296 957422
285 928539 24180
286 238861 432105
287 773998 121360
288 949278 492817
289 16587 910063
290 56899 263412
291 113902 325331
292 732639 60693
293 66464 950490
294 908590 701147
295 277340 746753
296 292421 879110
297 944872 266073
298 653198 725312
299 448128 559116
300 620395 396490
301 587736 83414
302 352711 462280
303 497050 709619
304 737645 919786
305 92782 895800
306 450010 141600
307 373286 203133
308 30095 630811
309 614167 250498
310 24206 591444
311 356675 170179
312 337026 532049
313 436443 155447
314 79394 311717
315 624309 239659
316 755172 96800
317 817280 161099
318 813402 972301
319 952045 529506
320 30598 435653
321 336323 658092
322 676941 685895
323 390077 122242
324 542083 412823
325 829629 497750
326 645918 136410
327 934807 380735
328 641318 490936
329 266133 191612
330 648877 524749
331 757573 208138
332 889188 657129
333 559476 791917
334 464659 687391
335 813055 907853
336 88727 201344
337 420868 526455
338 945526 220265
339 235372 956291
340 890730 945507
341 889313 887781
342 662839 99560
343 482085 547033
344 207612 160151
345 601622 21484
346 507641 264653
347 716450 122745
348 346925 134979
349 237223 150485
350 740368 169812
351 886870 585792
352 522092 884121
353 608437 758136
354 473570 835246
355 898649 94284
356 283323 105982
357 589989 627393
358 17107 492920
359 491687 766442
360 310203 424496
361 554694 314174
362 947022 643242
363 20982 502935
364 679251 536747
365 918018 187390
366 746694 400125
367 57641 796445
368 662183 783331
369 297792 35446
370 82452 989165
371 55345 441169
372 849947 177125
373 466789 193467
374 317631 73207
375 101762 843989
376 455728 700476
377 232467 552978
378 423118 486744
379 528150 725646
380 221938 825105
381 460343 438124
382 752793 909484
383 38939 842154
384 256034 412863
385 160603 823640
386 175288 418480
387 664680 466213
388 968768 854218
389 81706 394043
390 220124 534238
391 974785 953604
392 314808 92912
393 727046 308570
394 647331 148157
395 757506 820029
396 527297 884928
397 874843 258812
398 813877 636865
399 776489 383734
400 208357 612571
401 111760 923587
402 853083 567523
403 869204 502123
404 385667 139554
405 825932 114548
406 839412 379993
407 968140 401908
408 297807 575415
409 563280 493981
410 95606 402073
411 65664 872300
412 204506 548032
413 711879 251700
414 565396 97156
415 597008 466645
416 468551 942151
417 568111 105576
418 694825 594792
419 985464 912900
420 795104 151631
421 745289 153350
422 52550 355432
423 754364 654997
424 680421 326811
425 546933 562176
426 71468 679332
427 786725 741711
428 144019 169609
429 355476 747507
430 872697 274412
431 516659 472767
432 344449 674300
433 369258 686062
434 327442 612708
435 647544 642810
436 894993 236469
437 947047 533430
438 330605 386332
439 85575 462795
440 404012 542269
441 896224 817889
442 224458 322595
443 949986 995784
444 597701 893810
445 736317 8763
446 267349 372755
447 265356 152294
448 256637 508820
449 206303 519120
450 24826 368032
451 569422 217626
452 922798 4664
453 665952 253579
454 454873 464129
455 791725 148235
456 571907 461665
457 11190 863934
458 7063 143903
459 207411 192155
460 417663 860438
461 479758 808322
462 587881 279511
463 73388 677366
464 313670 942383
465 867477 77026
466 931458 621445
467 671069 255776
468 970362 434558
469 806699 360524
470 315532 806083
471 788373 405546
472 476147 875878
473 529005 459027
474 784874 985844
475 78905 579270
476 195149 263920
477 651642 947800
478 436573 947976
479 546556 667022
480 34302 231393
481 446879 94349
482 148596 985642
483 359862 166361
484 985517 135311
485 334928 548035
486 359028 221566
487 113249 838392
488 665289 215838
489 156679 640080
490 842938 125411
491 130810 646648
492 908081 636084
493 630146 837109
494 472849 685427
495 895914 804000
496 449041 671387
497 25595 767496
498 447054 566806
499 292296 637755
500 210588 313166
