NAME : portgen-300-305
COMMENT : portgen N=300, seed=305
TYPE : TSP
DIMENSION : 300
EDGE_WEIGHT_TYPE : EUC_2D
NODE_COORD_SECTION
1 505702 12354
2 688686 906282
3 74483 507054
4 145026 134024
5 335069 165133
6 983332 245938
7 239786 598197
8 838763 327088
9 177969 762666
10 629073 805631
11 164362 589514
12 628988 190609
13 90581 472848
14 358955 466130
15 518956 605540
16 259722 393142
17 617539 634621
18 163158 53117
19 253056 146359
20 474296 973464
21 265581 876338
22 38443 777070
23 271646 179861
24 962952 169953
25 47893 518470
26 527940 489489
27 601623 739595
28 78515 112559
29 394814 54065
30 743123 21366
31 253997 998666
32 659727 361605
33 899551 106993
34 207494 462715
35 326550 658902
36 364136 8016
37 714772 110603
38 277691 674873
39 987890 889392
40 112094 978021
41 78033 304890
42 723007 497589
43 351543 261056
44 733414 255934
45 735069 56165
46 845622 790340
47 819808 815394
48 609328 257564
49 161566 927840
50 499379 596773
51 191971 73559
52 57859 69872
53 440436 223049
54 766482 104033
55 388052 817459
56 379144 138880
57 318995 686958
58 175743 463656
59 178858 844332
60 752277 641987
61 945426 279654
62 963336 729777
63 466930 290576
64 950157 644900
65 670166 54641
66 908391 883856
67 501340 294635
68 598877 939152
69 985894 36048
70 321846 887886
71 82197 889082
72 503656 93082
73 110738 565967
74 827004 90030
75 348464 318751
76 307407 516665
77 257673 444738
78 688382 308114
79 572219 763223
80 470995 501283
81 237155 730433
82 782187 500166
83 735261 490062
84 635224 225913
85 576219 609775
86 636652 88827
87 495868 433525
88 334579 428761
89 21981 518597
90 41395 158816
91 718356 186933
92 173905 168882
93 817486 177958
94 101669 1174
95 559373 108814
96 303928 759981
97 459829 712070
98 251233 993369
99 393214 70130
100 758502 681977
101 543986 308406
102 48635 189647
103 600395 120474
104 342760 88791
105 627252 510424
106 206444 571045
107 203850 362180
108 197355 477174
109 270603 70116
110 248932 741891
111 96848 565093
112 467410 894241
113 65788 328245
114 40192 306220
115 833130 214105
116 86000 933190
117 891345 530971
118 952371 147311
119 983083 811725
120 971527 340312
121 907354 31553
122 752242 817481
123 11966 738835
124 292570 565587
125 646282 922988
126 953177 86993
127 237000 544397
128 595976 610796
129 417061 517663
130 237275 453083
131 137391 531035
132 117263 286940
133 603070 174891
134 818803 386368
135 350214 458520
136 184603 705016
137 423834 325943
138 788714 9854
139 328093 923013
140 298265 454991
141 911184 522528
142 68944 380046
143 76713 554965
144 815926 604405
145 927901 777480
146 328508 596714
147 461510 513006
148 155708 202337
149 607718 426298
150 28767 2111
151 410742 369557
152 267322 191290
153 11803 430649
154 18048 856953
155 467683 41010
156 794870 812655
157 589762 459795
158 124575 540676
159 69524 604256
160 131231 400732
161 567172 392504
162 357600 348102
163 47778 815046
164 437694 232544
165 314139 358064
166 991806 471139
167 455329 257254
168 660121 98528
169 932765 609149
170 255470 536037
171 485441 211669
172 473173 527168
173 210308 936003
174 239114 113408
175 465228 340661
176 764642 375174
177 112158 670703
178 10304 939602
179 914227 10067
180 531169 913275
181 497883 408898
182 601483 931646
183 555569 583201
184 339482 62593
185 249487 188572
186 301562 956116
187 139028 790569
188 636089 191997
189 280345 686897
190 337798 108175
191 900818 427626
192 701374 400864
193 860181 582907
194 869655 523683
195 701685 76919
196 759046 870172
197 359662 66898
198 234475 529325
199 72641 682603
200 891079 18310
201 655657 552216
202 775609 357053
203 439842 337016
204 673800 711294
205 810521 427397
206 69947 390544
207 308382 454249
208 154229 627711
209 49236 534585
210 697170 26243
211 510560 656878
212 171514 231176
213 532914 749345
214 180506 781974
215 350727 299073
216 518197 569051
217 876375 910401
218 38228 510274
219 119244 247124
220 246635 232470
221 533671 335070
222 826512 675442
223 566359 102167
224 698657 128485
225 533983 485129
226 348819 290666
227 331876 592005
228 500112 86606
229 675841 865208
230 318825 929568
231 217771 426675
232 464659 578050
233 893725 734876
234 564032 632940
235 887890 52061
236 929053 920750
237 602 212041
238 677423 219893
239 325002 579508
240 731064 446308
241 73504 315297
242 463149 421158
243 81301 91522
244 104391 298324
245 16675 303351
246 946242 486304
247 359234 194573
248 303417 612921
249 334468 614471
250 998018 346465
251 777165 119148
252 397421 87674
253 411625 33522
254 827517 910717
255 510703 408589
256 982214 377516
257 848533 15473
258 983325 731467
259 67440 270085
260 274633 280804
261 400407 949560
262 634921 541424
263 274895 809904
264 523328 912927
265 800415 643901
266 392376 414284
267 68804 322474
268 464094 695988
269 466764 447675
270 437832 349834
271 24081 834306
272 23690 735871
273 902943 996681
274 851382 817809
275 919678 493512
276 89592 421540
277 814055 354116
278 954089 362881
279 50343 74947
280 623580 715637
281 566758 379841
282 472885 160869
283 384507 147908
284 353825 112661
285 112529 986644
286 880084 249631
287 350407 781121
288 191212 978867
289 135505 280804
290 587335 912014
291 759560 448381
292 289347 84778
293 77143 12534
294 941399 907935
295 937966 316185
296 342163 354102
297 335145 451188
298 469749 774450
299 483898 242569
300 544659 924076
