NAME : portgen-1300-1307
COMMENT : portgen N=1300, seed=1307
TYPE : TSP
DIMENSION : 1300
EDGE_WEIGHT_TYPE : EUC_2D
NODE_COORD_SECTION
1 16212 538058
2 648561 801855
3 997251 833539
4 52435 763228
5 39507 700134
6 755204 887907
7 384811 632591
8 675067 930208
9 334852 995859
10 809690 990319
11 169439 503362
12 450708 442801
13 302713 352622
14 388688 699906
15 810184 915452
16 652502 329604
17 221297 322700
18 528061 200234
19 465551 478767
20 539913 295551
21 185757 749996
22 347737 924539
23 893504 708660
24 262572 233995
25 343122 282262
26 826931 755137
27 523175 627001
28 934403 686608
29 316761 325860
30 273794 797017
31 367987 573667
32 223315 743956
33 514377 5208
34 540170 460272
35 739087 966406
36 667635 100856
37 652736 527428
38 163387 414302
39 980187 823707
40 508398 616105
41 35861 62827
42 426111 13166
43 547464 78834
44 106289 477341
45 808323 522852
46 660064 5279
47 739680 573506
48 627915 84901
49 97259 820309
50 761151 479201
51 728472 438864
52 725597 727017
53 246401 764104
54 329025 510008
55 79536 855568
56 580318 839419
57 517537 750941
58 136953 362708
59 833987 649809
60 116040 429475
61 907948 719860
62 699120 259885
63 237934 228770
64 375259 925719
65 281026 399283
66 85277 470179
67 744171 652830
68 35786 196441
69 545289 675169
70 876213 184755
71 244847 456480
72 361300 378847
73 614903 940203
74 306158 479794
75 335572 399144
76 709642 171540
77 539282 361868
78 393924 258293
79 694693 72766
80 691230 49960
81 218815 653855
82 633794 894780
83 610721 123838
84 478119 138690
85 136037 196749
86 56550 354192
87 314237 716896
88 719833 736407
89 180578 337252
90 865960 979640
91 534077 302492
92 234488 231066
93 180467 431421
94 836384 849390
95 42108 911948
96 718321 406599
97 539131 679463
98 128205 890654
99 142243 644404
100 659013 878495
101 759625 968905
102 613834 355931
103 865067 407149
104 937052 308215
105 181400 962503
106 421909 845303
107 30658 779282
108 331638 812216
109 114723 954331
110 766575 720066
111 981595 833714
112 479676 257541
113 437123 87644
114 740358 958305
115 851828 312683
116 799355 872362
117 155852 903457
118 557731 688773
119 271834 455206
120 899428 368251
121 316697 882053
122 82814 322042
123 930352 884607
124 926922 281589
125 242340 40560
126 150295 183937
127 792575 346329
128 79140 887263
129 813053 710376
130 798200 176293
131 135315 481845
132 408787 813148
133 645805 539856
134 762488 708615
135 848929 447031
136 885293 833133
137 711991 726015
138 569770 797657
139 41138 133346
140 178401 549860
141 274591 29981
142 160105 675535
143 177368 317510
144 463574 342703
145 257652 17874
146 926285 563218
147 606277 452397
148 482958 483564
149 170062 356799
150 752271 132694
151 843468 793575
152 103188 692479
153 765969 120314
154 23832 117040
155 168961 761630
156 423688 470350
157 452724 780325
158 250007 572097
159 875568 956390
160 330190 162241
161 369793 405688
162 956344 716234
163 603562 91717
164 729945 19511
165 960046 449456
166 773825 924097
167 964384 416771
168 126171 804241
169 577256 379779
170 425527 605270
171 441942 507184
172 12512 95410
173 648080 520596
174 606873 890043
175 848834 391240
176 753618 150550
177 396753 302814
178 358869 919370
179 829190 686416
180 566308 961728
181 543057 644052
182 691513 563690
183 319688 916504
184 457837 357314
185 132244 729411
186 965223 985524
187 107555 938949
188 408622 219243
189 8935 653530
190 357364 684191
191 262526 43528
192 453202 998318
193 906399 129772
194 232584 400694
195 97083 209666
196 346403 219942
197 247534 696115
198 640047 456417
199 399628 73563
200 686787 428837
201 511661 953343
202 532678 164642
203 128714 710089
204 697347 398435
205 396415 229096
206 686786 428496
207 589333 356641
208 615324 323114
209 396518 995397
210 923643 863270
211 516875 384274
212 670526 703406
213 217750 11880
214 452845 942912
215 810235 698532
216 521895 610499
217 257114 128267
218 997405 834029
219 454195 96561
220 382993 583284
221 733254 237186
222 477050 233812
223 692791 962129
224 549416 544127
225 478365 628166
226 3571 456716
227 263327 988255
228 906942 901161
229 696228 404410
230 167237 294684
231 255894 600786
232 15442 813130
233 495842 449599
234 951446 355520
235 663850 653195
236 773697 852390
237 517031 295476
238 859698 60159
239 120946 682270
240 796464 316588
241 315651 48434
242 775675 515550
243 442637 921108
244 595057 443984
245 632425 547806
246 882582 98674
247 432710 729798
248 809586 880864
249 720154 181573
250 374113 632631
251 841182 867145
252 747663 161777
253 312515 955136
254 681040 747777
255 545617 985834
256 306103 252244
257 771985 619430
258 412102 157220
259 168075 285643
260 3543 614978
261 729444 769873
262 981407 31219
263 812012 906552
264 104726 355254
265 982961 904561
266 379119 373169
267 136653 810630
268 10484 63406
269 276449 156244
270 103448 285417
271 753032 309413
272 440440 17447
273 818361 112709
274 117267 401491
275 917785 903034
276 776137 364900
277 198611 469551
278 253512 468013
279 730491 937033
280 151292 249109
281 678687 524795
282 644328 260199
283 232801 996690
284 811804 754538
285 801068 299393
286 39953 766584
287 367858 100509
288 838841 364544
289 571261 511855
290 777706 343999
291 176060 167693
292 203962 733851
293 225874 854323
294 728840 876454
295 577828 13794
296 251601 521910
297 355176 804055
298 245463 986448
299 941555 339930
300 178605 453817
301 541447 605411
302 623784 573785
303 726974 608444
304 160938 464760
305 243677 399188
306 739172 854037
307 359205 137497
308 997507 156776
309 169619 840273
310 14736 246353
311 55134 471873
312 575932 347250
313 757945 434541
314 142799 794073
315 373534 230397
316 203605 106501
317 268177 378518
318 604827 322022
319 808488 66464
320 736344 69097
321 684704 888567
322 861718 331474
323 958659 779728
324 945978 7925
325 46109 810922
326 843648 147481
327 966396 948208
328 250212 434945
329 337234 245266
330 968958 404952
331 799955 94473
332 728415 174579
333 714484 850605
334 992319 27730
335 178837 217779
336 210798 161694
337 794163 203813
338 402704 907653
339 505477 627723
340 97038 322999
341 97307 897532
342 825115 968582
343 430441 109131
344 378085 93598
345 664033 754222
346 329702 780757
347 887626 518564
348 858299 523009
349 94403 657904
350 928770 51006
351 274250 318254
352 910886 723109
353 713614 946116
354 322366 997813
355 517767 141080
356 56860 243635
357 581233 214735
358 75249 19198
359 206847 209851
360 316279 191475
361 756201 334415
362 98959 127831
363 943529 892543
364 250808 71053
365 490199 456588
366 585286 507663
367 109956 955958
368 266139 853671
369 316298 610379
370 893333 411242
371 902284 168234
372 777318 472558
373 998021 995286
374 681797 759795
375 575035 965756
376 272201 23350
377 167704 472182
378 465719 766586
379 208298 954927
380 456969 859942
381 629817 711986
382 104480 106524
383 238795 888625
384 466317 108675
385 216714 79962
386 337400 447051
387 634815 350523
388 919273 732851
389 166710 626777
390 662111 176942
391 684244 295880
392 614083 630256
393 826770 873299
394 403183 3431
395 717162 377514
396 387354 207623
397 393664 813370
398 73842 455232
399 533418 426795
400 553284 265169
401 828575 55020
402 97683 398093
403 281512 976321
404 409266 537447
405 645411 592419
406 363402 204867
407 237765 79455
408 472587 422193
409 318321 291109
410 32682 783563
411 355207 39521
412 555390 951544
413 251386 282380
414 349368 236722
415 69010 942952
416 323585 629263
417 981365 69691
418 813539 479376
419 58115 534628
420 157669 404576
421 554977 112074
422 970749 933599
423 22306 347833
424 652232 442120
425 561984 791462
426 105864 296695
427 357784 610332
428 941584 199312
429 73654 27991
430 584553 802135
431 918206 874637
432 379778 240834
433 37441 251328
434 234118 304165
435 57149 124754
436 769961 876201
437 729125 241219
438 677698 58511
439 681737 945058
440 9959 52073
441 208725 321376
442 652168 266875
443 24746 448947
444 249484 740531
445 32249 562210
446 245258 753949
447 477478 32914
448 634615 678776
449 382948 729529
450 255901 963794
451 666095 707174
452 432160 509910
453 582736 784487
454 644526 90908
455 585585 492637
456 949828 333123
457 995742 22343
458 556876 164256
459 397159 346863
460 606219 358665
461 868380 504588
462 48264 93354
463 458658 62787
464 444041 219215
465 658482 893210
466 413985 590828
467 359472 517322
468 102245 875602
469 325634 629825
470 709999 860489
471 51787 902620
472 134311 673584
473 693830 740670
474 705685 384124
475 574256 571828
476 234735 163733
477 71046 362690
478 549809 75267
479 347701 914838
480 407665 707134
481 458853 14700
482 380909 725096
483 440849 47207
484 198811 322157
485 328512 816205
486 458571 13035
487 772607 34390
488 123930 704646
489 433541 685573
490 543545 383390
491 715085 529203
492 811550 951348
493 434356 399284
494 209918 634376
495 76472 55037
496 676790 3476
497 301313 893793
498 401918 38752
499 130012 99921
500 549654 989184
501 307128 20111
502 840578 190865
503 856742 705532
504 352183 119698
505 928333 150524
506 865349 713324
507 838365 352627
508 30343 455377
509 713387 487116
510 323178 402096
511 917195 98890
512 772503 339328
513 509077 438459
514 172456 581742
515 177647 418398
516 352462 313843
517 757240 393020
518 518041 1760
519 690837 458922
520 921005 978979
521 685897 722801
522 311198 674375
523 137842 577900
524 230973 961985
525 384716 963458
526 866296 548270
527 922273 131255
528 636721 993285
529 262870 447557
530 672823 854982
531 14694 893261
532 198692 949353
533 464627 142547
534 402126 163989
535 214785 452443
536 224404 751402
537 102400 359719
538 535800 368924
539 176617 641247
540 702606 515791
541 175588 724898
542 908918 322665
543 403704 459201
544 115150 807886
545 928393 375494
546 599634 526848
547 244136 468562
548 754575 934495
549 620401 951478
550 138575 768917
551 401283 589725
552 259378 868924
553 787869 141397
554 639352 599607
555 727551 177520
556 878135 454984
557 519164 297329
558 255347 487845
559 649124 730130
560 194778 530132
561 522145 450648
562 25414 445867
563 51159 634678
564 492023 233476
565 571849 394402
566 729571 577009
567 913695 525086
568 637656 720604
569 205733 611589
570 67317 915858
571 810076 385019
572 613108 398260
573 853348 148985
574 501434 798269
575 417402 119896
576 442471 386925
577 379628 744172
578 39346 824273
579 676029 734292
580 231268 67265
581 935664 27763
582 532289 811693
583 367443 493115
584 841875 120903
585 443980 106362
586 986411 850855
587 312728 74881
588 87660 135220
589 71019 281241
590 406521 226886
591 958649 757731
592 2208 504584
593 458738 701808
594 44719 102002
595 157642 144540
596 878729 84829
597 167608 960955
598 929446 959221
599 72291 538227
600 310600 718128
601 77966 220193
602 391747 190516
603 161247 684740
604 384717 875044
605 285434 337537
606 779553 574027
607 576649 86727
608 188536 850834
609 860154 571334
610 882246 408222
611 420824 303648
612 810303 725851
613 28395 766218
614 459108 122212
615 913634 402920
616 750502 195975
617 995806 68984
618 447332 384622
619 181081 915480
620 316048 607904
621 841654 473385
622 219755 749420
623 723716 575080
624 274525 441757
625 932559 163228
626 500113 950078
627 624593 907679
628 967625 881991
629 224386 322763
630 743183 776625
631 503658 469236
632 558995 677530
633 495883 306167
634 354271 827228
635 363010 613455
636 576308 418397
637 638774 719018
638 908109 470745
639 679055 902624
640 758225 146404
641 541831 136344
642 379028 137008
643 899262 281266
644 636979 318276
645 573100 141164
646 30350 353853
647 552469 702593
648 31595 423257
649 834611 500737
650 841311 252970
651 896025 371901
652 683531 786155
653 621396 363768
654 571049 487584
655 8417 686359
656 245011 906110
657 749662 602018
658 746274 149805
659 916766 856401
660 645934 72626
661 471555 853534
662 985917 110040
663 717429 204406
664 734865 852618
665 97621 544340
666 899696 191471
667 894206 71866
668 901393 635721
669 386681 777010
670 390734 749456
671 364499 780577
672 672341 500474
673 669608 176816
674 367935 442429
675 985163 827188
676 688391 981993
677 403115 296970
678 353274 704554
679 477694 611664
680 884762 985674
681 977086 794039
682 96849 258960
683 321859 464433
684 233768 249187
685 932409 569458
686 781869 474337
687 871238 818745
688 384234 489562
689 450418 688947
690 756766 12875
691 726711 123200
692 967856 111946
693 567254 105656
694 94621 635246
695 750006 436959
696 401953 137494
697 844600 821275
698 967587 890161
699 909339 853596
700 116240 180046
701 726397 678988
702 685662 972287
703 100477 565191
704 14137 291168
705 729716 247617
706 609932 842448
707 861658 447802
708 583721 839592
709 949438 275574
710 291373 431698
711 555094 380172
712 132947 752363
713 843061 102881
714 788675 898950
715 718268 819043
716 475425 159250
717 959230 509149
718 402943 884263
719 261542 520053
720 528225 727661
721 156218 819047
722 343873 318308
723 881865 21780
724 4546 92237
725 978214 864706
726 101486 10388
727 135327 297197
728 704620 567147
729 719757 176512
730 569344 216213
731 303648 494084
732 762943 2054
733 91398 790885
734 498575 543349
735 565937 561940
736 835045 857201
737 297359 426667
738 330211 544705
739 244844 835750
740 47742 275913
741 383123 612162
742 329605 502055
743 515394 981341
744 396306 957175
745 417750 612057
746 385688 718192
747 954115 966284
748 892615 299017
749 521687 917206
750 988097 337159
751 776936 168796
752 44494 702300
753 481582 489324
754 680782 633272
755 781802 723279
756 170840 762581
757 758761 957287
758 830525 585456
759 539968 796659
760 109439 792381
761 269197 581369
762 555252 228777
763 785004 666248
764 812706 595058
765 945084 840887
766 863922 611572
767 53947 324463
768 105073 620542
769 853400 372318
770 671529 929938
771 441372 599646
772 847736 625369
773 342860 804318
774 162939 725337
775 181279 226367
776 486310 926629
777 972121 147209
778 473237 165363
779 114849 720031
780 597227 861040
781 635923 308463
782 961742 851863
783 281906 571193
784 914844 133392
785 614426 26206
786 422516 814630
787 615379 883071
788 306070 342568
789 609248 408043
790 755540 619640
791 551399 92674
792 997831 84044
793 204963 555458
794 649829 202083
795 42556 533879
796 705697 720008
797 757891 645323
798 507422 626742
799 984267 964664
800 319298 291
801 195070 754896
802 969797 561639
803 674967 393636
804 928797 888076
805 942245 917778
806 515534 912765
807 677475 63348
808 155343 915915
809 550572 316419
810 344441 655164
811 586926 950179
812 814093 614135
813 831135 667619
814 844832 53740
815 208104 912434
816 413770 721171
817 465797 837761
818 104106 638634
819 415198 934482
820 928701 289048
821 4886 333410
822 857642 387391
823 946952 755517
824 905914 143756
825 814187 839803
826 781909 930527
827 756560 406864
828 586521 473899
829 289099 132035
830 457533 36332
831 978437 994314
832 959375 653197
833 912891 182124
834 55122 290084
835 116395 399825
836 10000 406815
837 502231 504637
838 873255 656399
839 193619 407228
840 27613 357236
841 378519 712797
842 596207 171771
843 933996 419455
844 761796 812600
845 924870 921982
846 583512 125114
847 818087 528875
848 279047 598071
849 831178 353005
850 514135 290553
851 561897 498685
852 116142 456950
853 461283 69111
854 334319 584788
855 472867 167065
856 712102 476499
857 207165 535550
858 452820 853322
859 176227 430499
860 374149 314820
861 350945 702117
862 775948 825842
863 837928 511315
864 290672 45280
865 43353 804143
866 322079 608830
867 934361 860547
868 645133 902020
869 505631 60656
870 718950 80674
871 243227 331296
872 438450 610050
873 571036 881394
874 349166 992245
875 690947 767732
876 307398 785897
877 309651 709991
878 968473 953066
879 564324 255595
880 811817 559262
881 563479 273663
882 865837 392193
883 923838 380806
884 38048 597115
885 964514 571426
886 504156 183981
887 739552 606417
888 7421 565047
889 392466 65956
890 857368 884861
891 946990 35077
892 233463 484090
893 240663 48416
894 742993 542167
895 936709 264327
896 863972 908516
897 96141 147524
898 576518 59246
899 591743 832033
900 602629 5988
901 488928 283209
902 134877 806085
903 820742 272321
904 552434 825560
905 469328 920057
906 210073 22157
907 318885 547489
908 695290 654963
909 177521 718313
910 815674 864591
911 789062 206014
912 994485 958525
913 82497 220946
914 49104 933467
915 785674 735099
916 12613 566906
917 596628 937311
918 674788 924833
919 716192 685973
920 788800 585700
921 870894 24679
922 726492 72117
923 475264 657958
924 914031 137615
925 65026 355572
926 10141 658276
927 46358 867529
928 993374 922022
929 686581 197565
930 131297 895908
931 556129 866460
932 36759 883627
933 49162 185393
934 295664 246767
935 72224 37332
936 740932 39905
937 653286 460102
938 854450 130785
939 159655 126956
940 965151 160475
941 534364 851538
942 802170 889766
943 178970 146153
944 530146 713001
945 888148 489394
946 629169 469424
947 613748 751468
948 844768 830988
949 371393 266390
950 217666 344478
951 498302 787074
952 172464 904551
953 821207 158602
954 856106 156592
955 688559 847221
956 391876 973580
957 309417 641902
958 266739 86704
959 252711 285291
960 38858 218174
961 814000 29274
962 29100 727745
963 539030 953857
964 867441 748735
965 638895 695848
966 274679 3062
967 438397 117929
968 768599 560784
969 542121 160267
970 623026 92266
971 893441 244854
972 674142 669974
973 675394 599895
974 440324 886002
975 212438 890911
976 963547 622658
977 627494 521818
978 69799 495239
979 348677 54535
980 135951 260422
981 616480 695838
982 533566 596293
983 953779 147021
984 299437 639443
985 966508 666844
986 646379 366708
987 72853 147947
988 254626 191342
989 401779 507282
990 657946 43790
991 605179 812906
992 612783 378472
993 79367 578841
994 469496 842104
995 164150 621578
996 261346 902677
997 193759 956181
998 445886 526732
999 172001 526195
1000 415347 484051
1001 198115 933042
1002 228056 168647
1003 285731 150641
1004 9874 249021
1005 442450 490957
1006 25742 506573
1007 890384 514373
1008 999075 713803
1009 502078 577384
1010 150406 427046
1011 975019 773242
1012 224096 482456
1013 468728 713337
1014 138652 904206
1015 862216 103984
1016 181467 152757
1017 64831 166989
1018 18048 98606
1019 922521 98409
1020 379397 365564
1021 76763 892111
1022 691697 737103
1023 646558 488104
1024 678581 711303
1025 487453 732548
1026 388080 267795
1027 663979 311362
1028 302584 45358
1029 868210 61066
1030 150599 187125
1031 228120 911465
1032 869624 76886
1033 414194 133630
1034 814876 153281
1035 867814 510971
1036 35222 790775
1037 89931 417858
1038 38966 707224
1039 109263 912733
1040 179871 423370
1041 845127 77586
1042 753607 675090
1043 875864 270002
1044 283133 987945
1045 752794 884417
1046 283729 769239
1047 230594 868425
1048 330342 285987
1049 802180 273838
1050 698136 939334
1051 378840 765847
1052 531431 64082
1053 887420 310494
1054 514188 988888
1055 435498 32582
1056 762224 880264
1057 308271 266181
1058 903395 458881
1059 680870 1198
1060 746543 128206
1061 331450 541037
1062 455145 928480
1063 132130 269374
1064 259343 25849
1065 530437 728472
1066 193036 120375
1067 477235 147289
1068 661145 964862
1069 769314 487425
1070 771695 416983
1071 589131 281934
1072 241401 624588
1073 552966 742691
1074 314094 302113
1075 736295 60968
1076 26643 776331
1077 743400 969663
1078 746298 258465
1079 288612 384141
1080 402936 922558
1081 541179 26762
1082 217192 18514
1083 443450 480290
1084 638862 683683
1085 713215 160703
1086 144787 378756
1087 264903 685575
1088 101562 555119
1089 797637 485481
1090 182182 873665
1091 980761 875202
1092 622912 607879
1093 187293 166273
1094 903183 458720
1095 703838 180855
1096 325999 85630
1097 774210 610992
1098 272196 210374
1099 17031 555826
1100 523025 997847
1101 945054 828612
1102 119931 862629
1103 80206 151441
1104 153418 135521
1105 782370 580024
1106 355281 829892
1107 680302 222080
1108 596558 455548
1109 252552 606199
1110 746318 233076
1111 463258 83036
1112 160657 715367
1113 215648 316174
1114 258825 402274
1115 605368 950120
1116 401701 662116
1117 703110 602157
1118 518383 150868
1119 194899 400832
1120 11321 731744
1121 913720 296983
1122 712401 470762
1123 717596 242962
1124 924972 58842
1125 395344 956021
1126 951549 614757
1127 950457 572904
1128 596146 282938
1129 125501 517773
1130 344245 929337
1131 956542 752585
1132 124199 50626
1133 666304 58298
1134 117490 209539
1135 504483 353595
1136 530576 193710
1137 210855 790296
1138 281527 848501
1139 132579 587753
1140 119221 932710
1141 190672 741052
1142 58028 676030
1143 993578 649115
1144 537916 652484
1145 935853 460085
1146 33378 985359
1147 896348 657725
1148 201168 720010
1149 86127 922105
1150 189235 869095
1151 110383 337219
1152 939621 462633
1153 765349 210496
1154 556728 274426
1155 579325 947031
1156 745021 473017
1157 581919 884160
1158 895959 971182
1159 856237 466474
1160 849458 946293
1161 972170 195385
1162 20304 635388
1163 243211 193356
1164 254088 748221
1165 24946 71030
1166 291773 858152
1167 8427 172189
1168 187688 717654
1169 159132 173868
1170 780071 22395
1171 792878 71441
1172 803025 989559
1173 487914 837993
1174 965055 260960
1175 414513 7811
1176 465921 337905
1177 897158 118205
1178 577321 252231
1179 328791 767431
1180 274945 47695
1181 51364 382860
1182 494355 556930
1183 154153 673579
1184 669992 592360
1185 396245 57966
1186 6127 595277
1187 51960 841647
1188 480371 634264
1189 298226 902098
1190 58066 990980
1191 864564 486656
1192 473276 977251
1193 19665 908913
1194 363796 451497
1195 18036 514108
1196 47661 566772
1197 777623 722104
1198 16268 197600
1199 19481 961378
1200 509187 853650
1201 539766 62956
1202 202893 423533
1203 143246 979265
1204 864629 919906
1205 98540 668408
1206 888434 877294
1207 749394 760836
1208 33 484592
1209 605237 772250
1210 540661 956552
1211 654098 708614
1212 83172 542595
1213 518199 943170
1214 392383 628427
1215 698400 501106
1216 769635 378320
1217 803558 389658
1218 102546 987270
1219 737262 712439
1220 977218 535073
1221 303675 591546
1222 910835 61484
1223 860009 339047
1224 483599 235027
1225 203904 73097
1226 805217 391053
1227 262977 8081
1228 84014 161446
1229 259398 813235
1230 320987 155976
1231 242003 152189
1232 942687 563467
1233 364732 296888
1234 966458 687909
1235 900826 660985
1236 993 370209
1237 568345 467563
1238 151335 263044
1239 445636 75091
1240 458580 356753
1241 683771 579148
1242 307440 542424
1243 259103 617446
1244 435632 240091
1245 24925 805658
1246 20811 49352
1247 811613 316233
1248 534079 933466
1249 23200 443272
1250 910149 596965
1251 893411 408507
1252 776447 847151
1253 389326 226068
1254 83613 720553
1255 748977 466568
1256 725813 19307
1257 788309 515329
1258 135164 192650
1259 340576 626454
1260 29387 431266
1261 273687 523186
1262 777760 303861
1263 767574 592485
1264 593762 721194
1265 78237 925266
1266 179431 725082
1267 326114 992012
1268 630940 664464
1269 790838 792111
1270 407259 66452
1271 276870 809177
1272 210704 593659
1273 531970 497625
1274 271592 507751
1275 548658 941594
1276 339704 302005
1277 365034 984883
1278 417533 168328
1279 82393 784434
1280 216210 724861
1281 435229 291502
1282 313293 682524
1283 189698 916635
1284 808602 194650
1285 983358 637538
1286 921058 832824
1287 77796 87792
1288 91561 971682
1289 158151 792877
1290 886327 599246
1291 510091 809327
1292 504984 353376
1293 490036 887929
1294 411789 643589
1295 802314 714304
1296 855861 596187
1297 808752 769721
1298 145394 444045
1299 731381 122912
1300 502097 560287
