NAME : portgen-500-506
COMMENT : portgen N=500, seed=506
TYPE : TSP
DIMENSION : 500
EDGE_WEIGHT_TYPE : EUC_2D
NODE_COORD_SECTION
1 66193 312421
2 914170 804495
3 340428 135421
4 913877 724313
5 623085 967064
6 323797 368728
7 753908 377552
8 446645 184600
9 904050 662738
10 288059 139087
11 147417 997381
12 970471 351977
13 827745 730168
14 242165 78893
15 876777 871301
16 434322 598959
17 358413 551092
18 604621 474844
19 675922 742980
20 900633 585978
21 977113 821054
22 627433 141982
23 875432 866776
24 630840 646872
25 927475 342344
26 465163 336191
27 307443 944554
28 896911 467234
29 954007 363077
30 199874 865583
31 459498 170897
32 823680 37107
33 989951 502742
34 741294 611926
35 502119 579868
36 553760 257178
37 735262 945714
38 673923 811226
39 689938 25916
40 455065 360511
41 776160 879087
42 879019 11193
43 411802 263424
44 775278 321306
45 561141 101878
46 733549 63996
47 240860 320764
48 32218 719934
49 85792 681718
50 468058 64206
51 176838 604923
52 191806 566964
53 566184 586075
54 457172 296250
55 532751 633487
56 691955 632701
57 801936 97996
58 132034 395502
59 930037 502916
60 4888 270016
61 416950 59576
62 143867 437912
63 403030 948836
64 65372 168298
65 379530 87847
66 354054 393688
67 493165 821578
68 668556 143459
69 77150 781022
70 879159 16300
71 333387 272362
72 316417 291124
73 684927 673973
74 920128 802947
75 917734 83381
76 654562 917493
77 302187 380210
78 710152 783150
79 111757 370228
80 898407 422725
81 508925 676149
82 417090 516451
83 300099 419592
84 316284 510811
85 413069 458060
86 475374 127089
87 585181 921507
88 615453 499456
89 757388 763657
90 727760 619879
91 837079 695144
92 269890 956805
93 578922 677904
94 976597 976714
95 521479 248964
96 827175 566338
97 367952 421098
98 540925 206298
99 687180 394910
100 675671 185470
101 916585 156470
102 75187 297854
103 246302 959418
104 647603 345382
105 801288 32248
106 806552 135043
107 848748 649443
108 595549 942586
109 308196 995991
110 975525 93801
111 732411 921373
112 835140 227598
113 541475 318903
114 51902 287327
115 675204 656035
116 851853 412005
117 962369 695512
118 813327 702035
119 846395 620447
120 361255 636335
121 369707 980605
122 1189 427678
123 516552 905801
124 731197 140354
125 879623 222022
126 154395 399853
127 719705 19635
128 333617 504579
129 194101 379675
130 484527 544266
131 113022 27155
132 984126 164952
133 662540 825947
134 133853 421070
135 132890 689748
136 211388 167842
137 116368 753502
138 939405 332557
139 201668 815505
140 893981 36896
141 124801 672227
142 802800 130937
143 543012 824697
144 427879 797417
145 32971 987380
146 568181 425324
147 487556 671507
148 424947 201864
149 864236 247686
150 488273 183994
151 704133 915692
152 246373 842726
153 97220 482168
154 597053 588767
155 476622 508919
156 76699 396684
157 346704 497147
158 976084 687698
159 539598 312618
160 740004 460675
161 961710 886167
162 932797 948895
163 985615 295696
164 921469 273642
165 656282 457236
166 735504 612900
167 338882 385061
168 960196 728117
169 325523 305653
170 154853 855314
171 285099 115260
172 57412 572295
173 25669 682014
174 492527 538661
175 685892 129251
176 280395 590594
177 591403 31036
178 448489 91232
179 576810 861311
180 882529 369102
181 156645 291399
182 433914 621307
183 223820 961438
184 339272 774408
185 471477 294070
186 195170 937
187 626726 610753
188 180280 371115
189 294763 901760
190 500405 894382
191 718886 60158
192 391112 287179
193 300590 444105
194 178985 717574
195 161241 998758
196 388845 551114
197 834175 860783
198 660143 284161
199 488533 446658
200 392014 654553
201 387251 590766
202 38255 791510
203 410365 220237
204 199481 304224
205 730446 4384
206 912247 859235
207 700070 883771
208 980257 605531
209 457223 573131
210 961164 939658
211 472905 892613
212 382394 816923
213 906819 604404
214 962682 835216
215 200388 960042
216 171634 990539
217 171314 496021
218 982135 859650
219 360087 507341
220 306922 695058
221 986881 605854
222 756410 221582
223 525853 496231
224 168720 17252
225 953964 55739
226 321479 653317
227 246269 431971
228 482919 396711
229 419451 542234
230 809375 550714
231 860149 692140
232 997301 35387
233 17503 306392
234 102824 478487
235 357918 484025
236 436811 439971
237 619167 905424
238 618179 819587
239 646344 950422
240 334003 510107
241 184952 420447
242 25841 649674
243 99893 479493
244 993237 135927
245 478517 675742
246 756825 881600
247 149422 822897
248 258247 546909
249 986687 850985
250 603402 706265
251 849887 218297
252 683248 443856
253 870786 901031
254 627475 596595
255 332078 3426
256 403473 283524
257 63716 133632
258 793888 978549
259 542717 174404
260 777139 470593
261 319705 251839
262 875085 651653
263 634137 218513
264 756722 175310
265 34638 717147
266 192112 49749
267 618343 330577
268 106633 901428
269 356730 892208
270 855785 121343
271 936775 818833
272 358787 7923
273 356036 504986
274 6514 497769
275 188759 39733
276 790186 811376
277 816346 886255
278 514153 800138
279 599954 352671
280 337223 969357
281 544300 735266
282 740809 210735
283 66650 584639
284 924737 55792
285 777596 288902
286 972034 44948
287 985644 737405
288 680407 508329
289 435492 988829
290 137499 833999
291 618559 404051
292 838087 65281
293 172846 456845
294 308939 407608
295 263926 521993
296 976691 300938
297 114612 566883
298 149308 891827
299 833189 621381
300 327516 847707
301 69494 17684
302 360269 354759
303 421174 386135
304 973288 751065
305 713408 57307
306 491198 192345
307 88744 815229
308 992666 243362
309 620653 173926
310 61426 174823
311 751450 303355
312 728276 929888
313 219407 954349
314 684678 630884
315 316231 294272
316 535040 684426
317 275421 80192
318 342800 426213
319 315306 22857
320 72614 929484
321 836191 135013
322 346182 89103
323 770542 673335
324 572661 184724
325 347475 194959
326 207149 202304
327 305150 33244
328 312667 385067
329 742263 280077
330 11958 994961
331 70828 950431
332 678451 783924
333 221116 356184
334 846163 999641
335 44686 319330
336 670700 435929
337 826450 866466
338 967674 549146
339 998205 695031
340 617221 834339
341 212086 404600
342 618925 321269
343 223444 584609
344 5974 491497
345 859075 986616
346 580049 315665
347 978170 753283
348 258783 400261
349 308563 479715
350 121429 221396
351 675130 877630
352 567502 513135
353 982872 802548
354 583378 983880
355 809800 728057
356 379092 250765
357 421002 25342
358 414911 755162
359 972260 925167
360 525140 820854
361 47621 366448
362 878212 823290
363 644200 793070
364 868427 313315
365 883594 165125
366 965767 14324
367 885230 889163
368 455246 961321
369 983598 593583
370 906357 468281
371 612348 80807
372 966357 38221
373 938994 213600
374 437453 154880
375 109082 465713
376 531834 995248
377 596121 956303
378 255628 660805
379 992399 678338
380 57888 21551
381 818949 989795
382 77522 341519
383 115708 298285
384 284408 382780
385 86348 201311
386 317708 817379
387 816084 59427
388 289019 52373
389 770327 921908
390 567662 983394
391 800670 190088
392 255426 862042
393 346175 975972
394 936801 543711
395 773454 156961
396 676912 600817
397 507235 705046
398 150572 794969
399 264722 906929
400 749201 886621
401 443273 515545
402 587218 125688
403 665042 341746
404 739821 734078
405 610128 279655
406 724003 448688
407 904884 900927
408 344639 218132
409 482560 372476
410 190946 320739
411 33563 377479
412 633579 199726
413 758038 802163
414 230161 690396
415 394385 947273
416 312551 36249
417 311780 288006
418 259390 351982
419 285204 354498
420 517403 128043
421 493412 564325
422 352765 452715
423 123397 299433
424 967238 307508
425 947008 348409
426 564807 574325
427 512544 801928
428 574069 407024
429 203765 299211
430 866297 313059
431 56542 385323
432 216675 482084
433 786243 159678
434 95922 452169
435 777529 45205
436 250893 175051
437 425467 842537
438 755932 459237
439 864934 831651
440 625656 351014
441 598398 930950
442 824099 81325
443 890730 927228
444 819573 829695
445 501762 99712
446 256059 833035
447 576969 472198
448 877149 318360
449 138858 510228
450 696782 664160
451 434498 135587
452 681851 595994
453 750010 633856
454 750226 431218
455 911197 646841
456 587450 374070
457 797448 766584
458 57000 223507
459 808353 744477
460 604935 467883
461 20820 585694
462 755386 113369
463 610706 115306
464 493200 829473
465 92526 122075
466 709011 433715
467 920453 978815
468 763563 224328
469 133501 57515
470 24325 667222
471 118874 75096
472 224759 33879
473 78892 670364
474 77648 463599
475 861491 761842
476 825159 309385
477 417701 574707
478 955148 782
479 215133 703036
480 832430 525682
481 500355 692711
482 406893 243974
483 527966 512353
484 149310 763569
485 687692 386635
486 145858 344754
487 882985 843093
488 642723 711435
489 167993 180679
490 158220 609923
491 900173 790164
492 997042 566843
493 621720 16300
494 26822 676478
495 450848 251210
496 75017 369932
497 369823 637689
498 521364 774120
499 192111 381666
500 391155 367457
