NAME : portgen-1400-1401
COMMENT : portgen N=1400, seed=1401
TYPE : TSP
DIMENSION : 1400
EDGE_WEIGHT_TYPE : EUC_2D
NODE_COORD_SECTION
1 163905 76398
2 231623 127388
3 415156 47800
4 740356 526846
5 756290 239346
6 576118 676675
7 719773 653782
8 372285 376010
9 171924 33703
10 391505 444771
11 355544 102067
12 869113 488416
13 811636 766493
14 493273 41198
15 743692 507400
16 32663 231827
17 40412 10005
18 923570 661141
19 389677 867236
20 609940 497423
21 160305 380858
22 931643 139970
23 1742 422938
24 510241 611261
25 227106 90442
26 623443 81455
27 893061 931807
28 332061 932077
29 35985 221618
30 203817 754014
31 658122 873119
32 916905 258867
33 79041 195260
34 745031 579803
35 652039 949346
36 865768 560663
37 806597 301062
38 821327 274089
39 209005 937306
40 156355 879558
41 730507 271655
42 837380 989677
43 849277 159544
44 314922 781545
45 930963 728310
46 916109 809874
47 215197 660594
48 631655 599641
49 574260 630581
50 318642 727653
51 213933 572935
52 454905 347547
53 359934 351788
54 244074 903383
55 82530 172516
56 617155 254440
57 290654 475507
58 837905 848248
59 657921 256311
60 627212 479399
61 620999 114450
62 261160 924386
63 735413 292833
64 105757 459049
65 941127 469538
66 30015 305622
67 854776 983838
68 262403 476066
69 981001 361873
70 151772 1028
71 501622 58611
72 154333 451563
73 107310 801658
74 548713 290810
75 925180 338822
76 493883 115211
77 689453 849104
78 697638 908310
79 718159 471067
80 85144 883868
81 370787 882200
82 751610 81501
83 670894 558543
84 100107 839090
85 368196 36246
86 299534 367111
87 331130 288389
88 985516 505787
89 424997 412056
90 226748 827102
91 574673 634690
92 373904 57259
93 98751 147814
94 554012 773274
95 312944 703859
96 375959 141910
97 993677 115526
98 701493 134511
99 727481 865943
100 466047 601522
101 376661 136657
102 64062 98077
103 764148 859193
104 741307 632193
105 750352 549823
106 354298 944884
107 158123 381285
108 507908 228876
109 888523 636083
110 380007 536382
111 831062 234164
112 373042 766673
113 659584 162877
114 303048 233052
115 524241 126322
116 764480 792803
117 661703 676924
118 472804 629789
119 476567 992619
120 549351 869874
121 259290 917928
122 393267 776561
123 872796 141795
124 768867 227003
125 455942 538616
126 831462 494429
127 341701 339724
128 837041 583858
129 474953 387138
130 625273 134359
131 382625 748688
132 82842 880477
133 290533 436369
134 551616 381561
135 508489 366112
136 460008 661520
137 180141 841391
138 704919 336633
139 892462 33318
140 929631 75726
141 687924 915910
142 607778 389882
143 743696 15792
144 709960 781226
145 386391 36434
146 78172 95006
147 484129 183238
148 409865 597770
149 737786 551876
150 71641 536162
151 249333 735549
152 297371 380216
153 850691 915552
154 886650 951819
155 596027 821249
156 873897 693726
157 747 588838
158 56186 287619
159 264558 899604
160 470611 692762
161 698582 999740
162 309919 972326
163 116779 724459
164 364148 799925
165 990699 789367
166 449983 940642
167 437290 108382
168 201828 994198
169 915163 18940
170 333696 456077
171 751234 810356
172 310614 693629
173 337852 78432
174 785086 511803
175 66458 685406
176 233622 937861
177 561176 282274
178 86179 308690
179 298259 188988
180 178387 856493
181 389 867710
182 618123 139950
183 70014 63540
184 383112 307118
185 250986 977753
186 502533 752754
187 833145 785204
188 459139 760721
189 438563 27645
190 886146 808089
191 426199 175160
192 621538 134206
193 788978 582272
194 322519 297339
195 38368 138287
196 611085 608045
197 767953 355942
198 953543 998479
199 977210 525409
200 234489 577130
201 639869 757441
202 625657 258368
203 259207 58462
204 316323 426969
205 493295 503906
206 986170 919
207 150620 40099
208 245407 392344
209 99756 262180
210 186406 71534
211 86330 857702
212 72628 673855
213 337884 745091
214 127097 574777
215 525997 400677
216 444397 11593
217 534349 382239
218 821919 425280
219 24539 581438
220 888799 396634
221 482516 60339
222 110932 966833
223 51957 753383
224 535416 94098
225 18058 208451
226 871382 402433
227 999412 833811
228 132733 628275
229 223091 243417
230 436449 833927
231 33922 734884
232 538170 96661
233 21390 925830
234 889986 183786
235 988142 492024
236 856927 5658
237 244122 977954
238 200151 683897
239 858290 238817
240 541122 709608
241 522000 883679
242 138327 692070
243 366755 709512
244 473423 437688
245 360849 896088
246 535293 840752
247 593296 396775
248 539706 476858
249 816217 132977
250 766681 368060
251 895092 296598
252 552975 308449
253 686451 987703
254 264105 307341
255 467056 423220
256 154851 785403
257 882568 540360
258 298633 193169
259 141588 141394
260 556954 544531
261 109613 757008
262 417105 620081
263 596932 560329
264 452682 935672
265 291503 212448
266 419791 550949
267 771761 117902
268 554756 736597
269 1110 597966
270 393436 173585
271 567924 332028
272 880734 816317
273 786475 778284
274 423647 973214
275 799843 979377
276 24176 880544
277 841474 554233
278 948268 344143
279 524837 435073
280 753692 949854
281 986593 666138
282 913905 293470
283 855296 822823
284 904668 66251
285 753885 520349
286 769522 168374
287 341551 577577
288 520355 229068
289 915534 862871
290 671813 252788
291 35492 17608
292 181979 341649
293 225855 753653
294 637043 478291
295 262605 731933
296 831928 934859
297 844081 873086
298 404063 399549
299 990476 303156
300 295962 557406
301 862750 560775
302 301400 547054
303 943884 6567
304 698565 499825
305 328378 194615
306 707099 46545
307 172467 21758
308 117925 51734
309 822057 40818
310 889406 455746
311 832346 601512
312 770289 196479
313 657599 208746
314 866973 794497
315 633692 513787
316 530503 415708
317 534493 477198
318 545689 988946
319 845140 160221
320 223723 174121
321 931595 596225
322 588884 806859
323 899587 230415
324 164569 647601
325 215487 195317
326 532576 195979
327 669463 782174
328 26902 447041
329 26281 824202
330 1364 954938
331 161426 538344
332 276102 154256
333 263019 110874
334 457661 365608
335 122171 887510
336 887164 174455
337 825330 694089
338 923170 636366
339 932048 988114
340 169576 210558
341 182464 42770
342 793132 678754
343 352360 992159
344 139606 380236
345 214178 434815
346 531284 479532
347 38049 336212
348 286957 757139
349 770894 894795
350 883689 263220
351 298367 176455
352 478025 4929
353 12852 489806
354 402846 990709
355 429813 34743
356 307434 646044
357 610024 566549
358 423653 681894
359 500294 939889
360 867299 505880
361 339979 562866
362 481919 858950
363 589143 710708
364 696430 820401
365 681236 433363
366 233519 941339
367 558300 134833
368 903123 536419
369 432745 226582
370 255100 670466
371 491865 199717
372 512937 708298
373 94835 968418
374 997613 179098
375 747069 576248
376 60708 950493
377 213558 450325
378 29700 357027
379 618154 343191
380 101805 476432
381 57060 176264
382 735608 759346
383 542878 107716
384 133107 901726
385 471713 455235
386 684280 321195
387 192819 291051
388 445171 389486
389 349307 31593
390 829250 232115
391 92553 353239
392 718595 204803
393 376303 57255
394 205730 798954
395 591954 795406
396 403311 531019
397 754869 799865
398 986186 170669
399 6898 221885
400 263126 705349
401 619110 966019
402 349848 514954
403 483694 707469
404 231897 8754
405 74021 972444
406 151297 819200
407 751236 306399
408 73120 526041
409 421395 935743
410 773160 372208
411 100818 911222
412 638599 766364
413 836124 718260
414 971347 677864
415 807356 737701
416 157589 340553
417 957572 856805
418 80817 273353
419 602002 412196
420 131682 850262
421 635860 269987
422 25793 219746
423 694587 492089
424 892419 988504
425 963741 267925
426 199321 329033
427 414529 525425
428 547760 278557
429 8447 493042
430 434136 210341
431 105467 819701
432 877071 223759
433 336583 881310
434 793406 531490
435 611811 581031
436 633621 432890
437 972001 505234
438 172887 771785
439 496692 113173
440 218604 557566
441 709812 478305
442 243727 597015
443 632233 337887
444 463481 733812
445 520222 199507
446 479946 70511
447 800385 550651
448 216640 202970
449 297985 520558
450 46858 922802
451 995397 779245
452 769899 406175
453 558112 721016
454 85305 817514
455 893192 209872
456 815076 274635
457 972820 234629
458 730395 34956
459 19316 326419
460 7118 133613
461 583324 272848
462 484631 689008
463 585634 854376
464 662991 565826
465 947121 451870
466 686479 679178
467 219981 8732
468 742490 435177
469 505484 9098
470 866620 597277
471 318571 137061
472 726693 386608
473 616182 207098
474 585879 111376
475 965017 362263
476 539978 732159
477 573436 594988
478 236323 316218
479 559263 761166
480 663685 122935
481 215531 76207
482 950894 295914
483 891300 678014
484 547941 586211
485 618446 523296
486 449076 907939
487 361402 644855
488 593634 851165
489 699411 889643
490 452684 269415
491 295112 901824
492 902141 824186
493 236339 610271
494 728284 924067
495 117432 64475
496 887236 919273
497 390651 343323
498 148200 410632
499 775659 81838
500 792973 765017
501 507687 696235
502 658691 695602
503 67150 638154
504 830017 749249
505 358648 626052
506 587933 635196
507 643734 599209
508 235698 296258
509 685555 607570
510 147714 480668
511 902355 466102
512 793238 853429
513 15609 752841
514 249247 665800
515 577704 955480
516 21147 950161
517 530995 826632
518 681481 659916
519 258089 302931
520 588487 940081
521 924715 120713
522 776353 636764
523 162119 421133
524 126035 537222
525 327713 395359
526 161384 109859
527 504134 837492
528 743869 557525
529 165240 832059
530 14120 407234
531 380064 527086
532 160761 418567
533 701336 467220
534 858843 6970
535 437090 814565
536 170223 148332
537 279856 752354
538 319283 792496
539 961968 955745
540 109559 458083
541 587600 417187
542 651679 170469
543 575416 494061
544 789399 112427
545 125295 214261
546 801073 251119
547 865840 773922
548 769857 776382
549 840856 23998
550 317481 369623
551 459164 170289
552 427663 869630
553 807758 744196
554 458179 333664
555 262076 249807
556 768126 52812
557 706763 799859
558 606160 128944
559 661245 386839
560 648709 924953
561 626363 834844
562 689489 67467
563 355400 999933
564 720669 410226
565 944596 575086
566 334317 628303
567 693668 859751
568 689956 534787
569 710423 851820
570 564308 446471
571 832816 402559
572 463717 200341
573 587897 966228
574 561630 798373
575 418521 769924
576 55713 430630
577 79401 742394
578 35305 830861
579 476621 567911
580 179673 272970
581 33773 606358
582 769355 815604
583 416991 365567
584 589095 506422
585 211961 639932
586 567314 862871
587 968318 878785
588 869240 195733
589 755442 947094
590 32161 524539
591 523312 152757
592 230553 671625
593 541313 727958
594 858947 878063
595 442759 324389
596 945692 204001
597 639859 924376
598 879157 969944
599 434241 584931
600 331101 392164
601 210785 614536
602 766212 893982
603 246612 902955
604 200077 407776
605 201081 307347
606 971913 598557
607 125152 855284
608 327277 829771
609 966498 844979
610 936447 447046
611 931325 4163
612 175321 819796
613 429146 952777
614 96659 74335
615 632173 966285
616 995656 347666
617 746012 724814
618 552625 924754
619 27605 375268
620 344347 711541
621 761459 13968
622 941616 995712
623 393063 941528
624 28680 820063
625 495229 926379
626 873284 359905
627 952758 364815
628 396508 863118
629 868523 41397
630 341356 321857
631 875349 824808
632 63428 489539
633 545887 957944
634 656940 129439
635 462220 385749
636 801090 146435
637 349749 10067
638 573762 571420
639 51404 810505
640 423287 566028
641 84254 55261
642 732979 310316
643 90935 170847
644 284238 256472
645 178926 594681
646 267814 898166
647 913048 958598
648 910451 615024
649 664219 931549
650 421950 821643
651 890124 218175
652 396775 929201
653 842125 818023
654 626925 642442
655 273880 225660
656 578879 612050
657 862471 746675
658 54043 977183
659 911759 104829
660 579088 930863
661 293725 725391
662 707488 640577
663 495624 582914
664 749659 420547
665 167941 755738
666 944494 408962
667 536624 197626
668 987148 472203
669 192790 986304
670 256272 113751
671 259088 179409
672 677384 248062
673 300956 542422
674 190678 272471
675 462973 327536
676 865364 243672
677 763607 666212
678 877148 481161
679 681550 199148
680 942053 369922
681 625232 640621
682 386169 160128
683 966572 399470
684 934666 614408
685 445718 511620
686 786505 639288
687 641855 251551
688 65499 50052
689 961784 41276
690 763428 14463
691 901364 550511
692 478494 798019
693 130506 303873
694 22792 376496
695 231053 587678
696 537536 578381
697 540585 744652
698 327246 619799
699 537554 425832
700 182563 250903
701 580637 149402
702 509043 448510
703 426172 314853
704 765178 965587
705 535706 573275
706 458368 305054
707 968094 354374
708 832385 46851
709 100035 641517
710 832881 346773
711 861915 508833
712 431845 194815
713 930983 637102
714 130245 193344
715 825379 750646
716 284874 996197
717 505569 190152
718 556094 596309
719 582416 124119
720 965634 83654
721 203837 381275
722 543614 884280
723 725762 28703
724 146536 345770
725 813668 690144
726 489554 344209
727 600453 431917
728 966028 584440
729 643832 318890
730 892415 829862
731 732437 641058
732 999953 452051
733 369438 77093
734 761440 83814
735 628612 803682
736 900314 754265
737 827848 142737
738 857218 517706
739 908380 999928
740 228786 346543
741 993270 811354
742 300928 995516
743 18209 643815
744 996243 53518
745 820714 479001
746 834868 498601
747 495506 161951
748 183340 449572
749 553426 400876
750 27062 208055
751 120322 146608
752 116983 467125
753 696873 678199
754 43280 604936
755 413708 322213
756 588196 590313
757 498175 413414
758 994994 233835
759 145552 838001
760 268710 919865
761 523667 360564
762 56751 420556
763 683359 753706
764 637281 360723
765 445863 179018
766 474425 303444
767 586219 906573
768 758346 402956
769 313179 887513
770 522 784373
771 498263 158242
772 784808 900848
773 955333 474304
774 441850 74949
775 478592 429634
776 812290 192703
777 955012 848044
778 733629 816878
779 560388 210410
780 708779 293917
781 365020 155766
782 604413 629334
783 823949 429954
784 805505 597326
785 458080 520689
786 791984 70602
787 359409 839076
788 107575 330964
789 405551 208707
790 686926 866481
791 193317 426871
792 651944 151946
793 813997 318659
794 699030 956885
795 82623 328391
796 597451 715852
797 429432 479833
798 992389 427660
799 798833 945731
800 793273 624369
801 68753 233142
802 388022 612110
803 236316 385418
804 540759 803065
805 34046 414970
806 117847 603502
807 127786 380387
808 696465 649168
809 726333 124580
810 636944 396289
811 631121 859773
812 804053 833711
813 451935 558842
814 682579 747298
815 602759 722157
816 790204 602485
817 174661 271956
818 748633 589814
819 299085 271556
820 455481 164828
821 592325 574450
822 319940 686334
823 697270 737677
824 911798 595721
825 27897 433547
826 745080 51535
827 342972 71116
828 834164 466267
829 58481 116066
830 863477 646502
831 86333 269202
832 347584 869217
833 822645 543396
834 283561 441452
835 683116 958788
836 737369 130611
837 96682 203397
838 651208 579586
839 516801 732937
840 999546 985667
841 500360 566513
842 883820 956257
843 635823 521002
844 254900 305443
845 449311 205236
846 306253 857632
847 588439 496692
848 427459 461713
849 477767 116542
850 35125 117684
851 220875 178861
852 596175 42229
853 933186 178567
854 167714 386714
855 435292 313162
856 211367 753037
857 666755 658240
858 340249 228700
859 680762 850892
860 441758 360931
861 65629 167018
862 406326 565432
863 737912 558508
864 534436 54452
865 270211 472640
866 411872 130087
867 297644 686383
868 774300 747322
869 899757 225580
870 616008 407123
871 840240 404008
872 863685 88379
873 139607 139234
874 451305 23007
875 758779 868950
876 927277 423315
877 846331 562484
878 705811 90788
879 881216 909792
880 267929 185863
881 278810 942133
882 770706 28168
883 472922 807358
884 889352 578376
885 518632 201014
886 777394 657755
887 92112 572807
888 433654 642313
889 320687 843842
890 859620 647124
891 677291 624643
892 786523 84347
893 193830 469738
894 359381 269475
895 213461 966941
896 857970 321381
897 706948 414993
898 629729 182484
899 311896 290877
900 654725 497293
901 818546 607463
902 163386 111655
903 191658 302633
904 636791 761984
905 368654 236073
906 731407 611740
907 696331 300987
908 327893 957429
909 235185 355712
910 398439 290437
911 495462 598474
912 923650 21338
913 382467 169930
914 494368 980456
915 381149 131020
916 5522 558703
917 475187 623547
918 915717 65551
919 928312 485536
920 756453 236401
921 234553 3668
922 871036 923023
923 471479 259495
924 397730 685609
925 32525 459798
926 688116 331439
927 909728 523705
928 491771 259843
929 132275 539839
930 195937 126107
931 374321 151255
932 5530 132253
933 1519 727738
934 740704 773307
935 829507 68398
936 559698 549575
937 323187 938641
938 602321 164022
939 688746 399945
940 529567 122624
941 37654 954529
942 784519 255041
943 756699 854267
944 553172 342934
945 622028 187978
946 324846 155005
947 656029 688055
948 676702 684978
949 680481 932395
950 320702 307457
951 570749 997785
952 156042 909901
953 422143 733587
954 546920 654687
955 767006 637504
956 706670 789341
957 917811 7958
958 801261 219315
959 495226 317474
960 455550 316540
961 47257 808309
962 452605 522049
963 497649 561913
964 393532 413285
965 516497 868733
966 617102 34059
967 632939 892062
968 415953 248313
969 36718 776560
970 453780 537383
971 359041 235698
972 887384 305487
973 140721 516537
974 702400 133979
975 190406 114789
976 291445 267195
977 415897 451968
978 690355 536689
979 364845 263979
980 493948 173829
981 696869 770359
982 200907 229622
983 278463 470972
984 901957 612323
985 867237 284723
986 516915 361246
987 127068 340761
988 25094 780061
989 392412 636
990 831694 960959
991 197067 129552
992 919337 342667
993 171864 846742
994 833152 403316
995 613599 944980
996 346356 424394
997 909323 169056
998 20467 997794
999 108629 546622
1000 280392 360660
1001 124125 701763
1002 302284 229446
1003 917721 161892
1004 347858 73229
1005 280104 843613
1006 703537 961529
1007 650380 548967
1008 827473 272474
1009 861036 31850
1010 209155 280668
1011 362343 355334
1012 331930 506577
1013 160598 815151
1014 58962 897621
1015 423039 863201
1016 432203 319182
1017 720532 988081
1018 257421 235537
1019 479172 370369
1020 515194 899389
1021 985705 801301
1022 194160 332930
1023 582636 991022
1024 92463 402745
1025 8457 205315
1026 938831 211007
1027 123583 417190
1028 928457 804942
1029 981231 314203
1030 972025 682184
1031 682720 977488
1032 558034 380714
1033 857907 902236
1034 767368 317449
1035 966331 836450
1036 180011 458290
1037 23392 3839
1038 341836 151336
1039 231750 914740
1040 578120 355655
1041 833920 744759
1042 925596 740855
1043 180481 454714
1044 761147 339817
1045 130173 355185
1046 468169 161723
1047 404038 678744
1048 719378 527414
1049 777908 190321
1050 991093 431300
1051 759272 177723
1052 824625 652801
1053 371395 194072
1054 285410 382728
1055 236709 473742
1056 43794 641414
1057 184029 616840
1058 214014 520997
1059 573450 879290
1060 661335 330493
1061 124327 577047
1062 326355 535030
1063 77178 2287
1064 633664 370590
1065 632444 147763
1066 865925 849021
1067 678031 104377
1068 311860 192505
1069 560729 308756
1070 526840 659484
1071 881263 881857
1072 678481 799679
1073 230857 891121
1074 835367 869007
1075 601566 717091
1076 893749 407317
1077 557876 843330
1078 565374 910250
1079 499692 720248
1080 340941 178889
1081 633343 976654
1082 855888 577225
1083 592478 161937
1084 962932 384349
1085 385983 322892
1086 685629 704442
1087 277724 944244
1088 436744 717010
1089 19170 483025
1090 969655 166927
1091 502595 913416
1092 29649 453554
1093 514420 889270
1094 993133 100806
1095 511898 149923
1096 229572 176379
1097 922773 203947
1098 973854 176821
1099 604132 734236
1100 362935 513847
1101 871951 352342
1102 899352 434638
1103 214495 980332
1104 377667 104322
1105 328909 676104
1106 917117 398886
1107 208349 191017
1108 949317 456964
1109 53881 651940
1110 603370 415657
1111 557804 228696
1112 21414 872136
1113 450941 333287
1114 805090 843085
1115 729749 456411
1116 339342 914847
1117 154115 293551
1118 249809 103709
1119 705066 838631
1120 504236 57455
1121 835389 341192
1122 497435 96241
1123 592118 876
1124 154965 50637
1125 753006 640566
1126 371731 761047
1127 4487 906524
1128 174504 957103
1129 198226 605800
1130 184829 110786
1131 275266 539035
1132 600085 271454
1133 840714 575924
1134 901450 112108
1135 598899 948441
1136 301999 3244
1137 898934 962804
1138 43926 796757
1139 224209 114889
1140 697631 493837
1141 135061 199289
1142 658256 618962
1143 181144 800306
1144 314762 882661
1145 452837 673884
1146 202258 592957
1147 239732 555795
1148 755456 832145
1149 442258 534630
1150 52314 795360
1151 776666 40075
1152 353005 259168
1153 505504 172441
1154 102790 385524
1155 725379 374198
1156 642341 315565
1157 152963 510944
1158 908527 682308
1159 299303 44289
1160 515997 8569
1161 133666 366819
1162 59794 803539
1163 171774 261923
1164 650238 639765
1165 457299 871484
1166 693966 838684
1167 389509 323433
1168 851495 819496
1169 46326 147311
1170 710434 498835
1171 501003 270472
1172 366663 444267
1173 540218 835438
1174 533163 436192
1175 384021 493532
1176 181906 802493
1177 77331 180829
1178 101393 937981
1179 650566 29572
1180 407673 686008
1181 126115 955479
1182 675089 226543
1183 873195 371869
1184 948901 708695
1185 970726 73089
1186 149145 863110
1187 660268 22465
1188 826662 331173
1189 289488 878964
1190 702145 233792
1191 611357 620666
1192 232092 771290
1193 745369 738487
1194 163595 162965
1195 450238 479626
1196 870594 337630
1197 176585 637345
1198 349690 637892
1199 610204 344198
1200 617604 209045
1201 545949 654199
1202 734047 150229
1203 882175 561240
1204 570401 306040
1205 435460 362906
1206 774386 487600
1207 579334 928046
1208 815413 788485
1209 778893 37743
1210 876853 235302
1211 761664 604703
1212 91091 761681
1213 527139 494945
1214 129063 510038
1215 140289 265422
1216 760772 983448
1217 443504 339239
1218 459406 123756
1219 41331 304045
1220 955877 956884
1221 959593 125851
1222 286112 214935
1223 717961 265891
1224 246538 414904
1225 110205 854744
1226 508829 100165
1227 203908 352181
1228 448273 562501
1229 210695 394808
1230 690823 758418
1231 519908 266355
1232 350163 478575
1233 403312 648534
1234 201488 364398
1235 210084 549521
1236 541946 363989
1237 927538 22108
1238 726473 661499
1239 400794 738909
1240 313407 964637
1241 284250 734254
1242 819215 381871
1243 745514 494416
1244 633284 964928
1245 935926 810871
1246 922268 676933
1247 93961 406355
1248 414938 595604
1249 198313 264003
1250 488462 56462
1251 865097 507629
1252 101496 145568
1253 570494 774574
1254 280950 822037
1255 606667 953856
1256 929217 245766
1257 458881 879951
1258 836150 842975
1259 172394 943808
1260 63636 807707
1261 450221 937484
1262 875936 153621
1263 684424 34316
1264 262492 781969
1265 451614 951898
1266 380549 578757
1267 132241 359551
1268 35420 38484
1269 275373 939263
1270 545720 902539
1271 322022 689476
1272 901291 128219
1273 360650 984783
1274 800996 940339
1275 721930 380621
1276 333112 416343
1277 812389 536563
1278 675913 286340
1279 375387 741944
1280 110147 532009
1281 499200 341686
1282 276316 704127
1283 631833 239740
1284 344474 330661
1285 519301 851366
1286 41978 232054
1287 221877 683015
1288 474595 33877
1289 125094 339373
1290 477708 398084
1291 658928 520547
1292 671822 919604
1293 452698 38862
1294 302440 428114
1295 727717 795679
1296 694009 944711
1297 419961 694354
1298 860561 89967
1299 467599 218276
1300 653624 326772
1301 859689 461623
1302 462630 323846
1303 721693 812564
1304 744521 892785
1305 83864 637050
1306 983899 947273
1307 14227 314467
1308 837999 554488
1309 921724 581961
1310 843566 541865
1311 772141 126197
1312 677037 192529
1313 991677 580355
1314 769424 898030
1315 961321 662030
1316 289356 232309
1317 255508 840658
1318 414184 711655
1319 506320 357354
1320 81605 898209
1321 117137 720478
1322 584547 185852
1323 23538 567812
1324 267674 227432
1325 702677 280205
1326 320543 569568
1327 256954 991593
1328 37416 627379
1329 206114 621972
1330 909661 10037
1331 306244 387166
1332 811180 185655
1333 519913 263420
1334 362726 828374
1335 290928 270187
1336 286814 694292
1337 879284 563360
1338 221321 202572
1339 869242 685443
1340 155112 364298
1341 374240 147451
1342 988368 951284
1343 355786 902190
1344 421129 69853
1345 320744 150764
1346 348929 677945
1347 66425 811417
1348 611395 422845
1349 841194 21186
1350 964530 820966
1351 698569 582230
1352 72320 338379
1353 905965 173092
1354 581200 305670
1355 635807 135226
1356 206249 136261
1357 301227 758897
1358 661108 628298
1359 320740 999762
1360 574259 97067
1361 422226 341539
1362 863844 469962
1363 571618 704583
1364 621972 540905
1365 657395 48229
1366 621372 563572
1367 49636 19886
1368 158048 237978
1369 846223 229470
1370 290175 727487
1371 581449 421367
1372 495593 223677
1373 728538 7389
1374 814100 596463
1375 239799 906812
1376 800873 300288
1377 363790 916300
1378 199594 134996
1379 532594 52433
1380 180330 667986
1381 326868 351729
1382 15494 908319
1383 553776 784882
1384 640668 77550
1385 30359 653718
1386 814197 724277
1387 759963 667447
1388 296194 121937
1389 977748 947543
1390 270368 436621
1391 171989 569538
1392 360574 989408
1393 721360 269642
1394 548077 141316
1395 466109 373165
1396 597310 768673
1397 199111 636457
1398 913290 857171
1399 661403 828145
1400 927483 606600
