NAME : portgen-300-306
COMMENT : portgen N=300, seed=306
TYPE : TSP
DIMENSION : 300
EDGE_WEIGHT_TYPE : EUC_2D
NODE_COORD_SECTION
1 603017 337230
2 77867 771447
3 876801 445503
4 790642 908105
5 246950 990018
6 960150 903265
7 381648 885657
8 239798 555235
9 335810 518388
10 667178 299828
11 134427 298010
12 590886 42158
13 915144 275123
14 487727 76144
15 18248 611838
16 753128 424017
17 317743 599379
18 443961 706956
19 220334 363257
20 496318 220292
21 478076 159646
22 916995 2766
23 70670 815120
24 976225 610137
25 748787 303663
26 323648 812109
27 137473 785391
28 157213 179000
29 19487 478487
30 327485 169844
31 225169 427384
32 411786 26657
33 511942 800504
34 986269 378881
35 814986 424678
36 579009 725673
37 769600 363514
38 976179 322318
39 160537 805494
40 884944 736143
41 255636 9239
42 748658 848403
43 386668 325744
44 12230 291085
45 87437 643457
46 720686 841453
47 548271 71640
48 641282 752402
49 390045 553481
50 26587 748352
51 654582 170730
52 725192 12643
53 48027 314408
54 63450 289069
55 398722 831469
56 166770 728402
57 391050 684027
58 449157 383715
59 879113 340146
60 385375 759539
61 410459 432788
62 352294 66633
63 770095 408279
64 481 756957
65 315486 661771
66 258867 871468
67 406772 53475
68 569372 527234
69 618189 64630
70 399245 2953
71 446631 672083
72 905710 327898
73 232998 287898
74 489159 481637
75 301545 233003
76 751920 633087
77 237994 364815
78 489485 783114
79 763958 671716
80 443270 520793
81 696218 998819
82 889823 395769
83 384837 494686
84 822692 63151
85 451029 161259
86 894556 397475
87 38601 152371
88 7618 777371
89 194794 987478
90 577148 986980
91 644320 328765
92 313686 794693
93 965552 260047
94 981644 11002
95 668637 74686
96 704541 555037
97 613601 237986
98 108396 49155
99 633482 753338
100 320279 455626
101 93104 501680
102 904488 314564
103 588683 423155
104 319401 443301
105 399262 229438
106 801469 752955
107 3078 368584
108 816251 141181
109 385218 651837
110 287372 335682
111 861204 69353
112 742872 995402
113 68155 392875
114 492986 724037
115 563688 584462
116 457970 751492
117 588216 347710
118 185510 891364
119 325686 945101
120 978441 824371
121 874828 329807
122 723629 332955
123 213481 635188
124 812165 618198
125 169831 715520
126 556168 909445
127 189650 735816
128 997656 341611
129 913464 556778
130 129053 697318
131 97468 374299
132 464860 574890
133 354609 471662
134 29325 670123
135 155103 181063
136 329015 767020
137 482006 571851
138 779513 951758
139 879702 7055
140 997746 726543
141 479411 936208
142 594983 866369
143 486994 83670
144 286632 13325
145 993100 713848
146 862038 655563
147 789998 797377
148 495356 107807
149 847800 151778
150 553442 261722
151 755485 805110
152 620451 443287
153 236109 619960
154 314461 323281
155 248822 913985
156 54979 900138
157 563677 415204
158 835279 441905
159 584300 667482
160 79534 246801
161 623861 877547
162 116681 893380
163 425578 523905
164 146568 38718
165 335742 159553
166 637297 556421
167 758232 83760
168 671564 579272
169 372530 179779
170 31089 45088
171 499370 619149
172 933791 746298
173 89986 984490
174 538882 896618
175 371799 971450
176 961238 809082
177 816035 393888
178 624425 199063
179 46877 536690
180 771723 656836
181 247429 134682
182 292191 203734
183 414615 435829
184 966346 817378
185 325218 850788
186 903022 687682
187 295683 108083
188 285563 814779
189 61512 722792
190 268955 226514
191 477028 609878
192 266995 678905
193 912123 502615
194 264229 554498
195 669145 235734
196 612925 555152
197 854560 180300
198 142065 811688
199 323466 825708
200 460735 275207
201 922978 816090
202 627662 145284
203 494422 351360
204 542087 137130
205 481764 121809
206 934834 492378
207 867544 535988
208 43910 692277
209 280121 111891
210 61668 602926
211 112363 140638
212 356643 50011
213 927810 86932
214 60019 150398
215 613660 934202
216 272692 924382
217 241027 147145
218 291680 984649
219 742333 731006
220 634994 219846
221 222493 152338
222 492830 66218
223 123371 472287
224 198508 804549
225 252490 55132
226 751668 173067
227 212047 526532
228 2514 998596
229 575062 480517
230 853604 509773
231 609027 811080
232 502135 261918
233 899316 782495
234 999548 801326
235 412617 571623
236 493768 475572
237 859400 6535
238 851258 939295
239 928590 830110
240 47496 929213
241 511869 579502
242 296794 103887
243 325175 461612
244 422246 979108
245 247829 509184
246 985101 941007
247 318389 63371
248 726077 746921
249 292937 486294
250 214960 184076
251 543696 368398
252 757052 323277
253 543263 172166
254 876273 108160
255 201357 540902
256 576350 595953
257 232688 344419
258 524671 668020
259 492690 438763
260 535840 152395
261 489558 513253
262 586365 228540
263 27926 125370
264 718519 536123
265 463272 679091
266 63021 820430
267 628752 506594
268 352862 915915
269 346813 952374
270 579215 657155
271 968921 983483
272 443268 95433
273 19625 471847
274 354641 89849
275 35444 600707
276 28401 756813
277 23022 535868
278 121054 723265
279 739645 250458
280 970414 627347
281 825352 923898
282 528944 544202
283 571981 592867
284 152685 137254
285 324793 52824
286 313378 402841
287 403319 935132
288 123994 732745
289 490231 50496
290 107485 304661
291 385725 468061
292 565709 835925
293 853738 139122
294 291486 84550
295 934612 759995
296 763230 209559
297 627580 526390
298 343777 566079
299 580163 508135
300 971439 286880
