NAME : portgen-400-402
COMMENT : portgen N=400, seed=402
TYPE : TSP
DIMENSION : 400
EDGE_WEIGHT_TYPE : EUC_2D
NODE_COORD_SECTION
1 945342 525322
2 439292 827310
3 899342 536664
4 769795 219885
5 787495 179000
6 734700 6687
7 333 481767
8 739084 457330
9 488566 67676
10 325201 742672
11 260662 313708
12 933086 790871
13 73193 293545
14 849857 637464
15 950342 216380
16 120101 387989
17 537264 216201
18 401078 475542
19 79016 185524
20 610389 915822
21 877614 357122
22 258005 669590
23 776956 799915
24 250440 867769
25 34557 682230
26 711575 783668
27 579059 181789
28 712268 557352
29 988057 223091
30 426232 423799
31 457647 584270
32 609495 871673
33 301386 377578
34 748681 330742
35 704810 939169
36 206890 620796
37 33118 642970
38 31096 476993
39 734649 751297
40 78602 515840
41 305488 626766
42 211231 526542
43 758733 535831
44 778493 665591
45 914815 23499
46 726861 748273
47 480714 671220
48 708931 256818
49 324003 615035
50 638493 299962
51 65265 499143
52 789166 518717
53 376742 84808
54 572436 52516
55 423056 176437
56 778859 322466
57 308275 402733
58 696938 709373
59 103556 938275
60 162741 44568
61 53575 133646
62 692249 404847
63 873904 707746
64 831629 514400
65 266227 946288
66 904556 682133
67 328241 902164
68 736981 983022
69 318490 808498
70 829604 49359
71 432274 840217
72 502849 870247
73 969924 593214
74 56024 75866
75 797315 1185
76 425188 809602
77 348807 692205
78 395405 383131
79 170902 887001
80 781736 393720
81 766317 763938
82 222911 373696
83 744163 938641
84 819616 438028
85 432808 103724
86 653349 27690
87 140959 161556
88 619379 243972
89 784839 44
90 9442 490772
91 536844 944627
92 732664 872507
93 179970 140618
94 459221 954544
95 158001 798339
96 163405 880462
97 375689 725880
98 396010 404584
99 699257 341293
100 250867 725951
101 808375 55979
102 66424 306543
103 464340 480561
104 76938 476300
105 512234 254787
106 923909 216357
107 729000 983396
108 230314 885855
109 388248 497031
110 977685 339579
111 239383 478323
112 187161 706856
113 295349 597369
114 961266 834416
115 697216 138817
116 167034 308539
117 487809 754655
118 566862 320486
119 215626 749267
120 642192 294114
121 752370 962190
122 976858 818422
123 558955 685082
124 693301 668833
125 430531 798641
126 443317 864841
127 644077 112049
128 558917 499836
129 568170 311768
130 739680 143853
131 264934 327670
132 834107 218120
133 502416 961719
134 239499 910577
135 424441 545232
136 192554 719415
137 66500 179044
138 896261 374542
139 834246 75111
140 147939 795512
141 29198 649497
142 94735 553362
143 873883 839363
144 474431 269689
145 252238 605143
146 80987 305048
147 324826 96959
148 101559 32955
149 895690 797814
150 922160 184413
151 850836 618189
152 520893 635018
153 769442 793820
154 770105 90714
155 238166 719553
156 25405 298480
157 59530 134537
158 62866 959885
159 2843 737148
160 116560 469461
161 66029 441685
162 988417 240027
163 694396 574365
164 198521 431482
165 409601 102441
166 604437 743531
167 836944 428385
168 770107 730718
169 589967 960198
170 490496 913997
171 836520 737283
172 153129 782777
173 539114 639302
174 316631 84798
175 402563 527194
176 834434 464208
177 388212 819719
178 579976 107304
179 781245 92508
180 864910 38724
181 203853 809906
182 600218 324169
183 883033 288122
184 145350 276753
185 595422 423563
186 643254 918044
187 334584 589365
188 635027 601820
189 53472 168697
190 660051 587091
191 793119 106012
192 566571 370877
193 898587 794530
194 143312 512775
195 545351 481985
196 585367 313213
197 364775 66932
198 270743 918475
199 402698 563764
200 147749 937293
201 585829 147934
202 424747 815472
203 734074 728421
204 897636 17335
205 921131 785445
206 963992 268469
207 547157 382924
208 453357 890639
209 445130 533286
210 53426 964558
211 885423 581586
212 129003 658129
213 837734 495319
214 493297 519111
215 855290 906605
216 704184 36137
217 247565 874605
218 623098 524650
219 558855 183647
220 917520 7948
221 349399 610025
222 459348 580793
223 596562 3780
224 184210 706646
225 229197 775423
226 425177 883587
227 708474 241143
228 233109 549692
229 900369 550141
230 192374 209424
231 169566 713989
232 99815 913183
233 436046 353966
234 809121 966363
235 786361 449576
236 706429 738483
237 304088 278002
238 539380 1835
239 873112 887860
240 425020 288042
241 594949 943155
242 326737 645865
243 737039 990195
244 936322 334381
245 438559 269132
246 715528 592491
247 397285 467943
248 301519 610915
249 305937 181346
250 41412 594727
251 130668 296350
252 281626 941155
253 180474 482021
254 556850 62608
255 504103 242914
256 613369 565987
257 111581 923241
258 493896 577074
259 316703 631871
260 611664 825130
261 48029 627774
262 924950 191634
263 318908 410079
264 456857 362933
265 97528 57358
266 444985 810503
267 383756 182106
268 674672 28961
269 831574 403495
270 151969 159965
271 673491 304451
272 722717 613428
273 221103 87754
274 667540 205650
275 149035 891440
276 154058 943003
277 83818 984054
278 149742 320164
279 912593 99520
280 266482 151512
281 650447 153355
282 910639 344137
283 569422 308918
284 843270 498153
285 702138 406141
286 909533 111052
287 482835 720223
288 671072 105025
289 543956 940896
290 41892 998743
291 497485 357336
292 96450 946015
293 406910 291629
294 899864 39618
295 612683 365754
296 185691 333421
297 701356 745827
298 250432 562438
299 821615 2493
300 942356 116077
301 543797 726644
302 163758 150292
303 393954 796721
304 846552 137802
305 577143 858112
306 420300 872975
307 486837 900727
308 965820 317026
309 451999 164812
310 93705 6984
311 487302 840776
312 555796 586061
313 862344 182889
314 947294 332543
315 326269 874350
316 258472 406154
317 363753 183780
318 578443 624510
319 870499 195722
320 980195 89883
321 839630 735051
322 945912 605699
323 878452 344915
324 777624 115294
325 883483 67543
326 615144 489072
327 676224 68005
328 857605 137643
329 362891 979978
330 571849 769444
331 926222 650830
332 157607 487259
333 18481 685248
334 927062 881137
335 22275 620905
336 539402 336704
337 281329 26162
338 391839 998229
339 164551 487790
340 728456 724701
341 819997 967316
342 760693 556824
343 948128 607642
344 248547 876493
345 165298 893194
346 697447 989361
347 173447 359289
348 550481 502926
349 453722 919750
350 213859 880223
351 180363 289834
352 386838 158781
353 247545 647828
354 728378 119399
355 119877 249962
356 889095 486397
357 814679 678654
358 71996 936860
359 477382 798317
360 936778 515555
361 231526 7311
362 667278 142051
363 440542 249568
364 949865 122547
365 778616 744011
366 269850 45151
367 367913 478493
368 835605 333600
369 152636 82038
370 484827 11267
371 130259 450229
372 939715 649742
373 661667 690135
374 322083 31395
375 918747 300913
376 553060 331175
377 141133 469847
378 610372 135211
379 921920 908344
380 323176 913945
381 495191 646339
382 634572 108609
383 119702 438865
384 546682 164936
385 16987 381860
386 614777 445986
387 879570 635864
388 962494 900351
389 866178 197430
390 531678 305331
391 327647 41520
392 799370 864671
393 248819 623510
394 410579 259303
395 358791 396739
396 786917 987699
397 65051 102967
398 396490 684273
399 570659 303850
400 687248 761316
