NAME : portgen-600-604
COMMENT : portgen N=600, seed=604
TYPE : TSP
DIMENSION : 600
EDGE_WEIGHT_TYPE : EUC_2D
NODE_COORD_SECTION
1 603149 150264
2 53958 590689
3 967605 103480
4 184263 584255
5 987392 805817
6 51984 786805
7 656316 548580
8 748000 542989
9 372488 723469
10 22291 570323
11 213781 430073
12 236467 803788
13 634920 353140
14 861839 860241
15 807456 488438
16 788107 624681
17 978341 97431
18 123344 551109
19 469160 999044
20 58747 775164
21 801641 585144
22 725548 260197
23 179766 122088
24 931601 784872
25 615033 291298
26 444505 952990
27 820729 432543
28 609364 978468
29 171922 956527
30 467345 416495
31 634320 185219
32 525508 212227
33 4175 466839
34 61257 396118
35 368814 625912
36 611388 587616
37 108436 730993
38 125818 260790
39 609344 803923
40 194424 656451
41 181217 905312
42 392895 390960
43 854118 602888
44 99172 766114
45 93255 656504
46 489852 73041
47 630229 432835
48 163776 214025
49 476708 994555
50 134379 918975
51 512743 127677
52 590447 958581
53 110080 539193
54 560095 429768
55 578425 6475
56 879295 405808
57 863271 810841
58 926643 561278
59 554989 92673
60 48450 790149
61 990131 66702
62 261739 449839
63 113168 483710
64 997168 149855
65 620912 586625
66 700695 179575
67 225498 187948
68 777156 775409
69 42041 582054
70 464317 292840
71 47898 6499
72 717664 303105
73 666372 423150
74 811302 180389
75 319667 680066
76 216856 326853
77 373642 547754
78 218279 333167
79 902179 402498
80 181424 334671
81 497151 978041
82 965451 285585
83 958577 872795
84 688144 560165
85 144468 503493
86 749975 374600
87 773006 368383
88 573293 663278
89 693059 713984
90 231560 780000
91 581530 594670
92 968430 286240
93 89473 722654
94 214124 939913
95 229371 904360
96 87265 481876
97 437585 960823
98 542865 673298
99 233493 349280
100 729812 3094
101 730090 97318
102 948829 539666
103 98535 622186
104 358422 87401
105 458280 495625
106 119043 962266
107 173127 277064
108 247405 15275
109 540456 4627
110 742719 285279
111 639302 338863
112 830352 141374
113 773402 652657
114 425770 233339
115 269847 951106
116 304856 605657
117 255704 735934
118 660957 619264
119 421542 691366
120 38835 74198
121 182198 209496
122 197193 944092
123 265057 748401
124 651523 296210
125 187421 890207
126 247527 153
127 79432 778706
128 698238 124433
129 841613 212894
130 878709 479271
131 200644 667055
132 48566 384082
133 313427 909546
134 765072 229035
135 12006 499004
136 363751 244245
137 817206 852511
138 37751 639149
139 259431 51645
140 443136 648969
141 811043 212876
142 354630 790576
143 750462 637800
144 557090 871622
145 422507 751410
146 854192 192507
147 679360 539830
148 710446 937952
149 392290 344681
150 906340 625908
151 488970 599878
152 853074 538451
153 79164 34651
154 645522 288856
155 28244 60437
156 567342 969991
157 790386 127298
158 625079 8136
159 987694 508735
160 673635 375474
161 517256 420390
162 322694 386098
163 10033 763873
164 391170 278754
165 773347 3100
166 993626 970574
167 23400 382699
168 81627 841051
169 422489 227331
170 165497 742325
171 650106 48354
172 197986 47033
173 234154 433801
174 869812 293262
175 529797 946573
176 546782 113535
177 571334 903239
178 632281 518395
179 576477 470375
180 456824 238113
181 612161 418191
182 123358 285919
183 410331 518987
184 772005 743353
185 893144 191277
186 138323 694432
187 978937 727062
188 828691 403720
189 849056 419455
190 753816 491637
191 187396 920795
192 821930 535234
193 390939 575435
194 847216 737481
195 972368 562639
196 69046 679135
197 334187 974219
198 604002 955673
199 69416 470923
200 218341 830433
201 584744 450357
202 539445 38160
203 759176 625987
204 291605 36100
205 512300 56846
206 671179 838995
207 498007 894185
208 169066 933026
209 84003 149139
210 681916 454657
211 449570 301081
212 525012 62710
213 606533 687966
214 154986 940777
215 967885 202704
216 112115 812956
217 907155 696970
218 820457 348401
219 422787 927745
220 366167 457913
221 491431 698077
222 55565 517710
223 113068 767964
224 154123 271476
225 367686 916036
226 800686 128639
227 503038 15637
228 718318 771787
229 543202 842475
230 217702 410775
231 203199 363860
232 669932 54387
233 565415 973102
234 783430 980297
235 781116 401102
236 778902 812527
237 781452 765880
238 653970 320931
239 798043 509375
240 344392 834745
241 144763 312511
242 723074 557109
243 999504 748255
244 143023 852768
245 131555 847355
246 564970 442490
247 146629 965064
248 679010 678904
249 916624 289684
250 863739 792137
251 969921 644748
252 927084 532940
253 771272 488175
254 405564 945928
255 16132 970063
256 628764 690434
257 710920 370347
258 845805 760709
259 217231 704867
260 375376 886511
261 56477 493745
262 116557 988978
263 431181 134153
264 885442 248512
265 994608 165795
266 915366 852115
267 493242 374329
268 205981 454329
269 601590 352727
270 711304 238795
271 531024 438155
272 477391 245044
273 790877 71224
274 325932 157650
275 533883 544856
276 793461 668112
277 295075 697944
278 876771 117805
279 151505 552755
280 326959 316942
281 886585 52837
282 234623 777336
283 439038 190608
284 213042 465876
285 579469 774580
286 434776 59580
287 170984 830519
288 93049 388365
289 198670 418613
290 112206 313375
291 982648 332686
292 921552 677665
293 279209 862529
294 617491 715906
295 935290 15372
296 241287 135713
297 773258 936724
298 804019 471444
299 267171 646871
300 151994 402512
301 872554 907319
302 45443 220508
303 562208 460774
304 746559 617410
305 418734 14242
306 500313 435599
307 617465 311587
308 75655 750871
309 279578 297898
310 973316 967594
311 923437 566170
312 313882 176956
313 902025 527456
314 14136 950475
315 268310 632274
316 641806 581259
317 999878 97964
318 813061 547048
319 715221 609965
320 602009 528338
321 582950 319593
322 742589 967695
323 91935 675116
324 821831 596301
325 34699 276562
326 457307 316695
327 378561 519719
328 760706 291295
329 907440 947479
330 407446 15159
331 745552 136593
332 15400 890396
333 431291 180720
334 693009 649769
335 219651 400539
336 929039 683276
337 263199 696754
338 510287 606741
339 187609 794162
340 416250 610730
341 620016 66657
342 543028 253150
343 886722 505212
344 565858 109482
345 666673 632340
346 854039 65452
347 390314 201470
348 599298 899674
349 56393 45835
350 457408 485193
351 487507 27669
352 180051 423968
353 656546 390650
354 773666 125410
355 632997 255493
356 725436 797958
357 280805 775106
358 161120 680100
359 746279 813930
360 291097 531617
361 124326 647173
362 192360 734457
363 913032 901370
364 503225 839230
365 40207 119636
366 833074 62198
367 161164 160756
368 885293 822058
369 785851 767922
370 92030 206621
371 758932 751928
372 818384 135056
373 508014 206865
374 873091 655856
375 288437 697928
376 396448 217163
377 5628 337772
378 652118 425308
379 866504 19294
380 538675 834488
381 604798 5743
382 33380 426376
383 496560 973508
384 979573 145749
385 267091 954254
386 807009 90423
387 525492 593169
388 135168 907163
389 641545 854588
390 82339 487724
391 34865 483930
392 300555 205719
393 514837 827330
394 28818 734788
395 664195 911785
396 842484 640102
397 500830 137775
398 399611 668509
399 226435 225215
400 999888 600850
401 565320 18502
402 573517 800713
403 663062 912518
404 916607 799909
405 822934 824787
406 396489 131716
407 355099 626889
408 992003 964696
409 504913 895604
410 26764 828051
411 747072 754358
412 145861 666241
413 388934 788507
414 516906 724778
415 930107 222649
416 990555 841636
417 31654 257551
418 91234 903149
419 128831 673665
420 213715 550141
421 322417 133213
422 708024 836144
423 164712 88126
424 494241 834589
425 748840 611104
426 151603 501656
427 295107 777238
428 610295 723683
429 986847 315966
430 709479 759913
431 783687 242942
432 586193 272793
433 502370 263275
434 423692 518955
435 462177 903876
436 470455 670323
437 146764 415659
438 676448 245416
439 459250 368622
440 55946 665251
441 801659 200940
442 15299 170194
443 438962 747613
444 255443 758861
445 755180 827958
446 479457 609876
447 211488 309838
448 79685 652093
449 986449 292364
450 159695 919296
451 628876 125618
452 778643 83589
453 809445 950663
454 486357 124913
455 338276 862681
456 468240 227986
457 560785 881521
458 280455 173811
459 31453 276354
460 193107 850276
461 276826 131327
462 359259 542880
463 275000 344836
464 891680 63174
465 606213 725784
466 759058 334336
467 30345 193264
468 197010 573672
469 640154 133777
470 889738 265150
471 716159 979088
472 565753 904904
473 551132 348130
474 250616 668607
475 34838 734849
476 760413 923275
477 686150 433910
478 160238 294540
479 95273 585378
480 886579 235772
481 310508 352579
482 235175 73125
483 146521 489151
484 662233 655880
485 330389 932325
486 923194 362846
487 241516 458258
488 89862 353550
489 445176 925348
490 382642 980460
491 249563 306301
492 176595 370441
493 415276 406478
494 99161 957220
495 46742 707858
496 911439 984273
497 803388 957412
498 341956 353313
499 737572 107495
500 815041 197581
501 902953 325268
502 285965 54378
503 485286 454112
504 746680 315709
505 18634 753760
506 195379 138053
507 538636 178720
508 324333 326234
509 549191 277762
510 731169 793207
511 751579 554737
512 840839 132808
513 29371 597925
514 76880 187137
515 972971 635750
516 606870 129466
517 906713 628882
518 785081 111509
519 767665 997874
520 46107 89041
521 857286 821398
522 226050 253534
523 956279 356701
524 143434 670580
525 928040 744030
526 276432 550434
527 134523 179291
528 590710 773487
529 418555 657082
530 269297 373776
531 686447 748805
532 269602 929593
533 896473 373980
534 912002 285101
535 222441 967632
536 182800 878610
537 349721 987139
538 516775 201145
539 420214 661547
540 542097 255884
541 179370 419798
542 917840 599195
543 949302 858065
544 859864 977120
545 732409 411100
546 199507 482563
547 775433 78474
548 906240 978676
549 471676 238911
550 736759 755133
551 936487 481887
552 128482 672156
553 564659 856634
554 632593 535328
555 229988 732644
556 913623 441434
557 924673 858196
558 174269 203883
559 973371 191127
560 23352 917796
561 902304 673091
562 548341 467307
563 31145 700913
564 750128 677565
565 422479 660140
566 568551 884885
567 431558 809452
568 342261 737935
569 495125 59644
570 424926 745419
571 884693 668736
572 953768 814612
573 508796 526415
574 934222 308126
575 47329 205327
576 228548 794111
577 816431 76619
578 186582 51601
579 50328 319029
580 329895 826724
581 361509 572949
582 110402 484569
583 847951 244886
584 487666 110060
585 349400 647853
586 269661 665245
587 143797 818024
588 689248 108192
589 856659 471722
590 280724 979544
591 650585 431098
592 347670 595755
593 298631 995602
594 774483 946989
595 961501 97374
596 250269 385064
597 710244 777072
598 475758 219448
599 524938 135743
600 125363 400603
