NAME : portgen-1300-1302
COMMENT : portgen N=1300, seed=1302
TYPE : TSP
DIMENSION : 1300
EDGE_WEIGHT_TYPE : EUC_2D
NODE_COORD_SECTION
1 529633 913678
2 702653 476029
3 985661 141291
4 824354 892823
5 480103 575708
6 871113 601271
7 675504 195294
8 669896 789474
9 545646 217250
10 619168 519337
11 319114 960878
12 641219 185056
13 179898 341246
14 744827 649837
15 313721 883965
16 185472 175231
17 720280 498907
18 124044 931037
19 629161 394274
20 429805 61409
21 123281 333460
22 954976 796058
23 898385 532369
24 196207 33077
25 838655 356295
26 848393 142034
27 843925 398022
28 540910 354402
29 193398 203746
30 351984 54624
31 512129 430080
32 463018 418694
33 452426 537652
34 646294 879446
35 296908 137527
36 593266 512568
37 378594 262873
38 670944 177079
39 116952 243197
40 644145 825496
41 147847 541080
42 297852 259097
43 371836 755392
44 712213 301585
45 46480 586392
46 284742 749715
47 97365 292278
48 468142 610712
49 954866 692103
50 125114 721305
51 415416 953010
52 388931 13159
53 208447 307312
54 844182 584828
55 26185 785517
56 642189 891812
57 157265 765592
58 769881 762414
59 332714 170739
60 950552 841713
61 582786 954190
62 754331 575603
63 722110 640256
64 123636 365435
65 54425 363631
66 332897 532123
67 217011 858627
68 183307 256035
69 383815 532259
70 489215 609422
71 422678 541473
72 351032 204766
73 3605 330551
74 995384 521762
75 570167 827885
76 487076 589430
77 637677 761483
78 388408 883292
79 735998 530304
80 829851 952411
81 923497 311922
82 95613 416763
83 362839 100715
84 540779 952498
85 761986 439329
86 767030 810952
87 600572 122667
88 354637 993355
89 316513 992848
90 187195 838817
91 904258 593332
92 535583 102013
93 440133 20975
94 436510 800247
95 495787 82591
96 715256 431316
97 770273 49886
98 842392 611725
99 940900 228365
100 850128 10249
101 14038 2535
102 334566 731349
103 923626 893743
104 53847 535663
105 321349 367432
106 446782 935751
107 34516 747260
108 237155 492180
109 541649 45727
110 574371 751113
111 159815 312414
112 102369 751737
113 425290 764494
114 476385 869223
115 199040 460894
116 939508 780849
117 671498 819762
118 392035 968507
119 558816 788322
120 864857 947952
121 479325 390783
122 225875 744674
123 922776 402841
124 328946 18536
125 624595 77897
126 135340 71677
127 29324 389234
128 70741 233189
129 331037 514804
130 339313 955119
131 334926 265524
132 670805 373397
133 888107 55999
134 709875 289842
135 824484 834313
136 163234 523113
137 421131 496473
138 615773 88138
139 283089 713135
140 680995 192101
141 433456 961581
142 529909 243920
143 125967 673984
144 110043 298100
145 931655 336036
146 258631 268974
147 963838 30543
148 784718 956212
149 969651 729401
150 128900 834638
151 119752 615811
152 337540 432493
153 644441 173759
154 541767 785403
155 263266 396756
156 123145 32936
157 583149 3277
158 696487 65952
159 301685 640261
160 588678 931894
161 86347 980473
162 160941 989846
163 714561 547422
164 185572 988638
165 852032 442014
166 546370 497685
167 449868 284238
168 68955 400519
169 378432 526632
170 547433 60015
171 372298 469781
172 709422 999760
173 249688 278158
174 108032 973992
175 315982 237295
176 770639 981013
177 877369 686885
178 288267 622066
179 165942 53301
180 363538 243921
181 795326 15135
182 237970 203251
183 24457 653364
184 323514 583388
185 753588 418329
186 957920 327693
187 324279 351382
188 161254 105334
189 103104 474055
190 701578 92495
191 381480 132271
192 625099 608111
193 646687 531235
194 259715 246617
195 259780 415591
196 77005 795043
197 773044 129103
198 102095 44605
199 145502 358039
200 838505 144354
201 175054 633976
202 272414 223487
203 855815 638368
204 355913 269258
205 40198 757032
206 362350 919325
207 793520 947947
208 166915 283
209 242090 108866
210 101156 979852
211 507862 965475
212 744882 609234
213 243274 323943
214 55279 100792
215 495567 522886
216 749421 833845
217 433857 944545
218 730144 462154
219 338751 677152
220 441195 646404
221 289144 150848
222 145460 279928
223 907729 111530
224 50161 163810
225 885828 778151
226 989326 44709
227 862472 315619
228 394932 341208
229 200119 327868
230 493342 393661
231 299616 678760
232 828062 393793
233 467887 211501
234 773864 513591
235 40217 55385
236 950121 78280
237 223037 323004
238 990525 463152
239 103002 429263
240 214301 902066
241 123824 727411
242 607449 101905
243 223270 70661
244 5782 40063
245 476658 518642
246 688289 825159
247 636934 385809
248 696282 210864
249 927811 822455
250 289402 444576
251 8527 620898
252 949508 983762
253 654327 261915
254 437260 760566
255 92349 324271
256 335425 160055
257 851209 974700
258 705371 474457
259 41825 442252
260 697511 257023
261 283690 951409
262 224189 595641
263 46857 329223
264 128771 239274
265 668677 728610
266 25891 342436
267 336914 890030
268 566640 963768
269 876201 632749
270 396534 748812
271 28836 563529
272 342552 219634
273 234951 736880
274 600970 41293
275 338952 367059
276 82092 688536
277 153778 560792
278 418684 666091
279 283984 59478
280 417122 690559
281 385713 804511
282 364032 343536
283 295434 771895
284 817503 631574
285 739748 968491
286 873487 531
287 103300 330452
288 174930 595154
289 797630 663396
290 176956 380766
291 45239 69293
292 822152 978117
293 342896 221380
294 978404 993377
295 594595 794744
296 146265 244626
297 893000 428043
298 875325 28304
299 460229 12099
300 44704 639797
301 939250 937573
302 864337 958186
303 321819 12799
304 866383 175660
305 217895 197304
306 687686 290606
307 464882 622377
308 544293 141087
309 911511 935988
310 468211 267130
311 311666 805403
312 586870 99951
313 29240 935913
314 136194 145114
315 8632 162131
316 728770 621969
317 445501 979652
318 693079 754632
319 604410 199775
320 433823 201809
321 309869 42415
322 525166 327465
323 483078 340861
324 657755 793048
325 398802 939411
326 892110 315114
327 3467 882572
328 911026 317281
329 492071 884685
330 265106 567186
331 408388 666608
332 741836 16086
333 887434 645271
334 765439 137417
335 139298 203432
336 483331 118462
337 537186 528799
338 375020 996551
339 801936 704298
340 188925 711959
341 443841 251509
342 880007 441445
343 753743 62162
344 880132 429415
345 92217 47807
346 989192 466993
347 60476 230391
348 718477 191406
349 505228 996367
350 952444 486527
351 538925 953456
352 604123 686842
353 495569 640601
354 435106 562021
355 128828 848864
356 437148 62656
357 792468 217298
358 577993 941395
359 606131 511445
360 297608 696028
361 140042 769072
362 184972 652771
363 664506 529874
364 514338 850343
365 33229 734419
366 561444 239915
367 575469 340060
368 274810 381185
369 459041 662709
370 863452 812348
371 456030 368687
372 131806 396189
373 907765 220120
374 282020 407704
375 565884 188602
376 677068 654884
377 963138 218025
378 925082 299010
379 377987 264062
380 412031 114384
381 181559 772397
382 698569 316480
383 392833 68461
384 930849 396278
385 309533 357873
386 659374 198427
387 945560 109005
388 18959 485157
389 805934 966946
390 727689 365496
391 151887 250275
392 438312 918844
393 552859 789046
394 541346 258988
395 947227 206349
396 450335 62762
397 353175 505578
398 152973 257603
399 423126 22801
400 377229 422607
401 414185 315073
402 680015 200387
403 36715 426792
404 216572 44293
405 665166 136035
406 757663 118998
407 316835 205682
408 664048 118797
409 419222 192990
410 163507 135230
411 645334 908048
412 19049 886926
413 943687 344301
414 518411 745172
415 72290 592167
416 268584 761641
417 301780 591653
418 607833 32888
419 933440 232629
420 254796 434061
421 369824 348355
422 95481 811996
423 561014 542287
424 43712 466248
425 561890 808671
426 739191 677954
427 950510 785061
428 154022 652544
429 13292 88361
430 592554 3826
431 493351 983943
432 789497 231104
433 766210 409308
434 23517 504839
435 644667 121761
436 75085 952973
437 631100 354835
438 396039 967380
439 957537 233988
440 732904 291143
441 331008 430050
442 152617 68463
443 98815 284641
444 972144 70675
445 825442 198524
446 9371 428600
447 587962 133035
448 358976 416851
449 717255 740645
450 415956 593634
451 584750 809723
452 733344 270747
453 477663 309140
454 525336 882046
455 686245 869380
456 680400 942617
457 262918 394030
458 994455 64751
459 395980 656461
460 872128 349359
461 692053 282872
462 88883 51032
463 537010 265362
464 219628 360352
465 877172 86898
466 442044 75490
467 547743 863523
468 610742 388390
469 167131 758587
470 74008 34064
471 888661 315682
472 198546 476083
473 506471 726498
474 339717 536929
475 596024 93613
476 197222 356902
477 863472 329057
478 151590 509259
479 261979 869820
480 660004 89272
481 142009 766748
482 808038 652180
483 980719 364718
484 744070 786835
485 887558 267956
486 725033 859050
487 60437 778514
488 152137 335150
489 419399 759825
490 899442 27751
491 3382 349808
492 700348 787899
493 944889 675295
494 267452 895562
495 882804 246024
496 644320 380295
497 871029 806052
498 309030 29610
499 255244 420031
500 323945 171320
501 307099 579892
502 637487 568273
503 90231 847413
504 656554 75573
505 384167 476294
506 241807 366416
507 987015 413979
508 444952 761713
509 895718 1986
510 343149 951108
511 109473 324038
512 462889 716237
513 960857 145141
514 221563 492164
515 688283 304723
516 678596 343826
517 375657 423147
518 785943 636965
519 362792 286368
520 342947 183176
521 779577 265466
522 552413 931695
523 136550 320281
524 917405 154791
525 845194 163889
526 808046 763079
527 731748 19222
528 492724 963272
529 204234 214339
530 782329 453266
531 484621 370185
532 732625 200991
533 696717 976341
534 814003 55320
535 277428 124670
536 844307 740927
537 156791 179260
538 143061 346393
539 592289 443667
540 223513 997584
541 940907 7223
542 709835 235016
543 820102 308410
544 611200 174666
545 726430 809602
546 822961 307472
547 8939 218277
548 338869 38650
549 108675 373153
550 788633 790157
551 727991 473737
552 931278 847610
553 222982 800823
554 53244 496732
555 199119 184313
556 352071 29567
557 487909 972726
558 630304 177149
559 361245 514348
560 862122 658067
561 867665 440850
562 266686 487271
563 396678 370569
564 809648 309180
565 956278 342238
566 293149 95557
567 244548 39199
568 645512 911339
569 519314 737108
570 604711 642953
571 947164 96852
572 312544 68362
573 941936 382111
574 40785 521667
575 821598 968299
576 229001 799494
577 416874 446395
578 497007 632433
579 229189 892078
580 202097 311642
581 281509 316135
582 892020 556166
583 237148 255219
584 717023 419546
585 30789 248193
586 136363 839578
587 692750 893822
588 429066 68171
589 23975 820291
590 990264 764245
591 141380 917570
592 107083 644635
593 60729 977013
594 203537 688382
595 802051 390293
596 194316 99767
597 706318 356518
598 506589 107586
599 404102 418721
600 639296 873765
601 358135 220494
602 531403 57352
603 826919 311431
604 692410 772239
605 385665 519994
606 428896 540807
607 90026 811804
608 117326 181741
609 609816 535501
610 49576 129561
611 851117 298301
612 780249 157024
613 890057 915869
614 308174 635397
615 66903 117635
616 375760 251736
617 434625 470269
618 335348 600572
619 827543 295279
620 527309 878987
621 367196 668035
622 638805 672490
623 539176 896014
624 319517 549294
625 466460 590720
626 799412 768704
627 351818 521661
628 498004 106399
629 785868 61133
630 722004 226346
631 483887 397131
632 244929 506678
633 152797 760860
634 902001 417536
635 272627 221311
636 862224 60522
637 69041 458856
638 330149 82412
639 946483 258588
640 659020 783658
641 130000 247040
642 913393 840556
643 633747 978629
644 6806 927946
645 317471 574488
646 698570 410006
647 22651 305997
648 16762 306673
649 598994 179949
650 342340 456764
651 949530 60929
652 890273 682802
653 460719 552372
654 855311 511261
655 887914 519375
656 99592 857921
657 743662 147515
658 527776 73880
659 374479 938932
660 489915 846124
661 161866 722052
662 75195 815863
663 271781 801294
664 170248 386239
665 998136 777776
666 227100 435221
667 370673 139645
668 684065 272079
669 503378 765877
670 312780 559866
671 604149 67874
672 438030 471347
673 412622 976517
674 334810 206788
675 34216 215468
676 136425 212755
677 181812 564563
678 229663 514309
679 690255 750628
680 998736 188640
681 48993 89433
682 198481 328047
683 915226 31718
684 419890 272314
685 734893 551258
686 739069 167691
687 904716 274447
688 709698 949111
689 540239 510631
690 586199 757472
691 111038 419620
692 387502 809496
693 728783 137666
694 236739 42626
695 224419 652346
696 852188 231063
697 30984 761521
698 820796 436457
699 163157 163583
700 761648 463511
701 436278 824179
702 620588 276743
703 104429 716804
704 825252 372316
705 835780 91996
706 277569 647628
707 526209 346389
708 336452 817929
709 58449 436960
710 507250 478768
711 868561 256307
712 510665 271381
713 114980 914890
714 547102 627972
715 170018 992894
716 123858 167923
717 674851 494202
718 479903 463409
719 893410 41113
720 473043 910853
721 79217 799779
722 535376 745650
723 783785 595880
724 720398 759602
725 646541 905906
726 889355 535185
727 993565 768754
728 339652 268355
729 149328 126386
730 796840 641019
731 823393 784138
732 899272 924927
733 12779 477789
734 112252 780559
735 562603 740571
736 97531 298846
737 790418 601344
738 589413 333375
739 262741 741910
740 931729 846625
741 765562 420716
742 831131 528998
743 169500 339720
744 268650 749923
745 481423 2113
746 351157 112851
747 478509 732472
748 813322 780370
749 9361 934032
750 156237 450410
751 333139 978487
752 827873 799916
753 140343 468639
754 704054 464566
755 599254 999931
756 999704 399404
757 644963 794727
758 289862 710542
759 305629 166800
760 111605 232408
761 468427 178220
762 624321 112193
763 407432 119043
764 470973 990502
765 461000 120774
766 629321 798174
767 142656 931797
768 846920 366158
769 775752 36404
770 239136 458958
771 34091 101849
772 638318 249014
773 533685 172936
774 488529 366316
775 325039 694278
776 309397 18859
777 473031 35463
778 821088 534964
779 835831 896075
780 952996 774185
781 692886 667649
782 225430 140296
783 965840 897855
784 761086 395949
785 261041 116925
786 222012 939312
787 841761 417327
788 923011 449568
789 705189 588858
790 291104 872468
791 283212 574898
792 37506 686815
793 427887 961671
794 572744 2360
795 965956 949064
796 605071 379803
797 775363 122211
798 236945 94778
799 260088 220991
800 326002 84117
801 467747 899671
802 75211 452571
803 411065 734498
804 981353 786215
805 607575 859417
806 962219 833470
807 930118 3931
808 169113 313082
809 892286 103219
810 903350 871062
811 637767 540095
812 69946 176923
813 649178 322341
814 864101 389189
815 6261 188512
816 468215 918973
817 981283 431687
818 910248 449741
819 644779 33574
820 517702 114804
821 69384 469525
822 99009 94894
823 311297 64976
824 309856 598439
825 473032 914604
826 230676 870898
827 214729 137489
828 615902 548773
829 918387 643523
830 542323 961323
831 89719 947778
832 268513 492770
833 790032 492694
834 734460 835224
835 692633 104136
836 3225 293847
837 630186 988746
838 640385 766868
839 325365 932457
840 561021 100405
841 403953 220578
842 846866 44937
843 98793 520436
844 650460 488512
845 641655 417553
846 715281 809555
847 340941 413566
848 111578 775537
849 839338 110263
850 454508 544429
851 739611 377399
852 37417 372627
853 510650 10098
854 24032 169792
855 38696 95465
856 898312 429874
857 1867 124769
858 246042 280164
859 606837 854946
860 381191 14494
861 653356 624197
862 380715 148204
863 364524 625826
864 256429 257558
865 478095 630287
866 742835 155572
867 893760 465556
868 202092 974079
869 218710 722096
870 798894 818629
871 913599 795513
872 107321 627160
873 764197 91084
874 428839 192736
875 49041 485752
876 519107 581779
877 632168 824221
878 801593 584038
879 483639 571861
880 170534 536571
881 791387 301936
882 370898 220066
883 181865 102798
884 322553 374707
885 360572 154958
886 851324 414100
887 805905 895438
888 495387 71576
889 992028 556494
890 346610 780486
891 142187 684568
892 87024 941524
893 838899 440899
894 784674 673693
895 283691 99294
896 651525 844002
897 361524 643935
898 967305 499499
899 989608 211882
900 131773 692621
901 99055 872345
902 846126 268554
903 343565 834538
904 494755 690644
905 985321 360694
906 799364 809945
907 288170 71239
908 885045 947385
909 940411 726962
910 252761 682366
911 113190 110670
912 242934 667950
913 55903 978978
914 567973 537350
915 551873 660848
916 576820 301384
917 571173 985915
918 981121 332241
919 396398 15784
920 56478 891514
921 500487 57712
922 420932 601324
923 986104 540854
924 601068 693573
925 588032 988326
926 931525 452257
927 660009 470924
928 115800 797670
929 301172 860211
930 287433 11323
931 438140 478971
932 634165 93806
933 860207 741651
934 389013 686845
935 85135 344190
936 346316 246838
937 138930 264435
938 750840 660932
939 450661 772010
940 552150 258233
941 677806 707762
942 249917 540549
943 222708 97849
944 667219 477366
945 125707 239469
946 943228 709553
947 930648 712287
948 545197 253648
949 918782 156496
950 850484 325171
951 90193 829058
952 141423 329798
953 310519 223762
954 202339 119460
955 248216 17951
956 130450 823805
957 734503 47963
958 68094 728586
959 548322 921877
960 548609 606558
961 822869 232516
962 836360 759963
963 253997 517258
964 105414 809131
965 953916 527078
966 458593 331201
967 523793 534199
968 127782 854001
969 973259 201954
970 472454 494121
971 549526 745341
972 928757 519148
973 416600 710712
974 873192 170684
975 458290 27939
976 148233 109650
977 202579 323405
978 866578 758991
979 305264 607224
980 202015 456517
981 250502 384
982 647005 754094
983 468424 385108
984 895048 215354
985 631363 357382
986 855394 377637
987 463586 520670
988 458324 713218
989 29937 512954
990 893385 495005
991 211994 498190
992 607115 497398
993 276575 458208
994 684195 769699
995 65775 742673
996 958952 757905
997 570591 115071
998 638727 171889
999 281755 408087
1000 60823 703381
1001 680774 360237
1002 277299 963285
1003 815944 650043
1004 502535 705180
1005 46830 408369
1006 74796 535565
1007 541449 459342
1008 497565 492597
1009 429793 531934
1010 115367 296535
1011 103353 486961
1012 154530 927981
1013 676608 495156
1014 100338 500301
1015 704725 808281
1016 210683 324756
1017 466124 485016
1018 420209 676429
1019 956741 147773
1020 999833 783977
1021 28415 152261
1022 654332 769240
1023 639320 471991
1024 603374 642609
1025 438463 143571
1026 71550 781454
1027 703361 252542
1028 492697 356018
1029 894113 792282
1030 543076 139515
1031 693301 354761
1032 705347 262852
1033 379954 922534
1034 881233 772209
1035 820021 25573
1036 889222 787184
1037 93470 971795
1038 224984 321899
1039 783599 901988
1040 435284 320589
1041 601042 308055
1042 957224 565209
1043 114980 855921
1044 619409 203271
1045 105062 497674
1046 795195 184532
1047 327751 974259
1048 894755 241231
1049 58790 682536
1050 544255 317421
1051 688392 701386
1052 207325 117873
1053 542528 763495
1054 824229 138151
1055 137561 636775
1056 736609 690841
1057 687220 45402
1058 344319 508768
1059 27010 731087
1060 368097 138723
1061 863744 198697
1062 227953 502600
1063 337181 187836
1064 579858 975597
1065 429267 461489
1066 497669 645447
1067 764426 798508
1068 583980 910200
1069 620834 911822
1070 220890 606212
1071 828911 888321
1072 835174 966338
1073 633930 596498
1074 956579 825151
1075 637078 706919
1076 661372 83193
1077 253268 82766
1078 819751 42944
1079 936959 408816
1080 533893 632327
1081 142660 912407
1082 917261 531349
1083 807864 848287
1084 855667 720882
1085 411472 747820
1086 552188 201858
1087 94008 661178
1088 477350 780550
1089 945428 145186
1090 682848 294236
1091 250876 171041
1092 441703 796939
1093 318828 585262
1094 728185 233077
1095 990644 735692
1096 54533 899952
1097 500350 473069
1098 54023 627053
1099 794313 173995
1100 488987 853379
1101 651070 811392
1102 142302 342841
1103 456042 490330
1104 641490 456329
1105 763937 234488
1106 314758 703882
1107 418172 798200
1108 577794 242707
1109 412056 444192
1110 477326 180811
1111 53974 681671
1112 231894 558092
1113 96750 740796
1114 59556 751167
1115 205135 987020
1116 139060 489098
1117 381248 448360
1118 979478 546994
1119 752869 643502
1120 219144 76121
1121 173206 283993
1122 755751 809833
1123 681718 372861
1124 668058 942257
1125 376319 313227
1126 567496 43145
1127 968860 501967
1128 714318 161971
1129 430144 693942
1130 363363 909048
1131 737461 997987
1132 237184 687816
1133 61282 30765
1134 948130 608339
1135 116482 204933
1136 574649 469798
1137 67872 164099
1138 613314 10828
1139 712811 729927
1140 843773 934778
1141 310651 365614
1142 387803 296087
1143 249559 141073
1144 251913 693432
1145 387077 948713
1146 598863 144529
1147 527019 14211
1148 501471 703407
1149 216120 591651
1150 196518 670889
1151 660049 938131
1152 98484 441541
1153 2575 201882
1154 655342 672772
1155 252408 573245
1156 910058 736712
1157 306864 414650
1158 310184 592931
1159 470967 222973
1160 186344 357874
1161 814644 356479
1162 411820 445593
1163 544883 636517
1164 371314 626331
1165 161523 411431
1166 355486 40039
1167 477518 270528
1168 24719 573939
1169 58749 973153
1170 985902 656627
1171 670105 28940
1172 507087 29202
1173 134068 242384
1174 732709 81426
1175 469327 864953
1176 332093 589789
1177 430127 785087
1178 315403 620010
1179 460612 827956
1180 416821 428635
1181 143133 682188
1182 686869 595780
1183 903140 881117
1184 229625 277661
1185 280581 67800
1186 860222 389541
1187 753646 321390
1188 25781 224854
1189 926351 626733
1190 130190 924873
1191 175905 543358
1192 209509 732888
1193 268298 673297
1194 353169 881738
1195 367387 143602
1196 344314 781088
1197 692571 918102
1198 796405 280564
1199 275293 185696
1200 3420 909214
1201 316033 105975
1202 951236 544453
1203 689048 788734
1204 380279 697239
1205 516789 642105
1206 266841 578873
1207 460568 273219
1208 84321 362045
1209 989617 768767
1210 799374 622576
1211 605823 43928
1212 274240 371367
1213 751766 754246
1214 438305 209192
1215 632342 237047
1216 844575 229111
1217 109944 488084
1218 658032 597031
1219 82790 936290
1220 648566 906253
1221 683680 584402
1222 82363 744811
1223 537778 300385
1224 506847 321204
1225 166335 42159
1226 842258 66101
1227 553353 766373
1228 64639 86921
1229 996031 463151
1230 886421 92016
1231 705944 443988
1232 48673 610535
1233 958425 682438
1234 496510 715756
1235 735440 783935
1236 855197 668412
1237 602431 757215
1238 780317 539722
1239 490574 507867
1240 306728 664845
1241 758214 975153
1242 322771 540325
1243 531103 400586
1244 180438 499408
1245 529659 975593
1246 100521 367034
1247 200850 864630
1248 51055 15267
1249 981970 325148
1250 964494 998055
1251 809810 998980
1252 14476 501490
1253 283944 867105
1254 743329 13027
1255 235270 664053
1256 906483 496623
1257 933492 910827
1258 991494 338910
1259 243138 184042
1260 559480 943157
1261 700468 171361
1262 751261 737384
1263 974125 856217
1264 653936 100940
1265 473270 913211
1266 796393 477547
1267 272596 642675
1268 758361 261591
1269 41661 411943
1270 548831 192192
1271 157447 996396
1272 939928 586501
1273 275125 929160
1274 615772 463465
1275 890505 194838
1276 361331 881029
1277 851877 51283
1278 201662 332263
1279 726383 371801
1280 743128 22353
1281 825444 331385
1282 464196 43077
1283 506605 910087
1284 556694 346990
1285 635702 62334
1286 723137 779673
1287 293536 364642
1288 581825 819438
1289 319483 699978
1290 535722 641861
1291 129834 282134
1292 357812 450917
1293 87767 465007
1294 13350 229519
1295 136069 848274
1296 704896 694670
1297 776241 486496
1298 469055 377773
1299 702859 575286
1300 4675 455687
