NAME : portgen-200-201
COMMENT : portgen N=200, seed=201
TYPE : TSP
DIMENSION : 200
EDGE_WEIGHT_TYPE : EUC_2D
NODE_COORD_SECTION
1 384850 225255
2 213808 929096
3 633397 908297
4 943 629596
5 499479 377069
6 394235 883897
7 486211 702412
8 131203 599818
9 762484 167604
10 666215 409217
11 277608 905841
12 591603 629503
13 336028 36225
14 966648 24700
15 592521 950619
16 945502 182172
17 796391 299730
18 959615 53815
19 656151 588903
20 184053 303307
21 166081 412406
22 669015 304679
23 173170 113000
24 582552 390851
25 154975 858356
26 774352 936966
27 873238 976830
28 893872 202678
29 428864 914078
30 969481 579582
31 252146 412039
32 445542 196172
33 210987 981829
34 214881 181532
35 529241 18202
36 17266 371633
37 12628 807859
38 634864 340641
39 32602 614773
40 735631 133350
41 607361 52569
42 55219 12939
43 698473 533462
44 736629 600219
45 88743 977786
46 838934 474618
47 59661 165850
48 286041 794448
49 399777 861156
50 669814 832529
51 80398 967779
52 655219 21625
53 250995 721782
54 881747 860299
55 278357 360409
56 466048 828645
57 825334 991694
58 740647 777527
59 352377 279692
60 910130 416539
61 582051 353725
62 511717 696712
63 937804 49486
64 716414 991003
65 556863 913081
66 458894 172302
67 336415 375221
68 667301 778715
69 227235 63525
70 272291 920945
71 181084 456937
72 690088 672204
73 395735 485208
74 962900 362949
75 228045 236555
76 78034 408774
77 304293 756732
78 373635 908095
79 631364 279997
80 354323 472279
81 494547 818221
82 588008 357411
83 179325 9111
84 138556 153130
85 595958 255438
86 814626 989428
87 51646 673575
88 338505 173276
89 49432 754984
90 323077 29708
91 418122 436416
92 636679 84584
93 418533 640672
94 584294 979004
95 195896 658189
96 640159 74104
97 467566 16852
98 106318 191655
99 405290 16513
100 333699 222458
101 435776 207915
102 39872 198336
103 818433 641617
104 772095 219709
105 338198 732962
106 323801 652359
107 84101 696133
108 832120 420443
109 350655 571156
110 251092 987669
111 603820 122042
112 819431 373500
113 819662 606711
114 949556 853309
115 855141 696887
116 401181 829723
117 416785 590114
118 705907 765762
119 352314 940545
120 252463 998090
121 290016 13138
122 727911 208226
123 54369 518116
124 254673 94066
125 197190 499607
126 242099 551981
127 161371 636811
128 821277 606053
129 791129 449757
130 492429 52671
131 289303 831549
132 967245 340108
133 442945 310663
134 924448 875875
135 641764 314004
136 165769 256589
137 373965 751485
138 745570 51839
139 960671 182619
140 552223 213608
141 815581 499798
142 360880 802470
143 407584 569631
144 862477 76677
145 147168 395244
146 841313 476438
147 298780 938459
148 832321 33427
149 639172 976426
150 462655 2529
151 557445 72054
152 541842 983582
153 684026 742300
154 191100 358900
155 229227 251645
156 743576 714451
157 302588 97185
158 211357 812864
159 532769 28785
160 507786 409518
161 671491 948022
162 413219 639235
163 756559 93715
164 714746 390383
165 67458 3269
166 860738 601770
167 953391 300578
168 470031 101129
169 197209 263695
170 591113 594719
171 36862 833691
172 568890 737650
173 723752 893291
174 63219 659545
175 181900 738605
176 318681 248788
177 908967 459386
178 141791 955674
179 118662 241264
180 513550 582897
181 545090 927405
182 767787 634507
183 214782 909884
184 145561 564938
185 373432 318066
186 749645 873223
187 846885 769181
188 90836 422702
189 39055 953833
190 497443 800884
191 975052 473481
192 876833 484561
193 458178 933332
194 833982 318883
195 85795 560147
196 955568 632271
197 890262 273047
198 845074 163639
199 986806 799709
200 646813 301049
