NAME : portgen-200-209
COMMENT : portgen N=200, seed=209
TYPE : TSP
DIMENSION : 200
EDGE_WEIGHT_TYPE : EUC_2D
NODE_COORD_SECTION
1 163377 824263
2 327261 850418
3 51943 415894
4 165873 822244
5 794525 976150
6 208781 142516
7 621101 2088
8 339477 424993
9 25214 213378
10 971050 362787
11 38127 573815
12 286787 441896
13 932532 454427
14 996825 904810
15 586862 998
16 892749 429169
17 398018 17799
18 206042 284531
19 394374 324092
20 360225 277935
21 866043 678862
22 697433 110247
23 565361 195066
24 688737 912320
25 762123 139903
26 140013 517930
27 160037 343197
28 523460 734207
29 426245 309461
30 644376 767411
31 21519 841780
32 462018 516590
33 110107 529918
34 445082 510854
35 436727 144410
36 736256 112893
37 451255 831147
38 222774 520197
39 413778 943589
40 918436 198325
41 28182 687363
42 260434 819450
43 979478 50969
44 967151 881428
45 907691 676123
46 839448 883520
47 887365 215815
48 541679 753149
49 227607 866286
50 887473 45163
51 781288 745147
52 993884 563798
53 111721 452649
54 257496 340586
55 363718 472490
56 767056 544817
57 401770 968253
58 927962 137999
59 954414 246203
60 974911 356958
61 302310 578796
62 623380 391563
63 363122 991108
64 119009 887456
65 719425 770124
66 262701 73191
67 579871 445945
68 431268 483364
69 285593 292180
70 891487 841479
71 96554 720948
72 906517 550733
73 373812 260651
74 260139 495801
75 852693 550570
76 634139 340150
77 146860 117348
78 782461 708097
79 165276 547938
80 132529 628356
81 167056 965315
82 449099 522238
83 375936 46107
84 638300 851036
85 594440 667310
86 877859 458613
87 393509 424340
88 722818 962160
89 431935 506032
90 609101 655024
91 825832 571071
92 754927 91068
93 603068 297386
94 624092 57632
95 70009 385161
96 845064 434556
97 697740 224176
98 963619 637941
99 327438 482176
100 827914 411652
101 828716 754107
102 886700 197668
103 724737 63068
104 585223 55792
105 514279 485075
106 84004 107643
107 477928 747368
108 783292 732499
109 267574 224922
110 558618 737994
111 718669 156123
112 23121 182788
113 838594 123752
114 571912 195841
115 699602 659750
116 376936 376143
117 991752 124026
118 571020 718189
119 93142 7559
120 307776 870569
121 29812 399169
122 499013 332015
123 666492 688940
124 411434 514952
125 385581 839867
126 66028 131597
127 782573 168164
128 34715 452572
129 762355 762673
130 626648 6548
131 969925 577663
132 748016 643710
133 455263 684834
134 608629 145913
135 80876 94351
136 321064 752622
137 839340 718751
138 671966 587071
139 373549 854957
140 148072 386022
141 361396 809239
142 569193 693053
143 689824 799272
144 628127 348041
145 668763 886185
146 109559 947229
147 926683 213424
148 549504 277189
149 559829 780262
150 660049 79420
151 315391 556477
152 366879 999559
153 478470 256789
154 562404 89520
155 478339 235442
156 824445 414313
157 93909 740462
158 896989 22696
159 650980 534591
160 94205 178073
161 125005 828367
162 485864 1455
163 778960 764587
164 385742 839780
165 240280 415176
166 24666 284029
167 376617 912630
168 561577 947083
169 715329 828730
170 796063 667128
171 148292 93536
172 253835 490690
173 761180 281192
174 461364 925227
175 434464 784917
176 891447 720048
177 539982 244872
178 54753 31361
179 179859 454249
180 437982 531387
181 541459 733674
182 293456 811210
183 87150 730908
184 160478 603219
185 979282 615797
186 561331 725753
187 100127 309288
188 286625 404956
189 288385 240992
190 946701 747598
191 584727 931492
192 401798 708892
193 873717 290992
194 990572 565406
195 825479 830668
196 786604 112110
197 849447 180266
198 105797 422538
199 993408 944547
200 204065 356223
