NAME : portgen-1500-1510
COMMENT : portgen N=1500, seed=1510
TYPE : TSP
DIMENSION : 1500
EDGE_WEIGHT_TYPE : EUC_2D
NODE_COORD_SECTION
1 771336 487876
2 652408 430399
3 867832 338805
4 112519 901680
5 151284 151836
6 49306 325352
7 182655 986865
8 85017 244014
9 376615 407374
10 544885 312167
11 92623 328224
12 715987 307267
13 689003 214492
14 529442 532696
15 166590 193807
16 813914 597171
17 362577 168688
18 531130 929640
19 822973 509185
20 10292 401722
21 322280 261325
22 693832 740842
23 95338 666091
24 957006 591281
25 624491 676523
26 355569 247079
27 300695 923551
28 910196 174164
29 125299 483719
30 899269 938192
31 515832 603333
32 891387 749562
33 829556 787980
34 631520 441813
35 891527 418925
36 287007 785333
37 782882 868361
38 956597 845544
39 27529 792436
40 397070 514839
41 89193 45722
42 633427 228398
43 677975 210580
44 705783 613015
45 339132 743149
46 298119 381159
47 617658 591367
48 114715 536946
49 478443 825470
50 784244 249793
51 638562 164570
52 194210 109652
53 587330 309847
54 613652 72296
55 245575 699616
56 468380 512283
57 144587 156120
58 640072 134672
59 985675 300020
60 634846 292609
61 309537 806049
62 657568 641733
63 780362 122437
64 591123 673230
65 281031 646750
66 231891 955232
67 546860 697454
68 46458 576909
69 901134 477307
70 588325 543303
71 224904 405763
72 978168 46522
73 433612 492069
74 723591 975924
75 811004 992278
76 945823 805213
77 544438 137494
78 17901 683329
79 617709 496756
80 63194 10420
81 408712 136345
82 483970 702272
83 474711 62617
84 534114 98065
85 722508 148002
86 411080 9750
87 489016 642568
88 346786 504324
89 261611 520073
90 623831 97032
91 504727 94366
92 610035 270610
93 238037 95546
94 471261 844587
95 222742 983840
96 42794 803069
97 754798 440322
98 132222 215154
99 916746 335599
100 699735 929287
101 230458 203517
102 352093 713971
103 487550 851456
104 195177 273827
105 899456 922355
106 212068 773121
107 274013 79353
108 967625 605642
109 381546 43647
110 570050 259557
111 145870 198515
112 398329 793220
113 917544 207563
114 657657 775045
115 155017 495330
116 309147 987783
117 620617 701476
118 884964 731605
119 820353 530682
120 302985 632395
121 714000 427613
122 274537 963185
123 837970 844279
124 404740 961578
125 522778 924659
126 557496 141701
127 180581 204405
128 620140 242675
129 582900 650617
130 829006 755945
131 31102 664494
132 970842 267061
133 208355 784454
134 498584 310827
135 241383 123346
136 200902 419967
137 520869 645390
138 702060 4168
139 17933 193923
140 173079 674868
141 624662 7040
142 946038 399072
143 464227 644652
144 16940 353556
145 493120 100509
146 233020 509525
147 289299 179638
148 431492 294032
149 906744 629146
150 261124 833801
151 826346 210817
152 788498 847910
153 299996 550455
154 195662 781509
155 740178 975488
156 225734 229344
157 157496 728496
158 522924 521576
159 375195 791203
160 835568 914323
161 877710 869437
162 49702 407581
163 296999 990084
164 631469 672958
165 345394 151604
166 808506 236423
167 453744 197591
168 449133 395318
169 849543 217541
170 876147 942650
171 269456 225736
172 517987 578797
173 222799 363583
174 459822 881717
175 882639 441408
176 662562 233785
177 283752 109519
178 25295 589922
179 757072 590906
180 398776 904678
181 700912 978121
182 905361 797528
183 706031 999998
184 711356 578699
185 505697 159341
186 61753 493478
187 908564 394160
188 251760 643924
189 585685 940183
190 382286 707077
191 233012 40562
192 274182 440716
193 450692 830384
194 331061 656216
195 491560 449135
196 683961 270844
197 711844 716805
198 880896 775977
199 317172 123827
200 327036 578874
201 777897 519639
202 499430 175561
203 208395 622000
204 959603 843035
205 658826 194910
206 258860 100856
207 99346 949641
208 220716 430067
209 266276 188556
210 916631 930053
211 682825 587529
212 251663 926822
213 381444 542114
214 994048 733003
215 185764 629760
216 684320 742649
217 281356 187376
218 448217 132155
219 941215 324540
220 220000 20625
221 564108 142505
222 739584 561506
223 766309 96432
224 19181 785021
225 335361 338782
226 781929 584169
227 938062 697275
228 894553 35248
229 238283 312053
230 727344 76240
231 680784 635062
232 623035 638201
233 630802 116354
234 361272 537840
235 183331 124283
236 410886 481255
237 853194 577849
238 148123 98656
239 649466 554387
240 32268 346196
241 303830 681994
242 5658 109524
243 948976 49258
244 119613 643154
245 556574 331862
246 770883 403375
247 141209 95716
248 609738 82852
249 289311 161734
250 413382 667653
251 446966 464793
252 752752 989165
253 34951 99935
254 578510 828538
255 748299 845295
256 915634 595128
257 755479 395481
258 305357 277408
259 493853 527318
260 28462 547949
261 827043 199537
262 124457 515678
263 677317 946092
264 728503 864029
265 542898 48188
266 520145 820927
267 806088 186972
268 430561 708701
269 926515 610176
270 804167 671568
271 555404 592294
272 614691 8624
273 504818 571345
274 278918 625531
275 418399 663646
276 354349 425281
277 618836 365193
278 147507 626038
279 658705 565779
280 558603 326249
281 173419 968334
282 24371 76730
283 289891 323339
284 980437 746854
285 890663 734011
286 998489 868322
287 108919 364816
288 193600 401761
289 580701 759263
290 368171 51278
291 287386 162723
292 305425 216648
293 874769 551811
294 796555 729357
295 897081 107222
296 728264 179660
297 719513 70155
298 673078 687082
299 483375 249875
300 815024 103056
301 990643 519654
302 257359 367121
303 376259 191625
304 119855 402188
305 490424 595695
306 829482 929348
307 668697 451380
308 597985 993759
309 248820 954216
310 403652 602808
311 839963 730561
312 931830 787606
313 743367 478834
314 610962 741797
315 988556 1974
316 281906 178513
317 268838 772475
318 221795 358038
319 494025 854045
320 618662 881009
321 302991 842339
322 325705 294273
323 267258 997702
324 247830 931907
325 326787 194243
326 76120 741577
327 261318 813049
328 821150 812130
329 250815 484884
330 145326 18220
331 697600 265810
332 783525 609414
333 292704 987143
334 603642 374424
335 184122 600282
336 745928 316913
337 627429 209408
338 526688 98385
339 469243 118780
340 966455 931237
341 228019 126078
342 596471 970336
343 304374 16095
344 394987 659424
345 479771 234651
346 754396 119601
347 669923 18379
348 135081 986077
349 214910 116296
350 767584 168872
351 528459 129049
352 965451 395550
353 966224 950041
354 145106 290982
355 508675 805054
356 417143 591391
357 5112 910674
358 263824 577998
359 595887 765145
360 474333 306626
361 772233 487346
362 606839 15249
363 71823 616878
364 351461 231878
365 243184 576646
366 953279 178260
367 610104 161400
368 514094 636627
369 120965 685797
370 706511 726375
371 420208 629841
372 185090 173145
373 462418 267050
374 512761 654673
375 946556 518202
376 634616 983031
377 873112 190938
378 215593 350199
379 518944 804050
380 881456 329597
381 829076 459308
382 584470 782300
383 384846 787301
384 406301 831966
385 448255 996774
386 65237 941213
387 818589 956131
388 672009 789202
389 614233 415901
390 799656 721624
391 97934 547410
392 350422 913587
393 747570 493970
394 593789 827804
395 776554 726792
396 230325 288998
397 237541 709737
398 661138 478994
399 811252 228958
400 501135 673216
401 652816 96859
402 855017 224932
403 420268 87206
404 632608 959525
405 443367 721622
406 756409 691140
407 27496 154663
408 99271 540077
409 221767 874733
410 121161 905851
411 976048 177342
412 330831 775039
413 343958 968377
414 86195 593656
415 535863 584803
416 156593 654708
417 972534 78033
418 965214 406794
419 519913 195759
420 814315 207493
421 272203 719056
422 706642 870702
423 750744 52983
424 958167 462502
425 365779 692760
426 392798 217595
427 693095 916332
428 516622 998107
429 124325 776983
430 259717 13474
431 567292 436848
432 145209 235873
433 449418 37352
434 984497 156793
435 403919 46288
436 581909 759264
437 508953 428401
438 513052 758452
439 484247 414499
440 258416 345850
441 844052 309212
442 333939 522389
443 17511 719744
444 509499 736660
445 628615 927862
446 422296 363120
447 791840 768027
448 625584 512939
449 210102 278241
450 357650 992291
451 568735 543668
452 204086 19928
453 848708 83586
454 883656 170705
455 898820 796878
456 488608 387664
457 148368 331854
458 591177 204171
459 645008 377181
460 610289 936479
461 827249 706255
462 799143 411628
463 477552 38240
464 555178 489024
465 579692 429465
466 874796 313542
467 515678 461538
468 857241 456387
469 160843 2084
470 931212 813339
471 74736 132317
472 126370 692136
473 100612 716041
474 563976 380212
475 290475 587343
476 957761 721077
477 698548 928184
478 117494 255193
479 27989 742548
480 162687 392321
481 922742 881572
482 239493 85480
483 722142 356291
484 261294 456231
485 231242 875135
486 640194 264796
487 86706 22946
488 978717 106171
489 7706 870959
490 294133 222359
491 10250 812630
492 326337 187371
493 506723 993224
494 74049 430198
495 739396 500950
496 195092 704611
497 770842 56076
498 173144 809939
499 45610 103423
500 713418 994440
501 708334 693017
502 86078 68115
503 577092 145131
504 394740 511177
505 421461 124270
506 181144 597791
507 3152 661736
508 197228 218130
509 110729 183416
510 912335 912202
511 310680 157870
512 742813 236801
513 166801 947177
514 178717 18590
515 445854 833586
516 711431 496529
517 449497 169862
518 41215 412459
519 809478 664601
520 990143 288592
521 882494 890632
522 517862 827193
523 190270 37222
524 961798 534040
525 889275 225967
526 631221 27020
527 657569 879831
528 283009 211804
529 243519 916215
530 26900 164633
531 335653 730138
532 521033 132869
533 241775 290511
534 79929 175958
535 471465 160005
536 256332 576688
537 294141 686367
538 280981 283659
539 500301 862981
540 953791 954996
541 703657 262502
542 991690 281221
543 497933 981293
544 975496 316628
545 928086 750703
546 332529 633519
547 193136 830137
548 32259 305805
549 596491 831494
550 546212 906610
551 536921 98816
552 580248 934278
553 522310 368719
554 35329 376348
555 381897 301716
556 236308 926891
557 988128 276196
558 832103 702133
559 537002 690895
560 100609 935970
561 694020 248434
562 629746 564854
563 623084 157515
564 996439 359862
565 164057 912261
566 248330 123952
567 481083 652075
568 718688 776766
569 274373 715493
570 449117 795800
571 444291 284600
572 216019 992116
573 56683 84095
574 3772 628281
575 207053 874743
576 309365 236628
577 667436 633950
578 658280 412968
579 617732 928173
580 215590 745543
581 94346 319836
582 927230 586097
583 857424 951708
584 710871 996012
585 219513 748008
586 698360 908720
587 483842 225865
588 626604 457391
589 580998 995796
590 906573 210115
591 539783 68266
592 144272 418514
593 817915 928494
594 196722 894986
595 794650 766979
596 65894 278360
597 495980 701109
598 97439 535570
599 800758 990153
600 365511 599291
601 503096 7976
602 721708 996937
603 334960 241098
604 92356 248922
605 816034 729786
606 216245 722746
607 133522 448610
608 679649 815985
609 823855 226120
610 488658 321854
611 150949 720718
612 630500 620221
613 244911 690384
614 187012 486904
615 890905 385506
616 365035 332075
617 179761 176787
618 993870 817036
619 934744 695661
620 738865 1930
621 104638 970602
622 406327 472796
623 616030 345176
624 647860 875758
625 456198 407055
626 348558 313853
627 99248 980005
628 234255 171021
629 828214 544920
630 3067 517924
631 306354 396694
632 510057 814103
633 625148 245643
634 316418 660725
635 832580 334472
636 168125 948097
637 769922 81603
638 973295 837095
639 621469 650494
640 385965 73889
641 862169 642091
642 483837 372980
643 79152 968341
644 822017 365658
645 551639 748226
646 500617 274019
647 863081 404392
648 833805 156541
649 200679 324724
650 499501 778934
651 723706 997365
652 489792 382308
653 544885 706467
654 830016 726267
655 900853 265914
656 349003 462556
657 993281 254840
658 17306 32334
659 533613 105665
660 980298 468607
661 44963 991694
662 161224 53645
663 610766 170759
664 458304 387613
665 536717 266828
666 7079 895202
667 749641 120050
668 724886 399612
669 648809 228996
670 355674 46817
671 434728 716352
672 385359 83031
673 703263 508922
674 112795 809435
675 793626 663045
676 698236 813066
677 788006 232673
678 771854 828504
679 247724 369741
680 657422 145273
681 57657 601019
682 370593 854036
683 831186 632650
684 77196 910249
685 551577 508383
686 919539 724177
687 312038 317252
688 770370 231897
689 203687 928551
690 281791 782261
691 923035 88562
692 730191 391444
693 209170 406060
694 524608 895604
695 288864 92235
696 322415 738559
697 677419 847290
698 127277 710550
699 404313 68106
700 312661 471365
701 305235 184244
702 527644 11364
703 740010 609674
704 82874 396562
705 23502 365794
706 303895 352119
707 80877 565187
708 822857 319097
709 923600 523303
710 726758 120636
711 228336 9090
712 597588 80212
713 203148 735295
714 196533 300674
715 577242 160696
716 149023 807125
717 905048 915996
718 478366 570915
719 7684 165004
720 568587 890072
721 482459 1305
722 168845 168227
723 863898 313325
724 140971 597207
725 644141 391981
726 514016 103639
727 490864 151964
728 322342 498110
729 279195 611647
730 532998 169094
731 601989 917870
732 827975 133429
733 883334 302590
734 183273 912650
735 701289 509531
736 178126 326393
737 879161 334776
738 606619 124697
739 518225 445623
740 757869 705038
741 456099 584886
742 767675 408147
743 558706 231152
744 979149 771618
745 32662 175775
746 387642 95033
747 463715 59055
748 711946 156066
749 122144 834068
750 561607 739201
751 795100 695347
752 839337 939103
753 935882 929130
754 335964 82716
755 593258 91189
756 518960 507577
757 578985 357222
758 781452 506955
759 454154 768919
760 421483 727267
761 180445 349204
762 351042 962087
763 714430 482778
764 487055 940057
765 398894 677489
766 788732 435508
767 852365 666680
768 186078 948522
769 5900 410452
770 626695 51751
771 776997 210230
772 350135 305394
773 995330 38437
774 743991 501627
775 344625 229167
776 669011 182086
777 435174 884118
778 950468 359591
779 842982 172657
780 753025 987359
781 923229 925511
782 456021 541507
783 314191 308730
784 157441 273591
785 361892 743015
786 762964 952527
787 424294 192315
788 58256 998358
789 914030 466924
790 11619 354839
791 639796 314398
792 187032 411535
793 754260 863221
794 979487 310858
795 352488 877347
796 791081 732309
797 48560 883680
798 288786 824470
799 785935 157819
800 247137 996971
801 124406 277066
802 490007 989785
803 589371 354612
804 995054 23638
805 129857 87246
806 380104 532123
807 820168 875677
808 196278 190919
809 876951 572341
810 252720 489721
811 522794 999622
812 26453 364921
813 618608 485898
814 462520 434508
815 602944 703644
816 3304 890392
817 337066 924373
818 974735 107672
819 494230 311354
820 215257 563340
821 986270 407146
822 58137 862767
823 354553 791458
824 705855 683639
825 265072 802887
826 361950 351427
827 554874 543493
828 993666 234014
829 939999 565634
830 15050 481698
831 860382 683699
832 808380 566517
833 100976 972958
834 473986 957400
835 521123 404819
836 485063 193312
837 307269 449832
838 127770 171366
839 444747 482960
840 371254 384593
841 545899 896885
842 419458 121246
843 843261 319605
844 82011 770549
845 823396 1776
846 633686 536829
847 790231 810438
848 78276 792958
849 99876 608304
850 734996 183187
851 346711 222894
852 312384 880478
853 256988 465064
854 931969 433628
855 700231 674061
856 152003 169449
857 742237 13273
858 848011 323553
859 893468 997942
860 488240 308018
861 873081 865681
862 222404 337936
863 58107 262168
864 880927 426790
865 192843 662706
866 239397 11118
867 782729 697193
868 232589 376449
869 154647 406184
870 273234 519708
871 426136 84068
872 282308 515378
873 128695 768005
874 314425 452295
875 752330 816107
876 912030 673086
877 415460 72290
878 943789 335593
879 440165 615191
880 647888 880539
881 310416 525784
882 160393 180523
883 247924 67935
884 887141 226859
885 884577 80005
886 9128 441173
887 245611 672133
888 395987 199994
889 450220 150113
890 394146 722514
891 822003 265736
892 778901 312304
893 352289 713613
894 850724 602205
895 449268 164654
896 489307 927787
897 521606 193228
898 510579 984963
899 838456 610175
900 119390 928701
901 317785 164311
902 58148 29816
903 994104 646293
904 894184 103156
905 720000 230176
906 484868 837960
907 165922 483234
908 391231 382629
909 4177 967165
910 669943 262960
911 229478 276966
912 107469 955876
913 762220 844817
914 383024 215795
915 678028 749694
916 305810 347063
917 430113 163970
918 237646 984042
919 99814 295667
920 921072 969660
921 709435 883559
922 932262 186307
923 935175 212341
924 820318 565730
925 431008 665762
926 601938 622660
927 932146 369696
928 622891 970721
929 734198 894177
930 792169 10061
931 546479 598517
932 182083 750340
933 520740 601308
934 905697 979614
935 548058 178889
936 562310 438447
937 536156 4180
938 661021 606817
939 344819 737773
940 332985 791498
941 110618 488847
942 423625 667966
943 203214 707292
944 164980 679772
945 643229 636337
946 78344 120199
947 747609 742183
948 407349 270987
949 347402 928081
950 525286 328357
951 867522 82545
952 232744 639509
953 555144 113091
954 199034 264179
955 166481 915598
956 805741 54425
957 250947 155832
958 931716 426280
959 850907 439900
960 342991 249753
961 253906 977616
962 454328 219700
963 311367 479765
964 205702 896647
965 449036 547930
966 407783 80639
967 571291 417387
968 985757 56193
969 237899 267793
970 736250 776933
971 856385 725079
972 336781 393476
973 382431 100728
974 665871 527909
975 430815 927584
976 65285 450755
977 479045 977355
978 920574 786882
979 511253 815357
980 653752 498950
981 875192 931241
982 527929 389547
983 59213 80661
984 717644 857471
985 773401 830988
986 760409 322998
987 9084 415406
988 184467 803150
989 498571 476972
990 299125 524484
991 968511 390345
992 242894 950085
993 672738 476541
994 552710 181743
995 358174 905095
996 338548 380428
997 494391 905262
998 16524 533386
999 715995 921374
1000 209008 579280
1001 602157 188898
1002 228783 906331
1003 959072 674939
1004 207860 528959
1005 304617 444033
1006 234172 329510
1007 457183 748656
1008 160402 494763
1009 436850 622667
1010 373023 525826
1011 364666 796269
1012 648462 194121
1013 228830 571510
1014 94214 102752
1015 456334 509528
1016 595290 969611
1017 172354 855092
1018 290311 639001
1019 933161 494238
1020 789683 177974
1021 39691 930042
1022 808720 832347
1023 540429 542279
1024 731965 300269
1025 676431 445013
1026 439171 613242
1027 465040 699480
1028 983990 632546
1029 16543 373691
1030 616019 320071
1031 741777 713622
1032 739276 126643
1033 404341 304130
1034 520790 624835
1035 208227 618123
1036 762798 136580
1037 946236 928009
1038 86654 751423
1039 331229 948982
1040 210131 596284
1041 554966 720523
1042 486733 136262
1043 767750 881667
1044 230334 45711
1045 450750 986181
1046 118210 308326
1047 286010 171560
1048 415176 903111
1049 983806 880710
1050 745693 789005
1051 211049 782983
1052 90138 80147
1053 890047 718648
1054 126509 328777
1055 931730 102322
1056 402211 970832
1057 922940 629837
1058 201860 433451
1059 427611 567716
1060 711467 501230
1061 320323 640079
1062 879141 419221
1063 407073 979815
1064 46441 866089
1065 37962 368005
1066 624914 2451
1067 17251 107808
1068 194072 584134
1069 797582 856895
1070 934401 334298
1071 454055 662618
1072 334244 949520
1073 665857 478131
1074 429184 866789
1075 764486 435361
1076 856669 117717
1077 842748 377687
1078 164091 208598
1079 765731 982329
1080 886074 305912
1081 921065 269613
1082 394376 597431
1083 648266 739593
1084 636588 973420
1085 963980 723729
1086 4266 560822
1087 803229 276106
1088 644560 202606
1089 797331 501454
1090 255129 198475
1091 214083 64111
1092 980015 732049
1093 446939 355300
1094 608075 419820
1095 459542 454479
1096 947545 824162
1097 892915 210672
1098 330031 893233
1099 859388 58137
1100 304959 463250
1101 680800 927730
1102 611659 566011
1103 221277 792557
1104 137701 110698
1105 930747 808791
1106 600522 345910
1107 522787 431594
1108 358367 96903
1109 376698 183704
1110 267399 755033
1111 880204 578450
1112 668461 500729
1113 42929 76536
1114 949163 237217
1115 54828 852002
1116 64905 686632
1117 570706 446337
1118 597952 868173
1119 541324 548420
1120 373682 350036
1121 978601 424371
1122 152420 704508
1123 574275 369094
1124 155700 392185
1125 167742 253495
1126 944069 622171
1127 3308 452956
1128 398345 994167
1129 357023 165321
1130 968059 353104
1131 251233 589280
1132 737016 580711
1133 830190 176151
1134 193489 818279
1135 857318 989272
1136 941202 984512
1137 15961 13904
1138 810963 258033
1139 575141 215504
1140 102383 48761
1141 719512 783841
1142 269158 701724
1143 600769 475624
1144 949615 989994
1145 616147 421800
1146 674683 723044
1147 691102 384409
1148 408833 994088
1149 408409 138516
1150 893544 316242
1151 793952 940196
1152 289802 118981
1153 533983 160228
1154 353012 301584
1155 852187 922721
1156 44552 367029
1157 549173 546258
1158 678421 528188
1159 898178 352607
1160 171878 836101
1161 767741 54973
1162 924734 541075
1163 195320 1006
1164 694710 896980
1165 479920 650735
1166 905020 273557
1167 363317 179662
1168 4208 352483
1169 234667 722900
1170 23303 72580
1171 577445 597007
1172 818116 780046
1173 654059 619710
1174 798310 150026
1175 189089 407826
1176 299377 511429
1177 658595 242808
1178 411221 520394
1179 576878 110139
1180 114772 181499
1181 925560 630111
1182 278280 779607
1183 345275 447545
1184 548912 769127
1185 892198 58711
1186 729878 748151
1187 163518 764051
1188 536723 256311
1189 396377 681925
1190 129853 674925
1191 424127 584570
1192 782207 298421
1193 725175 274908
1194 995277 583710
1195 834386 556663
1196 803570 465540
1197 830701 964592
1198 342701 829294
1199 433489 54064
1200 243322 397747
1201 223332 116384
1202 20172 514164
1203 983698 714806
1204 729221 360174
1205 517633 136312
1206 525117 993168
1207 275753 558108
1208 377929 460020
1209 799410 313688
1210 436905 515981
1211 14055 494848
1212 525805 494450
1213 835378 613493
1214 727978 649354
1215 780353 821916
1216 527089 36202
1217 164292 993540
1218 149807 430958
1219 308817 224099
1220 920491 265155
1221 475498 681588
1222 146805 318404
1223 542608 308721
1224 939734 336250
1225 129214 729207
1226 101315 784135
1227 273711 421405
1228 870657 187130
1229 952092 26632
1230 364356 552739
1231 405989 505122
1232 439682 252477
1233 660814 843528
1234 846363 957348
1235 15500 69207
1236 520285 463159
1237 184473 707697
1238 414665 229920
1239 221137 104400
1240 623792 648247
1241 661401 701346
1242 284997 227613
1243 415927 21967
1244 596519 911814
1245 332726 306278
1246 584595 351468
1247 208598 851284
1248 744870 12339
1249 497115 439107
1250 903739 312688
1251 87584 835334
1252 712458 480966
1253 67805 399969
1254 499138 46098
1255 5478 848690
1256 590610 40277
1257 693905 58078
1258 968144 54521
1259 296523 588398
1260 507607 648474
1261 346413 407256
1262 53609 702812
1263 981622 684950
1264 750701 703507
1265 639891 14695
1266 730781 175038
1267 98922 775102
1268 57636 621124
1269 7441 226918
1270 259468 361406
1271 725444 8120
1272 404207 684252
1273 959864 177339
1274 297859 505786
1275 869661 59919
1276 261638 793608
1277 799216 889043
1278 581906 912545
1279 736412 937355
1280 423329 446681
1281 392528 272219
1282 786629 644072
1283 123246 582490
1284 636070 9653
1285 98214 790805
1286 756661 790736
1287 718737 447688
1288 386836 552805
1289 608040 164565
1290 120905 69076
1291 948538 813345
1292 280177 193210
1293 622167 458561
1294 388409 454849
1295 651856 475146
1296 985054 997787
1297 128704 468663
1298 604744 934707
1299 289383 956518
1300 297415 407058
1301 569299 133293
1302 384881 800584
1303 111381 448292
1304 513430 606005
1305 266875 123344
1306 524136 281562
1307 285499 948183
1308 461627 394740
1309 143515 317966
1310 39328 188538
1311 293106 679551
1312 712237 691155
1313 221506 623368
1314 405855 918152
1315 336306 938543
1316 39375 2034
1317 897689 997560
1318 544939 666975
1319 527846 331994
1320 731582 227426
1321 315046 70442
1322 415521 463317
1323 182040 305502
1324 285550 437549
1325 247156 981375
1326 528851 371231
1327 620211 358872
1328 367683 567265
1329 235603 387320
1330 255644 444405
1331 920446 181436
1332 874422 39449
1333 808298 453694
1334 866040 822181
1335 766142 156124
1336 109190 705966
1337 70809 57952
1338 659687 921875
1339 59339 353365
1340 323471 654241
1341 387764 18535
1342 662507 891901
1343 18097 857938
1344 127611 858240
1345 189262 91245
1346 800935 705664
1347 565851 575458
1348 118236 609080
1349 999632 357569
1350 803630 260165
1351 246163 932184
1352 114077 592915
1353 593610 510316
1354 708723 728310
1355 340774 509745
1356 439653 377362
1357 198057 164399
1358 643470 214781
1359 615585 298964
1360 921212 199217
1361 454061 508471
1362 18551 505977
1363 909961 177005
1364 591888 477894
1365 464341 149370
1366 213151 331029
1367 12590 813726
1368 214587 10401
1369 820478 498108
1370 248431 803316
1371 242353 828646
1372 937028 990044
1373 637184 292464
1374 687112 59874
1375 665496 941231
1376 17191 521738
1377 893228 654259
1378 47014 915134
1379 919594 300351
1380 378328 583209
1381 689838 210615
1382 479879 537458
1383 267391 611006
1384 440334 208012
1385 527214 351006
1386 527668 555710
1387 633467 979981
1388 182026 932322
1389 615242 364292
1390 458963 994827
1391 257411 291537
1392 99565 881132
1393 459532 2535
1394 851149 475132
1395 546334 603580
1396 570067 612465
1397 970893 897424
1398 275647 686642
1399 195179 957047
1400 808018 704861
1401 677221 322820
1402 600911 670669
1403 683820 725653
1404 422172 12095
1405 194726 44478
1406 63984 444461
1407 754016 774747
1408 13142 77372
1409 239721 582454
1410 261810 580749
1411 415827 483287
1412 399993 822353
1413 673785 204847
1414 954799 962797
1415 296161 456372
1416 510149 603147
1417 169565 414484
1418 930842 812949
1419 537521 324818
1420 867990 382159
1421 762813 268694
1422 213322 965584
1423 187752 86779
1424 212471 148540
1425 223639 70800
1426 731842 232381
1427 660886 351645
1428 194711 74073
1429 153255 186426
1430 739826 870870
1431 188132 97354
1432 144105 812567
1433 281664 795289
1434 231138 788431
1435 586994 926362
1436 864900 91181
1437 358815 191010
1438 848906 183446
1439 822401 48348
1440 627641 599711
1441 51592 768373
1442 222971 425290
1443 268240 412795
1444 459041 356998
1445 132819 135553
1446 581811 749089
1447 737823 941627
1448 517259 671632
1449 909879 22312
1450 116678 4306
1451 264378 164123
1452 520899 623928
1453 19207 963469
1454 9410 235595
1455 83405 781916
1456 615032 796257
1457 53606 604273
1458 289059 439043
1459 359531 202477
1460 295307 610032
1461 885409 208826
1462 671753 582688
1463 661984 700776
1464 570282 734886
1465 171802 885437
1466 174036 586806
1467 964942 845724
1468 984678 255335
1469 714766 618698
1470 136231 829196
1471 53263 256563
1472 61690 522787
1473 250143 372984
1474 77335 155135
1475 279643 816482
1476 101349 174993
1477 850510 231240
1478 830270 677572
1479 199181 675174
1480 639249 763872
1481 248702 390712
1482 99363 254208
1483 728653 358468
1484 734566 530819
1485 354129 916074
1486 361707 204396
1487 922833 478825
1488 508682 710416
1489 358316 440512
1490 752417 984411
1491 501595 895107
1492 95637 407929
1493 636734 783324
1494 487442 710733
1495 117071 626210
1496 520768 183947
1497 264568 220157
1498 467489 848867
1499 333730 582865
1500 14104 539727
