NAME : portgen-600-605
COMMENT : portgen N=600, seed=605
TYPE : TSP
DIMENSION : 600
EDGE_WEIGHT_TYPE : EUC_2D
NODE_COORD_SECTION
1 700465 475140
2 443139 455854
3 769923 41930
4 829879 358337
5 899272 630702
6 28802 444132
7 798177 836040
8 149034 771136
9 530329 479191
10 60396 64520
11 183846 138570
12 198365 655337
13 459483 155415
14 990612 470254
15 306749 494735
16 281513 655556
17 678545 62189
18 404147 204948
19 436438 215942
20 80768 21993
21 14136 868451
22 604100 485893
23 978789 757346
24 944874 225055
25 315926 76492
26 240213 275611
27 356579 478339
28 688062 44909
29 796595 380950
30 51707 564974
31 605491 613936
32 277568 877279
33 616565 160351
34 840032 312283
35 857250 391687
36 826261 305273
37 163264 983904
38 824306 908235
39 781991 720025
40 967275 414573
41 358820 609662
42 418547 741774
43 889244 667576
44 377988 801265
45 445624 243796
46 364916 124154
47 358692 689080
48 195731 708863
49 705187 620196
50 661586 70554
51 975354 224848
52 257780 901352
53 717671 630551
54 857064 614804
55 589095 20485
56 666921 995329
57 935325 807911
58 200057 481337
59 255244 588487
60 681547 907702
61 455163 219836
62 650696 786696
63 416332 601412
64 47493 261912
65 266232 193755
66 51171 167186
67 130930 946789
68 747652 363490
69 674336 610635
70 541716 407907
71 412332 789500
72 119717 537922
73 788632 145080
74 473457 571996
75 272747 594318
76 661370 443275
77 353963 467831
78 19382 808167
79 93918 310991
80 153700 354181
81 956215 246428
82 73087 181188
83 608153 877420
84 875612 397403
85 19278 54977
86 7879 683248
87 315739 87229
88 246332 11888
89 865872 182865
90 767313 608164
91 507494 736501
92 108211 912051
93 237540 804743
94 94099 949741
95 338635 870231
96 487878 276932
97 591357 486739
98 400027 729083
99 473761 32488
100 291589 776743
101 279208 290592
102 804682 664582
103 86824 924868
104 335063 441912
105 230290 214639
106 714068 144176
107 972355 283468
108 866302 679282
109 655070 586348
110 781160 879069
111 403658 843123
112 105813 242535
113 775769 717287
114 878565 651156
115 405 321464
116 676825 423960
117 952575 552673
118 894096 363318
119 764146 824743
120 45749 558258
121 149672 507750
122 168581 459565
123 466573 644754
124 171118 348821
125 710970 682740
126 850518 822605
127 32082 970125
128 99917 855248
129 338016 252009
130 770486 723505
131 160721 510319
132 396163 672032
133 64966 206317
134 975595 512789
135 816895 221547
136 508163 306249
137 875378 98420
138 28551 581053
139 811040 135687
140 142617 920521
141 379270 626556
142 880669 276899
143 160742 166506
144 27796 280542
145 487706 687778
146 387722 251356
147 7848 824201
148 50094 843423
149 632372 70161
150 431014 885519
151 833714 35431
152 206204 790448
153 303470 223962
154 941935 755183
155 809383 933411
156 827451 57474
157 764302 82708
158 335783 909365
159 502471 571961
160 621937 221543
161 573945 905434
162 81775 931375
163 387833 472732
164 100045 84929
165 794949 804589
166 639117 55857
167 326304 209205
168 93070 321795
169 862254 797960
170 941116 251376
171 664034 455835
172 658604 266163
173 113832 482288
174 169581 76472
175 436368 577362
176 743378 547443
177 275211 626425
178 246401 777856
179 709126 996998
180 697378 981674
181 361707 143974
182 814067 558006
183 269377 371615
184 398870 498138
185 968875 853494
186 739784 425998
187 135593 44575
188 478165 26502
189 630222 455350
190 684973 609976
191 763605 103046
192 387550 813275
193 442881 495142
194 241790 768297
195 939828 721454
196 922925 364115
197 829085 87621
198 511592 238035
199 320242 614028
200 787997 87330
201 852065 714230
202 391498 826391
203 813756 640331
204 159892 461935
205 183543 751259
206 536066 940829
207 57170 975923
208 58748 997592
209 314889 726445
210 46414 31341
211 51373 784841
212 710140 881545
213 1428 25553
214 34500 309201
215 230819 837833
216 866610 168287
217 271806 933714
218 73910 822776
219 45876 411626
220 754526 445289
221 180253 515344
222 721882 908487
223 670081 138084
224 653974 947540
225 86193 486039
226 203535 11040
227 383209 950164
228 220720 683778
229 442424 457784
230 752481 990980
231 594455 748265
232 707408 738254
233 571006 20721
234 218946 148682
235 305842 920664
236 343617 367349
237 640251 560375
238 827805 40332
239 401632 759976
240 660824 317649
241 583129 576715
242 556719 239838
243 243378 118344
244 460878 533552
245 362708 53188
246 603829 897193
247 105784 833862
248 101671 812904
249 875093 161507
250 80681 629748
251 736452 893998
252 286715 768543
253 902910 626820
254 454320 143370
255 706785 102375
256 222899 908872
257 95075 699293
258 387151 697261
259 642481 873546
260 636582 758102
261 145628 57438
262 68001 676093
263 184212 449619
264 80633 871708
265 657465 200985
266 586011 258261
267 53190 558449
268 94749 674257
269 481639 857426
270 852687 546116
271 475863 587332
272 896969 604606
273 907560 546390
274 829192 429690
275 649650 652052
276 732270 3384
277 504042 879696
278 43736 478190
279 840807 728266
280 673793 228652
281 145180 596893
282 290682 160668
283 626512 635567
284 11902 490469
285 791733 840760
286 868069 212790
287 223895 984530
288 25831 142243
289 553396 188305
290 632356 706022
291 608812 352366
292 197914 428812
293 55805 989117
294 967579 892521
295 931936 459182
296 662354 991170
297 65693 11927
298 678047 263072
299 363436 912438
300 578774 765316
301 992994 640887
302 797333 943628
303 43239 379903
304 805470 75230
305 823890 54618
306 510611 948285
307 796329 214611
308 566298 154009
309 531200 278755
310 482621 363439
311 272130 99464
312 911694 26416
313 847766 227182
314 415457 280267
315 941291 645927
316 336773 478165
317 364414 577737
318 195410 660526
319 556037 983303
320 862513 901795
321 457917 688823
322 409900 568497
323 187051 562889
324 79476 39277
325 164160 450864
326 847615 83168
327 971147 932846
328 428543 514828
329 276473 219595
330 748217 382713
331 823866 822166
332 212716 922094
333 596701 821787
334 538385 227832
335 27559 3408
336 74533 491923
337 114594 31757
338 515823 188961
339 128317 978847
340 597873 332938
341 950709 195861
342 532050 558578
343 822061 514606
344 265449 442319
345 981036 373623
346 122141 328205
347 955744 859104
348 827262 965994
349 574228 378143
350 52673 998089
351 434572 100629
352 441403 831222
353 500155 651753
354 551118 412568
355 110785 913937
356 249378 834153
357 238558 374593
358 260571 495661
359 866422 353611
360 94832 630706
361 247558 160242
362 175158 29469
363 568836 973904
364 50519 283372
365 531601 864070
366 637843 715748
367 868061 683936
368 83559 116555
369 957303 157456
370 298006 326400
371 648183 911837
372 347487 350330
373 126065 961899
374 153046 926274
375 290268 853358
376 915475 290856
377 846541 188603
378 360246 718823
379 232567 757467
380 747662 383600
381 694450 393661
382 114562 784384
383 265753 337541
384 486666 888228
385 248528 298672
386 342614 940148
387 63343 241473
388 715230 956702
389 313700 986555
390 669223 850013
391 741337 293051
392 535709 148001
393 169619 244181
394 601186 83677
395 418182 746018
396 629888 69074
397 908928 999333
398 983785 708035
399 848493 106013
400 635099 169363
401 648198 166491
402 257050 440255
403 112021 622424
404 755146 698539
405 18983 116064
406 117637 148890
407 339285 1644
408 753711 625375
409 484733 115228
410 800599 557717
411 489047 380652
412 253129 79164
413 650474 176122
414 683097 623088
415 129451 92806
416 201555 615160
417 967571 553158
418 732375 592446
419 953766 534065
420 394290 544244
421 759448 485957
422 283077 860464
423 256970 249235
424 815945 829763
425 348859 807662
426 24937 225405
427 976562 542292
428 967807 33037
429 198920 703892
430 707879 519574
431 668658 221081
432 304249 474739
433 356616 631680
434 865812 478820
435 744673 504475
436 809430 654969
437 766369 992936
438 532780 263642
439 404090 710836
440 111357 617437
441 977202 979205
442 915209 609876
443 424148 980474
444 310911 492832
445 196542 100695
446 726634 474945
447 789391 889814
448 734813 104479
449 719588 290141
450 327684 993328
451 845145 105109
452 718406 731422
453 830460 45732
454 310195 366686
455 118144 987333
456 722126 706087
457 507350 607183
458 792939 193712
459 431689 414435
460 739925 252137
461 912091 575670
462 151135 751345
463 659329 704321
464 936562 34946
465 162476 487047
466 953446 37404
467 592691 124024
468 895311 271114
469 471855 308025
470 816936 230435
471 548785 896476
472 752906 944404
473 188603 150964
474 323810 38046
475 230484 30492
476 167916 684641
477 127665 840637
478 39882 807741
479 512417 594382
480 836111 559345
481 573877 2170
482 549749 887709
483 438547 825649
484 953181 562945
485 418579 641975
486 869902 393642
487 183950 709433
488 84221 227450
489 448004 310497
490 711463 851588
491 191903 342180
492 198835 603130
493 913169 951275
494 487654 704982
495 685476 69661
496 317933 908909
497 889445 174960
498 360533 155142
499 712526 43473
500 860183 961153
501 702959 13312
502 326583 378896
503 838588 825736
504 485806 524534
505 927467 88606
506 320087 807434
507 908906 766449
508 241411 664967
509 112725 374788
510 527175 283405
511 113123 909708
512 702761 457426
513 939015 856589
514 67059 805053
515 870844 258485
516 741644 923469
517 383030 622857
518 531500 384469
519 433274 432385
520 361718 248202
521 838550 112865
522 177807 402070
523 956537 408225
524 206147 432019
525 235945 503944
526 88082 907472
527 172628 601698
528 219509 779489
529 630282 703726
530 847395 454119
531 392461 53420
532 162815 679265
533 250055 207221
534 629627 506835
535 809912 833186
536 458819 680705
537 138843 23231
538 195322 205651
539 737079 101063
540 237916 159525
541 226306 363333
542 957657 416725
543 866023 688223
544 760653 703764
545 372802 324278
546 754841 926438
547 622472 528532
548 789382 157845
549 974021 154576
550 206748 750886
551 671145 105084
552 194102 76419
553 277637 724749
554 949815 755903
555 735675 531286
556 18835 926518
557 330924 523117
558 699277 466022
559 430947 634283
560 889883 92209
561 233199 475051
562 300087 59026
563 162041 353735
564 486602 62424
565 745593 470573
566 255836 981176
567 365388 706630
568 140690 299788
569 32409 434540
570 717447 400000
571 257276 126369
572 813880 280592
573 91078 279790
574 626351 563446
575 366490 435647
576 671242 911597
577 408982 736174
578 495050 689969
579 739696 487472
580 935729 977848
581 692340 515274
582 38456 335674
583 274010 892465
584 112637 50331
585 432038 419487
586 839670 867500
587 267793 454236
588 420967 321602
589 66068 563912
590 563976 472072
591 614038 999130
592 126695 767745
593 778233 740561
594 942720 29713
595 432620 248224
596 187151 982077
597 2502 297960
598 560329 389775
599 858576 359644
600 859624 769476
