NAME : portgen-1500-1503
COMMENT : portgen N=1500, seed=1503
TYPE : TSP
DIMENSION : 1500
EDGE_WEIGHT_TYPE : EUC_2D
NODE_COORD_SECTION
1 90125 213745
2 928137 374243
3 251605 769658
4 593206 483112
5 768119 377639
6 211578 724061
7 189626 974648
8 277777 646986
9 271727 117321
10 278154 852793
11 302169 368746
12 982702 346424
13 917062 598565
14 628036 262600
15 671542 149726
16 360072 381048
17 461154 415378
18 565507 352764
19 52027 990895
20 856141 673923
21 834814 278176
22 543967 160969
23 502171 219283
24 864095 509996
25 718237 180169
26 785616 988736
27 549746 602980
28 359307 709076
29 752590 512759
30 808736 898841
31 717630 602310
32 626971 94196
33 542825 933402
34 180094 28656
35 472477 58493
36 782891 761731
37 399084 97984
38 67176 313432
39 819000 379721
40 987116 207986
41 845974 115277
42 453864 772700
43 432095 757761
44 754077 366957
45 872552 632104
46 172669 23370
47 518417 797647
48 891032 73082
49 879092 445982
50 93793 188738
51 400283 484373
52 522879 510251
53 334194 670338
54 534872 777045
55 170884 601545
56 954999 385633
57 640206 176631
58 726172 694259
59 83893 829323
60 203163 469743
61 54310 734112
62 934863 283738
63 658210 298517
64 238851 888833
65 763790 396837
66 778560 41954
67 208836 385570
68 252986 460341
69 475071 277233
70 46528 737836
71 673868 924753
72 163793 402809
73 577794 438557
74 88507 234678
75 139437 592514
76 834230 990258
77 682192 696955
78 410178 358328
79 275536 137308
80 257264 873853
81 195267 257638
82 730516 433048
83 927677 30245
84 221839 237397
85 598836 287614
86 605752 849214
87 689886 610649
88 635512 64051
89 51920 237907
90 873560 299881
91 22980 101543
92 631568 889937
93 201570 520921
94 311438 775787
95 457893 222741
96 238502 237674
97 678396 758914
98 132083 824654
99 234867 553144
100 767297 513743
101 386636 850600
102 361118 839555
103 569534 732687
104 358690 792255
105 495385 889257
106 46890 499748
107 679414 34523
108 635350 957593
109 579242 971602
110 300964 103023
111 795378 668694
112 470099 85093
113 900977 755152
114 488095 850330
115 41114 902825
116 705361 259665
117 742522 984303
118 252990 523231
119 422128 597045
120 254586 243976
121 941679 339835
122 474822 354870
123 427362 569808
124 767574 593303
125 857936 376931
126 336558 384537
127 512029 864472
128 808381 126971
129 108078 376815
130 586565 46302
131 310558 761644
132 537668 251409
133 947577 707054
134 24925 324544
135 607160 65542
136 190019 985939
137 113666 924033
138 766464 410841
139 156664 605627
140 276711 774006
141 647074 111279
142 263765 994812
143 592266 943716
144 721996 491112
145 36725 545936
146 498305 97584
147 989884 189044
148 53957 955740
149 226169 550789
150 588405 16521
151 413143 161946
152 316591 83929
153 729857 225278
154 120772 517217
155 272205 864665
156 404974 616965
157 340090 40628
158 547996 212974
159 771760 348623
160 197451 991837
161 480885 474136
162 736138 590638
163 652398 28072
164 669347 29736
165 194175 541186
166 290068 639447
167 333421 412046
168 369031 30108
169 771189 223136
170 446815 379292
171 171956 373372
172 293660 44887
173 65050 24169
174 361445 399245
175 536645 25885
176 286392 196432
177 356614 47219
178 726452 773696
179 828525 904545
180 714898 699748
181 454089 897636
182 70401 892913
183 692709 31601
184 323304 295203
185 975578 523826
186 851528 372514
187 811978 171566
188 705445 284452
189 117521 688919
190 864186 878702
191 199547 764802
192 314837 494426
193 87096 392432
194 569045 440508
195 719336 337429
196 706804 475985
197 247557 922988
198 527763 799441
199 561394 122094
200 339441 780597
201 906648 672526
202 535059 657943
203 826337 521589
204 881594 862187
205 960123 334020
206 204650 388016
207 185208 377468
208 992943 978103
209 650078 147412
210 365149 893267
211 470206 201210
212 955761 194980
213 617178 179002
214 837455 154034
215 345228 183856
216 402857 255334
217 728796 530165
218 674051 811530
219 579594 937369
220 501482 108992
221 742354 421632
222 75358 826068
223 867222 505594
224 520223 52576
225 305809 348761
226 961986 407360
227 776865 155585
228 377739 651314
229 943729 4893
230 983892 14807
231 941994 944225
232 360704 851130
233 591665 783018
234 312657 359139
235 510245 487349
236 457879 597501
237 841602 16388
238 931281 62846
239 424344 800176
240 817241 965864
241 235272 832561
242 170141 330421
243 241861 458632
244 894629 877665
245 938500 891032
246 498872 220455
247 427123 14133
248 651112 144852
249 580029 58970
250 894787 804376
251 81249 720047
252 235335 339945
253 113488 129424
254 237218 446443
255 913723 919107
256 756684 66064
257 66393 92859
258 515934 721539
259 517102 346571
260 200017 446812
261 202988 253687
262 464352 705869
263 406099 737832
264 362165 501657
265 902900 801856
266 825627 977901
267 886452 898133
268 209179 169208
269 766168 77282
270 814487 520321
271 941529 548057
272 677648 491687
273 688044 245185
274 756102 721253
275 608033 913280
276 782686 78371
277 156070 92930
278 978748 103348
279 833594 337202
280 130765 944279
281 363256 159936
282 631956 393402
283 977577 208627
284 388415 574705
285 404814 270749
286 965436 795848
287 738537 286736
288 664125 124616
289 97617 371421
290 727120 302751
291 904237 24963
292 370892 958620
293 438600 665691
294 345945 493050
295 920555 552
296 780793 191462
297 672467 543737
298 554884 145681
299 809519 390911
300 827561 563427
301 147568 384680
302 994133 305282
303 9042 757723
304 707479 197449
305 654330 313057
306 757403 340544
307 416646 130212
308 163486 171794
309 487468 88218
310 838517 831896
311 399107 997503
312 747144 841387
313 123180 580755
314 801715 433255
315 277693 906402
316 417137 900167
317 717091 414063
318 545348 563693
319 608317 240680
320 795134 266806
321 178222 257726
322 654533 88659
323 601445 783289
324 444318 831080
325 420557 974129
326 343965 376264
327 113217 921158
328 146290 247400
329 667588 580069
330 759934 445349
331 149405 466798
332 402314 387523
333 134834 499676
334 686010 327986
335 528767 380196
336 727476 656388
337 667661 864388
338 487930 22843
339 884285 825985
340 695096 875780
341 913167 221645
342 673321 832344
343 756997 950338
344 497853 329568
345 279228 45671
346 877682 280330
347 711912 414937
348 539330 521834
349 590065 790145
350 600729 578601
351 899004 618332
352 135984 544776
353 60962 122320
354 702942 280873
355 164161 195952
356 749547 338020
357 300840 714262
358 567666 869074
359 754886 987377
360 848193 613000
361 909611 895865
362 727257 950165
363 481192 109143
364 520404 122885
365 803426 365610
366 319900 603412
367 661823 499144
368 126233 575146
369 920804 959058
370 264678 887922
371 195452 510476
372 481374 666228
373 136060 981816
374 553073 761746
375 933745 430186
376 1429 467180
377 986718 235118
378 258700 295591
379 956508 636839
380 418542 485815
381 201515 743883
382 16195 276238
383 499 239071
384 856646 634612
385 578202 585849
386 316001 993139
387 53631 418007
388 611570 442431
389 909146 492138
390 691464 185600
391 152634 883564
392 704342 317610
393 164094 576016
394 587217 385585
395 498644 887162
396 718499 286192
397 380856 678828
398 571921 202313
399 456844 63366
400 54658 693628
401 72670 60934
402 70282 748144
403 277552 117865
404 762837 669108
405 71024 682684
406 708374 570923
407 138195 531380
408 767316 915322
409 363027 337366
410 704317 798186
411 782226 793279
412 579953 884573
413 513179 255067
414 922857 305486
415 140454 493705
416 679593 240038
417 421114 8780
418 477226 581710
419 745369 172961
420 550293 248772
421 212989 249850
422 681267 700457
423 104935 925219
424 706238 496282
425 165648 316853
426 279456 151357
427 922911 560952
428 14035 832632
429 639819 61501
430 270918 695841
431 372495 589876
432 118815 822251
433 469695 458524
434 889656 437737
435 426444 842097
436 209083 866745
437 171718 387463
438 518730 630868
439 870367 19001
440 870538 680547
441 615247 861355
442 34567 444613
443 121209 89717
444 121222 598862
445 539085 18702
446 692054 307631
447 746517 708196
448 39688 346244
449 78131 293803
450 181727 474067
451 54851 687237
452 625744 485100
453 701605 418100
454 116789 478298
455 439743 924318
456 711409 40956
457 522415 252216
458 3787 64864
459 843358 410618
460 782563 123451
461 380392 595853
462 256009 952377
463 787245 521845
464 241001 686617
465 685858 100629
466 514078 392069
467 579257 946220
468 969138 574291
469 338940 782351
470 440825 56345
471 246358 710603
472 816299 415634
473 638309 96200
474 51621 794140
475 920950 517842
476 105243 391514
477 607945 81098
478 959988 662782
479 107979 679523
480 515962 127314
481 79160 334438
482 37472 383398
483 677959 805
484 224657 106781
485 613906 907586
486 13242 49218
487 489668 264720
488 18208 988877
489 987907 174911
490 992388 124463
491 413865 561477
492 170655 558543
493 21469 179640
494 354596 195859
495 268260 968333
496 349634 232159
497 168444 533239
498 43102 197139
499 220935 551578
500 397426 649432
501 108292 876710
502 801751 796486
503 103976 543765
504 220858 49401
505 59629 780348
506 308185 912120
507 411262 547628
508 777680 847001
509 165993 504233
510 340295 480819
511 779870 673078
512 709354 964474
513 799293 136531
514 247467 693182
515 160743 474442
516 768018 938506
517 115282 212040
518 816278 501745
519 150214 623026
520 780862 174467
521 13646 850362
522 855563 787441
523 188462 676556
524 522804 203970
525 733945 906570
526 949672 527752
527 390835 922984
528 881413 169786
529 761428 589710
530 980208 602231
531 393551 597832
532 268538 885161
533 766701 457823
534 56556 623821
535 359166 101124
536 324196 962023
537 770288 433724
538 531147 252117
539 282243 786370
540 83061 629506
541 375103 657757
542 712974 558512
543 80891 170186
544 669967 230120
545 445338 358455
546 445188 526392
547 263860 679738
548 850270 51622
549 80074 421838
550 256293 936345
551 394313 736434
552 120908 104438
553 531467 291915
554 814778 832322
555 842092 711226
556 499819 531308
557 144371 621753
558 157042 867158
559 333971 588800
560 34891 715079
561 377748 634718
562 367528 422820
563 706811 587762
564 841115 665849
565 902257 239232
566 437338 449920
567 944277 371834
568 129686 843795
569 513385 91221
570 401469 213733
571 836214 81166
572 195229 730259
573 980706 810470
574 158864 841040
575 972927 262507
576 210507 414224
577 519581 17061
578 499007 944392
579 792156 749073
580 974751 687672
581 778529 723557
582 430852 628359
583 875011 418653
584 336078 414112
585 641046 346572
586 708293 492931
587 615872 772383
588 504572 963523
589 115136 350466
590 923813 762418
591 795606 92041
592 691097 214585
593 460702 713780
594 19067 315917
595 496823 711033
596 507716 99273
597 450174 54897
598 505439 343282
599 465293 422845
600 225687 17182
601 695333 808397
602 917226 210509
603 466901 118465
604 723127 304995
605 556358 785226
606 925325 476239
607 252250 263718
608 179955 679255
609 273383 375955
610 122920 531728
611 953359 913233
612 188424 623864
613 651238 899895
614 575705 405363
615 305481 386106
616 240396 810140
617 794108 138587
618 837093 319367
619 839790 427379
620 34630 781446
621 440397 643111
622 192997 965094
623 757674 594483
624 910848 826310
625 403659 605543
626 767577 59930
627 117363 839580
628 776785 885192
629 14289 778639
630 373416 147534
631 278674 295747
632 270365 774911
633 344828 282213
634 283241 287156
635 506043 585472
636 768407 447073
637 972296 517376
638 764151 893428
639 795869 348844
640 847078 766045
641 885606 797065
642 31947 157947
643 107431 944648
644 539775 19196
645 793758 554879
646 36125 552634
647 921336 449157
648 13039 993324
649 670815 675621
650 200943 864245
651 798614 562004
652 979232 637613
653 719937 970512
654 27982 959416
655 732148 832137
656 345417 995092
657 984881 818536
658 111408 726040
659 374411 821207
660 761872 351504
661 611397 607620
662 86213 641797
663 786857 206402
664 467841 334682
665 797438 793638
666 865445 836452
667 616695 14941
668 420627 890513
669 812184 213411
670 46538 381391
671 570237 718567
672 257324 442254
673 943481 428505
674 466420 279538
675 662300 806636
676 525483 336132
677 878183 407304
678 998800 962161
679 945309 964291
680 216985 829424
681 158327 814571
682 912878 350757
683 261899 626850
684 737768 542626
685 875054 682903
686 259620 94872
687 158907 955235
688 826021 275265
689 729437 678909
690 642997 824696
691 261093 503549
692 117697 968013
693 635311 50873
694 923574 265937
695 753041 793777
696 152744 269557
697 338356 363634
698 121771 475364
699 559659 302089
700 616232 668216
701 699068 787511
702 636541 837603
703 545543 21933
704 218435 910169
705 771992 947926
706 38586 679372
707 211249 423208
708 676680 888769
709 476215 549243
710 228986 786535
711 67190 435679
712 926394 206837
713 983835 472108
714 458331 321304
715 409691 804087
716 56830 819267
717 906916 695070
718 786110 581720
719 292300 694488
720 291333 746541
721 574658 374331
722 36950 966506
723 726586 717065
724 343163 131518
725 379799 649662
726 17032 238355
727 892397 812145
728 611386 879801
729 880594 941470
730 51493 963822
731 729633 523946
732 618836 25451
733 373267 664255
734 642422 244743
735 696621 959614
736 545606 344696
737 169443 579324
738 769502 828835
739 543281 114248
740 595451 104034
741 591514 516861
742 269811 445868
743 74454 532883
744 200431 881465
745 321803 121854
746 939298 47556
747 997867 331719
748 200935 229961
749 204887 457625
750 197003 897751
751 173784 228914
752 536067 275765
753 58147 500171
754 968544 446529
755 737690 78502
756 679370 999128
757 619667 929638
758 24523 682076
759 526079 287117
760 824516 143306
761 459368 184796
762 47739 798870
763 785830 316691
764 808629 893678
765 521177 269330
766 860291 96752
767 376558 516948
768 424664 592385
769 897194 340172
770 421344 392378
771 6803 913313
772 56949 178496
773 662486 754502
774 999816 198996
775 545888 884243
776 421331 311208
777 936448 927672
778 37460 77032
779 852356 19118
780 851101 465761
781 602977 628371
782 25184 345312
783 71698 766056
784 942179 441170
785 267152 270021
786 682259 327082
787 741228 940272
788 721974 148159
789 248348 120066
790 761410 708798
791 464334 789511
792 42577 55415
793 666353 231919
794 71568 31245
795 445249 658607
796 650205 456023
797 73020 151323
798 710118 679721
799 172085 116676
800 456522 514327
801 506153 879750
802 437586 837090
803 419908 631820
804 268631 881032
805 261319 805540
806 5463 821111
807 573868 192493
808 815556 146953
809 555351 873861
810 635193 391977
811 593971 825503
812 984648 752825
813 763867 802509
814 889496 904137
815 520363 90154
816 879527 367315
817 858747 955869
818 703334 643223
819 215642 850083
820 239859 519399
821 676567 197706
822 396051 53271
823 64636 824702
824 471375 320194
825 387455 907609
826 790224 267947
827 596312 366368
828 634799 138838
829 21002 481717
830 133756 776685
831 416177 418548
832 641173 741920
833 128973 807756
834 425059 520596
835 127857 990853
836 675578 235157
837 486405 727584
838 601753 326023
839 229191 618280
840 118025 625029
841 781506 407779
842 770380 743678
843 673976 460979
844 726141 116827
845 826895 895577
846 218163 695046
847 722226 249005
848 843820 441410
849 711301 668467
850 451518 738613
851 595511 853094
852 202169 762425
853 126102 382445
854 497567 852634
855 692391 173820
856 412696 904175
857 654821 238179
858 558522 721131
859 696321 392168
860 898099 687563
861 96455 756592
862 69078 389243
863 395342 822484
864 32987 723979
865 601482 219307
866 828455 376556
867 925888 944205
868 212332 877331
869 752957 532200
870 185155 952844
871 764657 333972
872 218727 139332
873 799121 461570
874 625967 332982
875 853662 21336
876 408422 987321
877 66984 232210
878 910157 218954
879 927205 257963
880 550093 248771
881 629488 965366
882 667478 739546
883 409162 78723
884 685448 515489
885 439058 96951
886 95163 363338
887 538506 876763
888 279140 109134
889 689607 836867
890 479085 176388
891 895278 775024
892 173886 352710
893 589819 863089
894 709078 186342
895 535042 133608
896 191882 237468
897 93142 88204
898 857681 401318
899 795466 341963
900 860191 689986
901 771962 789100
902 853897 677273
903 126057 633398
904 813434 714273
905 642391 47068
906 509875 740863
907 722921 416484
908 56888 392019
909 872224 579273
910 881865 7844
911 283257 343485
912 655297 749071
913 324988 306062
914 509441 861232
915 750706 645742
916 295699 975334
917 194475 432016
918 666513 154415
919 52102 757402
920 295822 197799
921 990865 129805
922 304477 527197
923 850351 848397
924 582170 344071
925 763215 551618
926 891876 934233
927 591257 214449
928 394287 796628
929 594625 421880
930 10760 971642
931 581295 56032
932 418451 444591
933 56203 380070
934 436386 195723
935 566132 208491
936 809849 528152
937 816057 330246
938 115967 349023
939 752227 440848
940 354784 528360
941 711437 87560
942 850472 779063
943 64447 239667
944 556882 749883
945 375813 286442
946 718028 856379
947 191269 87331
948 387950 462712
949 313747 974230
950 411230 501327
951 96169 141322
952 989286 234855
953 840180 804316
954 83761 812194
955 150001 154619
956 239746 844741
957 46067 724317
958 253614 724915
959 864763 331120
960 56641 593491
961 66323 462156
962 784492 64805
963 112321 668527
964 538866 581201
965 490066 311651
966 265262 940033
967 290846 200164
968 288613 866696
969 41493 126154
970 525449 339531
971 374904 225761
972 693242 782321
973 220119 255872
974 71886 126464
975 975009 719423
976 923845 732545
977 484164 99578
978 236065 156136
979 850475 789122
980 946241 973484
981 762822 957607
982 286744 810470
983 779715 13984
984 151499 263746
985 504198 997741
986 653029 738298
987 356110 337218
988 669645 333778
989 977992 684914
990 828739 956184
991 818051 749743
992 634960 516581
993 548828 307655
994 653288 480376
995 420449 274629
996 715197 777747
997 621955 527707
998 686502 636605
999 869650 356023
1000 112675 886341
1001 277880 386972
1002 297724 18825
1003 901371 174101
1004 97585 967582
1005 550749 928409
1006 502847 370098
1007 368673 671612
1008 258287 985075
1009 335651 759037
1010 123967 143109
1011 144333 795475
1012 151070 617857
1013 719861 266056
1014 440574 337285
1015 435847 495543
1016 236192 10409
1017 134164 900330
1018 453337 447952
1019 381070 963347
1020 258294 563753
1021 972004 894251
1022 356409 277339
1023 130295 919721
1024 626676 4098
1025 807845 420446
1026 196030 532365
1027 920176 617131
1028 650148 267470
1029 252808 397393
1030 565487 453418
1031 793031 134237
1032 709288 986996
1033 956405 608595
1034 13689 91333
1035 541316 338566
1036 358399 331552
1037 951191 703521
1038 947078 611968
1039 875299 533939
1040 967708 452390
1041 13248 43180
1042 771797 982429
1043 702512 101955
1044 301120 147167
1045 943924 844741
1046 434263 289737
1047 422030 919727
1048 205354 640451
1049 943060 652887
1050 330260 518327
1051 44421 92737
1052 36390 355455
1053 407197 152850
1054 760567 937747
1055 914618 548193
1056 966349 105640
1057 453469 720746
1058 19155 503293
1059 712207 789560
1060 781642 315953
1061 665535 360802
1062 761073 22989
1063 294144 265661
1064 295162 595736
1065 296323 794228
1066 851401 937552
1067 619320 419515
1068 486040 907607
1069 589711 51051
1070 963273 199218
1071 389748 511560
1072 365525 627970
1073 179206 73460
1074 528664 399041
1075 625583 939692
1076 345289 347324
1077 356564 536031
1078 666926 106869
1079 473416 616875
1080 869414 499590
1081 563138 709515
1082 974473 715399
1083 158445 454789
1084 740115 825498
1085 541540 945694
1086 974629 313165
1087 163976 841949
1088 970664 318210
1089 4238 225041
1090 356062 187274
1091 792245 678287
1092 726321 796733
1093 231090 141885
1094 963079 903920
1095 261069 31251
1096 167492 764212
1097 509511 17579
1098 224589 76582
1099 347583 523575
1100 657306 860995
1101 69222 303622
1102 42979 438308
1103 147447 667002
1104 621002 559830
1105 304941 525041
1106 143790 569496
1107 355805 838162
1108 332098 798926
1109 200004 956893
1110 490810 81862
1111 107206 216540
1112 168192 680544
1113 876471 671006
1114 270186 725668
1115 694502 303662
1116 697208 444407
1117 920099 831021
1118 43484 222748
1119 322481 888159
1120 464635 432163
1121 941881 6185
1122 413109 179206
1123 924045 950952
1124 596020 828967
1125 141108 553582
1126 806396 621915
1127 829072 353644
1128 163787 624815
1129 383523 211957
1130 394824 924698
1131 344520 732843
1132 95195 872777
1133 583159 137604
1134 156386 176598
1135 914117 381145
1136 202905 371036
1137 815785 937227
1138 275466 485290
1139 387467 814547
1140 516757 251656
1141 287483 58228
1142 330843 769804
1143 959141 964365
1144 349211 47322
1145 247861 905879
1146 66362 145883
1147 974042 83489
1148 229258 570844
1149 190400 475881
1150 903740 438754
1151 563484 781472
1152 312209 889451
1153 266099 748168
1154 291071 59268
1155 394502 199421
1156 275603 336201
1157 964096 488944
1158 858336 198636
1159 758801 11706
1160 643519 12315
1161 947204 680504
1162 272857 475362
1163 817661 421432
1164 58827 926333
1165 671128 527297
1166 194219 328198
1167 420045 317335
1168 976052 951282
1169 94132 841899
1170 911467 760504
1171 205564 337505
1172 403802 235546
1173 958675 385857
1174 873025 498679
1175 265828 807826
1176 512017 264066
1177 804753 376443
1178 244535 235285
1179 361427 994874
1180 913399 314816
1181 654036 449172
1182 147800 633997
1183 993857 938097
1184 932398 728549
1185 530269 472478
1186 325611 260121
1187 745878 835693
1188 500297 683137
1189 875751 896414
1190 230826 582375
1191 60004 63953
1192 12934 356311
1193 873261 745046
1194 180398 786047
1195 323477 37954
1196 18883 365582
1197 311630 438989
1198 434893 945442
1199 591627 568109
1200 735248 275537
1201 510106 976611
1202 267852 683452
1203 747821 448064
1204 251132 448441
1205 503181 499488
1206 54887 575379
1207 671396 875444
1208 295933 288453
1209 137542 708811
1210 199103 48414
1211 346470 364288
1212 993300 254731
1213 962371 349000
1214 992268 62425
1215 87871 52233
1216 432005 427310
1217 393232 731338
1218 527487 484624
1219 392556 137490
1220 60378 584807
1221 607504 471587
1222 586944 275062
1223 691484 654595
1224 372281 56898
1225 476617 85893
1226 953174 529201
1227 480237 683014
1228 843532 82796
1229 583378 536514
1230 155964 263196
1231 55507 113641
1232 388062 918373
1233 891983 583299
1234 988435 396333
1235 183959 641337
1236 916171 80643
1237 232193 113210
1238 95240 817269
1239 884050 310286
1240 411199 879575
1241 765621 455753
1242 906460 824675
1243 996726 318363
1244 39247 474858
1245 839354 944187
1246 496188 996223
1247 953530 419041
1248 668636 526861
1249 239393 473733
1250 179822 874214
1251 770544 61995
1252 645699 597042
1253 320272 497421
1254 622740 655562
1255 686288 525168
1256 43548 108519
1257 697160 211776
1258 767007 59284
1259 160111 969021
1260 249737 365122
1261 343906 514701
1262 216511 309744
1263 870793 854176
1264 434944 635151
1265 792937 597819
1266 194528 228488
1267 623997 886030
1268 836026 657101
1269 758592 694683
1270 57668 937442
1271 158251 70226
1272 225120 474231
1273 600281 981487
1274 779712 643785
1275 548247 814459
1276 91916 604242
1277 680796 582003
1278 679686 542055
1279 437998 759668
1280 761015 663170
1281 738828 928057
1282 597893 748846
1283 366917 973322
1284 883399 222929
1285 611494 785520
1286 279572 516325
1287 420773 435277
1288 273206 739663
1289 833905 634507
1290 630058 328737
1291 416178 675276
1292 874136 129767
1293 858990 266471
1294 630594 875151
1295 519113 862703
1296 773702 535663
1297 83188 272147
1298 657869 641925
1299 649452 789842
1300 201025 860618
1301 147581 145204
1302 13727 219509
1303 398281 416640
1304 730106 551028
1305 723012 413215
1306 911460 562846
1307 240555 898311
1308 889467 203164
1309 844868 325746
1310 90976 724991
1311 323870 93556
1312 21903 750876
1313 637939 134367
1314 502598 201263
1315 36995 856565
1316 9557 282877
1317 911494 216842
1318 417276 853331
1319 434721 975824
1320 240299 655825
1321 421602 304848
1322 784174 794122
1323 538833 680146
1324 513760 332312
1325 634208 523502
1326 139327 448188
1327 752846 344459
1328 851061 864703
1329 233709 796884
1330 802233 544950
1331 981919 754281
1332 310728 67187
1333 991612 606612
1334 778671 446432
1335 359477 209321
1336 689404 512555
1337 691537 567474
1338 585663 875681
1339 340709 677443
1340 899815 773235
1341 900657 705713
1342 399030 492045
1343 874646 255275
1344 972149 844307
1345 225229 810664
1346 74659 988288
1347 616347 30978
1348 966421 909046
1349 613311 216700
1350 208458 663152
1351 339436 836316
1352 432496 860972
1353 622844 433613
1354 49158 260801
1355 469813 595785
1356 892554 389402
1357 571655 991568
1358 470291 993631
1359 137934 279749
1360 100765 82566
1361 993301 561970
1362 237974 696324
1363 869884 853088
1364 80059 830564
1365 944629 152049
1366 826523 79907
1367 207630 304030
1368 880681 511255
1369 134058 407461
1370 21754 881015
1371 117341 692399
1372 743541 142663
1373 817363 512688
1374 750314 920022
1375 161094 113332
1376 828987 782746
1377 272071 56408
1378 836629 259528
1379 628685 128466
1380 980291 111589
1381 299555 641696
1382 239047 588797
1383 478444 200154
1384 645860 428991
1385 174205 957602
1386 243317 217912
1387 118655 987433
1388 253578 210554
1389 289899 181565
1390 859695 610355
1391 224402 951592
1392 850272 833039
1393 852493 184826
1394 840860 618832
1395 825586 680526
1396 865394 705066
1397 233256 64151
1398 637698 899428
1399 573744 756108
1400 889085 606808
1401 222789 568748
1402 60326 550738
1403 888930 877394
1404 932473 439031
1405 203914 651802
1406 418668 9853
1407 302880 299765
1408 246194 594489
1409 408440 174895
1410 951099 579015
1411 626410 889752
1412 539906 567397
1413 734813 674568
1414 157585 567916
1415 98502 376183
1416 278081 850867
1417 977650 207893
1418 191687 214549
1419 648712 550507
1420 586845 258004
1421 776386 665964
1422 667733 246570
1423 54115 975642
1424 165159 665858
1425 329338 963129
1426 741842 5827
1427 657605 512901
1428 328726 371921
1429 591098 852433
1430 359051 674381
1431 228682 381966
1432 852186 945910
1433 875415 752703
1434 342120 56309
1435 245649 270552
1436 429330 742581
1437 845557 987969
1438 837172 620582
1439 232146 27005
1440 238670 362891
1441 83470 305152
1442 208864 424121
1443 147501 896114
1444 998681 31739
1445 332477 438983
1446 872429 592402
1447 304857 316293
1448 828674 33805
1449 820407 679763
1450 409398 433532
1451 743496 138153
1452 427187 966447
1453 879659 436690
1454 796963 233484
1455 365399 432612
1456 373240 559358
1457 519955 920068
1458 801951 636279
1459 77108 535893
1460 117236 841609
1461 932296 662356
1462 646911 812117
1463 527055 291176
1464 315393 879110
1465 108309 400481
1466 823619 998662
1467 661605 806058
1468 989650 524111
1469 785196 288796
1470 622170 511221
1471 819006 462787
1472 914503 490867
1473 506687 210072
1474 945490 492740
1475 789237 537497
1476 718412 941297
1477 571453 8916
1478 609913 744833
1479 476548 621129
1480 976796 355548
1481 651494 508167
1482 611313 854177
1483 613605 910452
1484 644855 29088
1485 413380 591878
1486 690788 584368
1487 746656 579738
1488 123197 990998
1489 90902 637995
1490 202204 782222
1491 814628 694264
1492 902314 752761
1493 748987 315452
1494 387348 807428
1495 192452 79198
1496 879255 756108
1497 875415 30291
1498 820433 234638
1499 716131 334764
1500 367669 515688
