NAME : portgen-400-405
COMMENT : portgen N=400, seed=405
TYPE : TSP
DIMENSION : 400
EDGE_WEIGHT_TYPE : EUC_2D
NODE_COORD_SECTION
1 237289 499949
2 606837 422806
3 306296 352012
4 706643 542128
5 523137 653656
6 665155 978669
7 425917 344145
8 942187 141771
9 962089 334841
10 439514 225261
11 170857 439199
12 818780 345519
13 546882 700371
14 236174 467505
15 448220 235272
16 600319 480613
17 637874 110477
18 243488 437061
19 980850 836220
20 676454 656307
21 515099 207043
22 893662 346678
23 174027 705690
24 290259 188320
25 137238 37811
26 98698 751529
27 186608 319176
28 948364 756676
29 862075 496360
30 179318 869235
31 371162 870423
32 865674 866830
33 138556 458112
34 85007 79238
35 170117 236497
36 851511 773768
37 197603 401703
38 126563 419327
39 252590 499603
40 397154 790205
41 838295 739814
42 288187 578984
43 864110 729896
44 614939 771044
45 971920 785375
46 352053 901612
47 666102 439956
48 804795 741331
49 9439 491958
50 220115 754700
51 453099 790656
52 791166 347032
53 199515 358883
54 463342 607623
55 455066 218468
56 141736 91030
57 524439 393942
58 517181 469550
59 204320 425717
60 62034 397225
61 448672 593048
62 859123 415417
63 783398 60855
64 982602 850571
65 202188 767679
66 955984 644966
67 44537 178686
68 648468 747265
69 215375 894244
70 61803 394559
71 525575 189221
72 709010 574695
73 336703 759005
74 42488 250685
75 656558 743940
76 758728 158868
77 289770 452436
78 798715 808132
79 746119 612479
80 698563 452249
81 143508 569098
82 545820 60506
83 692892 952515
84 382020 949743
85 57239 758176
86 427061 953634
87 769158 318093
88 638496 289803
89 303278 406687
90 616701 975265
91 314735 370122
92 152007 749938
93 624170 386886
94 99146 984030
95 485794 695953
96 365245 265631
97 837005 303626
98 967498 571941
99 420063 390916
100 936198 46899
101 455727 635801
102 633984 681292
103 429204 388605
104 6861 539831
105 828265 411829
106 708985 762089
107 126685 2609
108 87004 877876
109 732092 242193
110 93008 120951
111 532451 991103
112 13545 10339
113 302448 791259
114 319650 87865
115 888888 249891
116 282942 763446
117 578422 204872
118 266280 552646
119 243437 149397
120 662934 746294
121 654793 856952
122 891021 364843
123 163501 374141
124 252086 826665
125 1178 176239
126 252291 332197
127 502027 686307
128 763957 692280
129 57379 429112
130 415012 876557
131 145168 857463
132 876896 81970
133 757035 852033
134 871067 761842
135 839107 712862
136 625790 905427
137 241015 916769
138 868659 200254
139 489075 327238
140 246382 610168
141 733879 890537
142 672853 12330
143 104723 425479
144 886549 496451
145 447836 414246
146 681579 481595
147 310290 950071
148 120503 749366
149 615936 974252
150 496183 963247
151 885066 924848
152 580282 391009
153 442359 361753
154 659344 489697
155 581583 338477
156 805730 560928
157 981275 766
158 194978 663572
159 547173 926825
160 961467 7669
161 236096 896814
162 265658 875860
163 827796 700941
164 325144 850005
165 474409 506906
166 540910 999378
167 745654 907904
168 804437 172950
169 909262 672086
170 817352 441150
171 878306 959724
172 534983 440166
173 178149 784765
174 215936 434429
175 122275 419561
176 424221 765930
177 499842 989277
178 422337 885687
179 179194 672377
180 586572 269408
181 452491 987257
182 672344 140433
183 460171 846006
184 25944 541108
185 822616 410213
186 447636 112743
187 804549 541905
188 583448 470165
189 396971 276381
190 453523 942109
191 521747 652766
192 263433 205001
193 54414 553652
194 327033 605221
195 447733 958431
196 147006 368153
197 849470 407139
198 993514 765562
199 155174 993078
200 856718 707983
201 387793 939554
202 980906 180166
203 897814 771454
204 502497 294841
205 934862 868684
206 558653 573972
207 224644 628141
208 122402 84338
209 137787 265205
210 146918 694609
211 690831 32866
212 684389 114632
213 22419 508081
214 131837 624383
215 644091 811993
216 967668 102129
217 341519 584838
218 383455 947775
219 428121 635292
220 82599 970076
221 415865 61828
222 458302 753123
223 267599 114139
224 683763 734837
225 384719 485432
226 633725 530791
227 348987 44725
228 740315 285663
229 598035 396067
230 796710 950039
231 343332 867205
232 212242 964785
233 452819 496824
234 115670 471521
235 360541 8262
236 400574 402949
237 880485 661485
238 60884 160039
239 683878 639664
240 374317 736755
241 910045 735770
242 827672 694052
243 468660 100463
244 889887 376733
245 132019 886630
246 832104 956600
247 274751 74336
248 569501 12915
249 181343 796816
250 692239 107559
251 430261 44098
252 360519 647964
253 575387 897954
254 703118 654935
255 576064 639851
256 395776 221301
257 264047 910080
258 117934 386732
259 592454 137905
260 395283 439903
261 315481 318853
262 779281 252981
263 578001 356476
264 42430 232521
265 86098 162929
266 456921 28943
267 63600 734465
268 340979 688744
269 471722 917592
270 576117 81928
271 508009 751981
272 981450 692116
273 571149 513251
274 177319 21769
275 496335 213025
276 970485 948822
277 710717 529310
278 650638 401317
279 980498 626053
280 306984 886642
281 426232 785525
282 78817 494135
283 131842 643794
284 239851 571931
285 338930 604683
286 209413 570684
287 641570 182257
288 469418 366659
289 608135 249971
290 602342 176683
291 375977 416376
292 925536 199456
293 736697 671395
294 950125 569464
295 602623 697184
296 448893 899791
297 578661 971434
298 872515 937324
299 110411 799192
300 222697 204489
301 905115 927347
302 419427 319651
303 837047 554108
304 23285 511261
305 792612 979242
306 451191 411034
307 23430 609800
308 437748 526440
309 206864 107382
310 621620 194517
311 533383 440658
312 349233 134440
313 699567 282065
314 151257 321918
315 345210 915309
316 343373 96873
317 457358 623099
318 725491 964943
319 392945 315736
320 761707 210256
321 464531 842742
322 947843 408105
323 163801 8234
324 550558 444220
325 271867 590449
326 786067 788492
327 453982 307387
328 861116 808241
329 469988 796327
330 594160 872103
331 161162 707549
332 749554 582355
333 514711 608448
334 463190 615325
335 445998 429514
336 975882 762643
337 835515 31171
338 408450 744890
339 986676 41845
340 273324 891325
341 812077 354930
342 727758 473106
343 754147 635824
344 347319 875003
345 108388 117042
346 501753 777620
347 869737 332193
348 234374 701887
349 7227 916672
350 999654 418911
351 21558 508712
352 170896 380542
353 778372 431137
354 60734 980875
355 553240 225292
356 460922 594985
357 687939 477117
358 370350 383542
359 837811 417361
360 347980 812823
361 601221 546517
362 615670 27087
363 407955 467169
364 591747 454973
365 252798 977313
366 684155 5801
367 488604 48032
368 430402 217092
369 666990 250641
370 102756 370604
371 798012 929958
372 527022 295564
373 515821 955235
374 161949 842650
375 924237 767205
376 110140 552254
377 663873 22341
378 734755 15757
379 20107 122863
380 950139 561280
381 764146 810093
382 878118 182635
383 427279 530964
384 67962 392374
385 961295 415114
386 221592 995161
387 493123 580775
388 702683 48967
389 882643 593329
390 292332 392198
391 447061 468883
392 504834 691518
393 213166 874062
394 127682 305969
395 620752 899438
396 149129 274616
397 289345 687642
398 149011 802850
399 436834 946247
400 592881 466854
