NAME : portgen-200-208
COMMENT : portgen N=200, seed=208
TYPE : TSP
DIMENSION : 200
EDGE_WEIGHT_TYPE : EUC_2D
NODE_COORD_SECTION
1 66061 499387
2 938079 985253
3 249624 477444
4 520256 48163
5 882644 151265
6 231963 485188
7 479240 714628
8 938443 196846
9 867373 457656
10 932946 868591
11 68062 865319
12 324889 590347
13 107969 652152
14 868053 294796
15 87569 994700
16 399343 398295
17 697814 53040
18 925238 630691
19 427096 107194
20 338204 31106
21 653548 395555
22 818881 884551
23 766337 559808
24 675464 472136
25 61230 354710
26 344305 195309
27 624187 297401
28 444761 667766
29 801572 885038
30 60014 618932
31 50347 413062
32 709958 851537
33 497717 836407
34 666307 594688
35 948291 378634
36 521382 395236
37 396426 578236
38 524285 872753
39 241131 27487
40 145585 440203
41 850579 983014
42 234782 468636
43 944353 986281
44 688336 846276
45 555323 88831
46 964384 832407
47 158902 959569
48 509724 258311
49 999128 240644
50 360266 893584
51 318677 647976
52 326551 621026
53 504130 361291
54 960527 155550
55 353048 458480
56 979430 955295
57 329715 971183
58 654548 217940
59 254160 750389
60 341813 239405
61 837278 425662
62 234422 54707
63 59957 873405
64 68685 775400
65 74105 162994
66 912225 85580
67 674439 687105
68 460772 895283
69 653298 263599
70 814088 726412
71 732120 937947
72 504463 315917
73 251552 538721
74 597984 104195
75 899612 636318
76 189626 223728
77 166539 197271
78 981358 233096
79 973537 639445
80 160253 608847
81 707992 696928
82 341462 626635
83 726359 41483
84 450832 13798
85 719630 115826
86 619955 149964
87 850776 705494
88 49779 613549
89 259122 37151
90 73348 826860
91 899868 429239
92 615146 465257
93 455001 215297
94 744117 47804
95 960745 419289
96 444451 639500
97 543968 698261
98 106457 582155
99 87170 798968
100 266137 638003
101 279598 560833
102 30846 72751
103 736449 760386
104 608582 701281
105 742269 766061
106 488979 925732
107 678700 740963
108 164395 68492
109 152959 643201
110 520178 144204
111 954312 651863
112 747660 81627
113 836228 59122
114 119118 778024
115 969044 289392
116 4967 557841
117 294881 307287
118 337881 974135
119 750539 874182
120 300862 386509
121 62337 100916
122 527625 816541
123 464976 792587
124 891839 462341
125 862032 47335
126 463037 309145
127 829923 976745
128 633035 721757
129 265952 723558
130 734870 762314
131 9847 734399
132 400419 355760
133 703723 388063
134 398107 862158
135 275987 371808
136 176652 690618
137 781168 472842
138 681166 645167
139 821939 770915
140 448591 114470
141 793169 395559
142 43153 206730
143 279544 270567
144 157421 939121
145 603564 949817
146 576028 888380
147 598195 929053
148 209856 371719
149 319747 54782
150 135374 819809
151 970647 120924
152 13750 747562
153 254165 67478
154 265991 623192
155 697200 362467
156 564336 326831
157 119994 785053
158 186285 121467
159 136204 471365
160 145903 332003
161 68315 343324
162 726783 456178
163 401160 55728
164 676867 33606
165 218677 613688
166 379175 198746
167 73714 86123
168 550134 466338
169 275564 258100
170 20445 158077
171 134363 686055
172 793217 271560
173 881501 232704
174 161596 142017
175 527893 154128
176 694851 286141
177 836105 521686
178 440633 771900
179 47210 927626
180 197428 787826
181 791913 7890
182 602747 539122
183 228104 878280
184 533613 848434
185 903551 953581
186 959870 994187
187 943472 991774
188 637151 782174
189 507218 205097
190 15544 629259
191 8517 749241
192 836177 430851
193 821775 371285
194 595999 534591
195 858019 671853
196 932725 427130
197 354549 66863
198 198207 140176
199 742583 801442
200 634408 99327
