NAME : portgen-400-407
COMMENT : portgen N=400, seed=407
TYPE : TSP
DIMENSION : 400
EDGE_WEIGHT_TYPE : EUC_2D
NODE_COORD_SECTION
1 431921 149701
2 385200 153136
3 910933 228912
4 997876 90290
5 346898 303426
6 618792 293324
7 709639 919064
8 744255 598065
9 277772 846284
10 515723 213653
11 110987 856193
12 742576 48617
13 196008 304921
14 493718 687532
15 446805 247867
16 587131 542363
17 38281 39994
18 805094 744740
19 915406 270017
20 720497 149964
21 940090 773657
22 650766 798070
23 772075 976206
24 316806 68688
25 539024 608197
26 690113 396770
27 258308 410768
28 105761 889558
29 111420 345205
30 348042 166193
31 313505 727858
32 369793 196934
33 363336 845134
34 642557 911568
35 146988 768049
36 281258 209083
37 307259 907525
38 523540 714216
39 597884 331807
40 942855 306449
41 193501 148512
42 339490 280612
43 934361 859273
44 172569 841346
45 676657 959959
46 102182 3837
47 123028 952448
48 868705 731006
49 466397 743241
50 274530 57858
51 378321 984998
52 125832 232575
53 414696 541600
54 57280 977695
55 476407 246488
56 716988 270073
57 668547 388082
58 64010 309668
59 604829 417345
60 328229 632330
61 378737 899316
62 637038 89129
63 389727 296260
64 83251 74684
65 492828 981940
66 656936 620189
67 855400 696367
68 589460 923427
69 479964 951408
70 216602 624693
71 254443 755224
72 513117 44327
73 581222 202866
74 366798 33898
75 562720 572444
76 647754 391712
77 250412 292589
78 400922 758132
79 129597 429464
80 643114 491268
81 61635 105871
82 761093 851713
83 992044 961764
84 756956 624220
85 806859 861144
86 942869 570930
87 854624 755784
88 984575 987024
89 648904 344448
90 688207 631594
91 166663 653786
92 431569 1559
93 920304 551065
94 859095 3687
95 704322 627696
96 166471 855744
97 144548 355458
98 681823 683512
99 900600 757332
100 59752 594197
101 553962 22349
102 345691 931125
103 405781 993968
104 960143 248852
105 372285 849857
106 899036 125909
107 725142 15418
108 324797 205890
109 961322 405635
110 169889 308532
111 61163 999623
112 564467 212661
113 307182 920519
114 225239 923498
115 350003 990607
116 26881 400051
117 972163 838350
118 732558 40753
119 928644 416151
120 676762 714413
121 589742 453460
122 833797 395790
123 566532 166847
124 291276 931887
125 48276 761304
126 458273 977101
127 407328 69145
128 567316 153910
129 50186 507341
130 198567 365027
131 65323 543991
132 572089 657871
133 260114 445576
134 292112 329351
135 448885 157949
136 914614 29435
137 357359 408585
138 850258 84062
139 592295 495322
140 645345 153271
141 870333 717897
142 724931 984976
143 925283 482889
144 827962 314291
145 578235 286981
146 748641 599292
147 967265 518813
148 799799 560306
149 96101 425211
150 545531 482470
151 574552 795954
152 286542 895004
153 890970 740375
154 252170 422351
155 143861 84427
156 325948 735894
157 929105 911585
158 616386 466030
159 576726 53276
160 858071 699808
161 349475 866900
162 783819 966415
163 583396 118659
164 742893 462355
165 517615 109883
166 831892 169943
167 351460 560917
168 827323 134439
169 788791 813345
170 368590 459252
171 906163 774685
172 456220 878426
173 937506 881740
174 815472 849
175 935416 681139
176 817412 633745
177 907596 435648
178 650577 404609
179 444493 725624
180 67680 756531
181 951583 438824
182 53761 684608
183 178263 551262
184 279674 50679
185 974079 734645
186 650557 575876
187 117860 176931
188 882395 715729
189 959304 348171
190 315837 178787
191 674166 17269
192 394674 761084
193 158299 393067
194 116181 666852
195 382654 276061
196 854765 738112
197 839266 633944
198 808695 330287
199 656825 279288
200 996031 221777
201 922436 467301
202 685012 756628
203 6973 800143
204 239071 146512
205 277349 257510
206 288427 777641
207 342970 791619
208 901765 213470
209 599558 419817
210 875913 847976
211 894436 385
212 54647 752301
213 812209 183256
214 890864 361231
215 169958 82251
216 476657 812791
217 70822 58327
218 890360 896525
219 674299 603055
220 859318 944828
221 793509 696363
222 790938 534677
223 381624 854379
224 683465 86964
225 821734 625439
226 439423 295593
227 109329 913779
228 745119 109644
229 396479 626684
230 866268 110448
231 125844 636015
232 287194 332520
233 464000 592063
234 986703 808292
235 409994 47386
236 530005 512593
237 598083 250474
238 408553 598842
239 891056 140867
240 7182 702564
241 786776 264179
242 494963 59509
243 956407 840642
244 525597 738302
245 594326 298296
246 909822 866006
247 193061 811931
248 414823 280915
249 98280 540463
250 126123 782781
251 963323 542597
252 79781 119169
253 838662 175243
254 800630 49819
255 957371 904477
256 584047 658177
257 32357 567972
258 200626 259837
259 442954 475262
260 917696 183085
261 493782 446239
262 682168 627212
263 84063 987407
264 432812 478913
265 411812 233309
266 798212 841236
267 183496 102705
268 118517 128599
269 231821 926990
270 858883 696570
271 397687 50335
272 820605 411241
273 804513 463582
274 183837 565848
275 727868 427415
276 848102 619367
277 128651 892813
278 984569 122086
279 359101 977075
280 652 710062
281 943421 873639
282 190936 260801
283 506789 533712
284 837571 621116
285 763458 737043
286 75999 877105
287 747393 490280
288 334982 874415
289 317588 789354
290 642642 961976
291 628306 455736
292 478260 701749
293 289888 924572
294 650300 922694
295 595916 584804
296 291028 610705
297 163532 121839
298 620570 520582
299 302941 330324
300 76258 930098
301 145994 394482
302 923206 765891
303 799109 392366
304 141107 426901
305 602925 59996
306 471786 436406
307 381159 415848
308 419034 332716
309 710107 69096
310 640230 986207
311 230770 507246
312 544857 833360
313 591049 681516
314 953899 981501
315 691171 942616
316 733307 890686
317 186429 582646
318 490190 191899
319 74576 62412
320 282715 957172
321 214465 581203
322 282464 609709
323 354033 783781
324 65847 330171
325 530790 939053
326 566682 321439
327 639153 133642
328 196790 255307
329 208053 340559
330 275700 607209
331 317789 78695
332 144186 645753
333 845531 890582
334 153942 771450
335 61814 635253
336 266868 379936
337 538306 701176
338 419524 909331
339 868092 411215
340 636570 335741
341 473463 613339
342 705801 83961
343 624826 654611
344 746500 540676
345 737114 599608
346 37957 303126
347 597 647462
348 690303 834528
349 42897 581287
350 190184 444702
351 915688 654631
352 693601 195048
353 465590 953343
354 615638 555192
355 508816 542178
356 508807 667376
357 603445 676091
358 569252 14663
359 78097 496723
360 955449 11002
361 847684 572654
362 581265 617111
363 719564 612236
364 686334 343257
365 235586 466180
366 293692 312900
367 902399 94391
368 826934 806086
369 9894 29709
370 514709 610162
371 576514 249776
372 585226 726112
373 751924 465302
374 721860 383486
375 927897 78067
376 148193 699640
377 345700 724004
378 151010 602787
379 752232 599209
380 368114 659503
381 943449 585929
382 40483 898653
383 965664 259030
384 82149 877333
385 924167 103949
386 292803 694611
387 568825 877382
388 862808 148044
389 226954 857261
390 466101 116776
391 860004 87125
392 975142 576083
393 522731 707763
394 272417 3746
395 128726 567904
396 723936 132560
397 105541 410759
398 317359 881902
399 680951 707844
400 863303 603879
