NAME : portgen-500-504
COMMENT : portgen N=500, seed=504
TYPE : TSP
DIMENSION : 500
EDGE_WEIGHT_TYPE : EUC_2D
NODE_COORD_SECTION
1 871561 662669
2 135807 74165
3 735791 258521
4 622645 176151
5 799324 317294
6 370161 54073
7 470185 802633
8 644576 728307
9 588368 151294
10 211851 150694
11 207287 580388
12 46675 648879
13 178619 125618
14 984621 858866
15 878192 858706
16 447510 537210
17 958006 621575
18 43014 167165
19 741366 309182
20 856590 92321
21 552123 254440
22 870329 690590
23 277385 596259
24 604294 766504
25 525688 771958
26 873748 690950
27 235743 852962
28 739514 334351
29 704662 514232
30 31150 568626
31 517155 313462
32 319561 707002
33 765170 115720
34 183744 779595
35 525248 48316
36 124012 821863
37 625605 439892
38 276946 516336
39 344644 193712
40 909364 844267
41 420955 470388
42 827715 309565
43 341551 134048
44 217648 251004
45 856404 927293
46 983420 961770
47 783934 808273
48 968309 730259
49 628834 430436
50 413643 761048
51 251615 410581
52 857140 681420
53 351002 403359
54 863234 926178
55 511410 605466
56 116703 453658
57 657827 103857
58 585205 555384
59 529527 511288
60 738693 34911
61 486885 753308
62 365952 764200
63 796700 713431
64 964723 944184
65 88890 873587
66 653102 418465
67 682301 303897
68 727564 967296
69 812560 723858
70 724360 786166
71 604520 706359
72 512310 821492
73 440408 230112
74 595818 19734
75 11572 254877
76 765536 684649
77 341546 540056
78 107945 833149
79 728279 553242
80 953856 383705
81 590798 139376
82 201817 725244
83 946 410343
84 941348 836335
85 663448 355092
86 959566 509793
87 499716 483815
88 269375 802235
89 411762 825895
90 656254 963550
91 985151 411480
92 990328 705184
93 282788 513725
94 216647 957057
95 302950 317221
96 25948 976225
97 60409 369267
98 826600 94726
99 206643 28494
100 552117 638172
101 818350 769922
102 363480 48021
103 269726 354055
104 694321 636361
105 257267 594220
106 616501 771222
107 250292 636634
108 357756 614572
109 78967 832550
110 898643 906219
111 203699 912853
112 284218 25276
113 536742 189643
114 146313 451694
115 214089 915319
116 107914 775400
117 568627 62034
118 347049 213929
119 161188 353694
120 347427 668216
121 434758 384097
122 58413 396730
123 113522 113095
124 692007 35132
125 832525 636957
126 948413 754949
127 814405 636797
128 530257 42949
129 201295 301446
130 700972 55797
131 192867 340627
132 288933 589051
133 159461 232404
134 712808 853561
135 523112 244661
136 922565 43834
137 25 261686
138 957806 448750
139 98448 647420
140 495018 493792
141 988348 844866
142 750722 158292
143 722452 767287
144 486467 979576
145 902572 114644
146 501120 307627
147 830581 102766
148 745651 390924
149 384072 796727
150 438924 664772
151 14646 44586
152 540113 338732
153 648609 103546
154 4227 656112
155 914344 762970
156 556482 221718
157 398873 586327
158 554676 885240
159 510045 186167
160 843400 768537
161 848331 916081
162 414636 858340
163 230014 877978
164 503720 661293
165 613077 854259
166 444522 442335
167 733076 732048
168 937310 766629
169 445993 164394
170 603615 837212
171 257241 300299
172 136176 134035
173 266312 585039
174 892990 972240
175 872751 867673
176 887203 722779
177 183650 584665
178 220249 572311
179 311510 808065
180 401421 881980
181 657553 839832
182 52497 77132
183 505728 256182
184 85542 264838
185 320014 969637
186 992249 537804
187 313416 975727
188 881333 125552
189 732430 829971
190 638091 657703
191 566467 695655
192 259871 731097
193 196705 604690
194 389838 655943
195 226320 681127
196 681086 181154
197 844379 633978
198 844963 719436
199 986883 160448
200 252701 140760
201 852608 63019
202 334149 215047
203 301205 191548
204 462907 452553
205 387959 615558
206 182472 655566
207 581744 720293
208 200893 476398
209 995452 418519
210 232169 786291
211 269299 925093
212 12136 179254
213 117028 929230
214 203655 98368
215 674521 689784
216 662644 279877
217 442011 22532
218 475230 910900
219 113910 539577
220 530203 720306
221 609237 971319
222 423774 440028
223 411828 755992
224 169017 665125
225 516949 915733
226 515781 888514
227 485927 562917
228 478115 572730
229 621007 311617
230 739817 390305
231 77638 923329
232 922349 667652
233 6321 211153
234 231792 141716
235 308465 444901
236 307381 330327
237 901569 316436
238 270510 380784
239 439166 449219
240 701138 544298
241 308222 892038
242 358551 284216
243 612146 739314
244 357528 774358
245 16210 264076
246 679108 972194
247 231112 85302
248 412925 278909
249 69749 107338
250 169518 31043
251 316825 719798
252 963986 972650
253 607510 623743
254 529963 201710
255 950771 738801
256 215202 846648
257 295406 475740
258 711196 105444
259 692217 837047
260 254726 727411
261 141404 124453
262 972197 277421
263 128075 587582
264 366340 928918
265 708925 646767
266 850821 237456
267 498447 962337
268 329095 461573
269 596631 882810
270 573019 506701
271 47097 520480
272 519632 288798
273 122672 554655
274 999996 953690
275 957226 825343
276 912568 140830
277 398413 522751
278 180222 79369
279 221351 1649
280 643555 145937
281 27111 647153
282 628690 444069
283 691704 694722
284 327016 6607
285 353068 156541
286 105448 738527
287 879821 429383
288 814842 573
289 726039 449446
290 97199 48706
291 366230 364691
292 285363 562987
293 619655 203668
294 608765 54377
295 270633 634373
296 134556 590024
297 529742 416478
298 401253 308570
299 640658 90249
300 473955 122099
301 828615 550549
302 856490 908520
303 459112 547877
304 855467 835426
305 903095 976554
306 470604 166973
307 731015 9181
308 11381 437087
309 117410 212212
310 42816 383134
311 54063 236767
312 532651 230968
313 327925 554898
314 882036 971301
315 970270 266965
316 145106 890613
317 546351 120645
318 578101 199257
319 633676 276182
320 551606 182568
321 86257 396552
322 11561 887499
323 580310 897789
324 57372 298773
325 88552 846355
326 426533 669357
327 119978 206990
328 976992 938002
329 4198 735845
330 330418 259855
331 914201 579284
332 283819 720526
333 890296 74051
334 155411 843516
335 428871 113592
336 379714 818636
337 123659 196461
338 956600 384705
339 116788 325661
340 253976 389923
341 550700 146191
342 640882 710415
343 352764 565821
344 606793 825824
345 230349 504050
346 43845 790159
347 847310 438014
348 802854 267620
349 272893 815100
350 930899 195604
351 781000 731711
352 44797 698628
353 295654 280342
354 28474 409563
355 854225 411171
356 331208 178373
357 505495 826367
358 216009 124041
359 731974 845805
360 917672 622675
361 801158 340311
362 912617 233266
363 332591 648002
364 773839 425031
365 900806 676257
366 356231 707225
367 471436 842804
368 58715 372326
369 640695 814514
370 494405 228723
371 833847 760988
372 908152 607673
373 702892 703534
374 877542 614044
375 105422 154851
376 493781 847862
377 914294 254641
378 839373 73775
379 260275 201992
380 639913 923328
381 639646 213959
382 915158 625501
383 577324 570219
384 270221 897822
385 123475 512475
386 246498 117929
387 740382 762820
388 128894 953296
389 426017 657976
390 393893 258816
391 387727 571846
392 785117 977477
393 36611 142271
394 792066 845934
395 265480 488495
396 102105 742873
397 691039 981929
398 982224 715917
399 20605 145331
400 478779 749596
401 277517 219566
402 220150 846605
403 767123 921934
404 62744 936816
405 218030 697102
406 281708 414340
407 936512 151418
408 821223 896773
409 522920 933228
410 643276 861406
411 549614 124889
412 419043 373879
413 234958 26932
414 897779 893776
415 995697 206959
416 890551 489200
417 439945 696791
418 977108 973387
419 635334 633699
420 156254 139837
421 619350 858838
422 202657 404073
423 938881 977215
424 323830 317159
425 746971 955292
426 818137 126829
427 149634 271819
428 859044 788316
429 779620 523359
430 869497 793736
431 286600 429045
432 780562 78192
433 77751 422870
434 211682 532438
435 212536 844007
436 572943 205760
437 186257 687983
438 43268 422785
439 975254 147223
440 514834 446641
441 247311 374419
442 24279 201960
443 920358 461506
444 708637 361752
445 619040 554238
446 761704 102895
447 421162 312246
448 566893 413590
449 672580 514674
450 360804 516096
451 1960 176606
452 802325 300329
453 707981 443718
454 102549 947674
455 351461 397538
456 79678 417867
457 904319 315259
458 32031 183705
459 7882 468316
460 511299 664161
461 750289 697008
462 171633 696440
463 842047 396336
464 403435 885928
465 980002 599550
466 320235 27580
467 795761 117296
468 366963 829443
469 470100 709019
470 169928 736653
471 453623 240321
472 850453 954878
473 803948 64696
474 931261 724721
475 470198 170556
476 10154 786652
477 534672 761253
478 195861 974379
479 380845 685029
480 933366 878538
481 973617 393530
482 777745 614808
483 943914 839357
484 567414 949440
485 511310 967335
486 252443 283160
487 998117 340742
488 654006 963636
489 162336 410380
490 500579 867667
491 15491 718406
492 952561 101464
493 625933 926704
494 249835 180953
495 173381 527605
496 262029 520660
497 197709 202593
498 484209 170463
499 242203 509710
500 300872 840311
