NAME : portgen-1400-1409
COMMENT : portgen N=1400, seed=1409
TYPE : TSP
DIMENSION : 1400
EDGE_WEIGHT_TYPE : EUC_2D
NODE_COORD_SECTION
1 942432 675405
2 345075 48710
3 833701 555397
4 905285 719494
5 51336 838428
6 390664 935294
7 854664 953458
8 580559 201184
9 434654 79477
10 696340 398341
11 116064 770041
12 564297 300809
13 408140 184694
14 523451 921308
15 738033 557778
16 979911 478825
17 642039 728073
18 169997 891857
19 127901 602425
20 786113 472051
21 860266 647314
22 960061 945538
23 393933 505005
24 616426 132730
25 834253 371989
26 989104 662418
27 179860 298174
28 961649 463606
29 33366 617001
30 878713 941844
31 427495 302859
32 933381 579285
33 978161 743350
34 975232 909125
35 559525 75554
36 584758 301923
37 245223 324350
38 409237 453645
39 590181 266123
40 339160 944533
41 151328 906449
42 42595 796189
43 130282 677051
44 545444 62754
45 749911 426647
46 916624 218775
47 42900 710559
48 887292 558342
49 402090 635710
50 536301 940287
51 914823 350303
52 793570 889720
53 220661 82655
54 619823 383670
55 167891 284597
56 918162 970612
57 867089 452065
58 25220 208719
59 259958 222821
60 691992 419818
61 341259 339522
62 372823 619237
63 160730 234455
64 508353 355502
65 103689 326581
66 833822 206511
67 98231 54562
68 26370 180715
69 39359 590529
70 770969 921562
71 417092 322622
72 370761 330093
73 85387 577101
74 845952 423663
75 549828 652837
76 49989 46587
77 532021 209719
78 106465 708311
79 252071 739007
80 863350 39945
81 43295 29293
82 612701 246328
83 867504 595540
84 599851 536996
85 366678 448118
86 362767 836295
87 672993 39155
88 369829 294671
89 807501 163103
90 512772 452418
91 982384 769345
92 492152 63744
93 283286 804528
94 593810 851903
95 187058 430830
96 580864 502362
97 223851 322851
98 558795 580797
99 649629 331606
100 960263 790716
101 769600 682848
102 910890 97409
103 670453 280643
104 554435 468277
105 926433 301936
106 114501 400167
107 551949 432519
108 459080 540932
109 805442 289849
110 687533 286707
111 945911 268244
112 576733 575961
113 678517 679919
114 925405 575583
115 368702 89185
116 740236 339223
117 236670 210836
118 337917 582216
119 217395 59632
120 604663 742353
121 999086 303960
122 164370 900350
123 484919 312619
124 925629 647889
125 644333 878876
126 655391 74045
127 962903 871077
128 50480 430376
129 446178 700054
130 759492 88236
131 63248 494802
132 863613 184080
133 302850 810541
134 235797 651599
135 947600 146460
136 615303 157552
137 645515 808657
138 631315 871865
139 305340 705656
140 525481 248140
141 233740 225351
142 816091 280465
143 25937 245433
144 475610 52589
145 907985 527376
146 346418 565796
147 112032 458203
148 127049 841533
149 658444 355712
150 269035 613053
151 7279 219973
152 122408 396193
153 645135 430040
154 257954 682438
155 845139 805046
156 954766 393588
157 792068 232116
158 741818 497451
159 382770 405409
160 57030 461317
161 152096 880084
162 382564 334546
163 139181 395330
164 35144 249322
165 163521 201274
166 613911 622902
167 860516 720434
168 293374 840151
169 433282 583975
170 538646 528486
171 862663 70200
172 995559 446668
173 375279 466333
174 183232 777485
175 319022 731718
176 806388 409122
177 192191 67760
178 999142 384376
179 359456 401973
180 102819 804983
181 996757 673978
182 143792 316653
183 942382 884565
184 398029 345399
185 856836 275484
186 314219 605284
187 86387 325311
188 654928 742974
189 687893 314804
190 335404 754804
191 35873 633171
192 146502 358537
193 204517 939932
194 479110 543862
195 778051 408808
196 442122 87883
197 727138 263162
198 214266 257378
199 983813 670247
200 791740 632304
201 778440 868428
202 442081 564217
203 695844 173217
204 262619 833653
205 863242 59209
206 905266 815593
207 623921 694010
208 362861 908874
209 946840 880630
210 102386 685003
211 900752 727781
212 553658 224532
213 497044 445790
214 163203 522169
215 629466 481711
216 480355 854240
217 451561 276194
218 849537 220280
219 9249 452491
220 995676 295642
221 993092 598480
222 441476 93048
223 508056 714340
224 534224 502606
225 766117 768476
226 94175 461643
227 40780 310028
228 151949 924200
229 416867 165886
230 714680 475564
231 163967 810127
232 837976 567599
233 66117 306786
234 374117 530873
235 185954 648520
236 374649 444233
237 114512 333910
238 590828 439108
239 687000 243630
240 72582 572844
241 28923 997317
242 807489 153901
243 317744 670227
244 16263 883961
245 210076 542750
246 846162 478376
247 266537 347156
248 920993 548858
249 483967 107565
250 502219 68947
251 27339 290594
252 430023 193272
253 739552 96858
254 654153 886879
255 992284 481721
256 907936 532905
257 955809 171929
258 629402 685590
259 543589 490820
260 646606 517259
261 822819 266552
262 28654 117006
263 621180 84055
264 14210 921239
265 594358 493970
266 784955 800121
267 251345 590861
268 664907 496017
269 41507 635560
270 524499 632153
271 126638 525442
272 237354 692817
273 719931 579610
274 449722 149531
275 725975 836938
276 534647 562727
277 513207 8248
278 283992 227218
279 39249 839162
280 528364 243534
281 55351 18593
282 362379 360131
283 355083 382494
284 295551 262992
285 451997 49792
286 235868 394058
287 764844 809668
288 982611 260091
289 753344 20405
290 833014 393962
291 44805 175048
292 392875 350823
293 438619 766361
294 437741 891213
295 235778 282413
296 200466 778514
297 183562 474706
298 396285 732579
299 760597 427686
300 710205 459839
301 826265 429317
302 316517 332013
303 792132 359599
304 169852 162384
305 569629 517630
306 789476 148036
307 603383 245951
308 43067 276836
309 835030 887673
310 963846 622503
311 621896 867864
312 552787 992158
313 223527 806551
314 77541 432831
315 17535 623012
316 90239 590960
317 450776 315383
318 604486 896769
319 571664 146923
320 307755 161782
321 931331 550068
322 927366 613275
323 660517 332601
324 225726 191403
325 251179 589733
326 655038 327766
327 410150 87192
328 369599 235304
329 978541 1133
330 727527 895362
331 787934 22928
332 854628 407846
333 586299 239407
334 220669 990108
335 585433 710465
336 51110 643627
337 636494 374112
338 967464 294129
339 457714 465594
340 622558 988222
341 828009 76407
342 705304 122173
343 835077 67310
344 736331 42929
345 729084 365078
346 676100 581555
347 561489 597289
348 110672 287704
349 913574 553254
350 645810 366387
351 874887 760132
352 568845 262956
353 761723 578630
354 622462 287977
355 252115 302289
356 498972 935611
357 272049 362448
358 219262 206378
359 461438 257339
360 297173 298595
361 325833 667415
362 344298 219046
363 835578 290977
364 74781 373537
365 612388 388834
366 671667 169737
367 213479 320269
368 489249 892398
369 804358 342855
370 902910 628698
371 605871 478992
372 745755 430488
373 39245 8685
374 237257 342443
375 761711 819694
376 212922 540037
377 940865 256975
378 694720 705150
379 546653 248575
380 773706 869325
381 774272 279606
382 385066 623416
383 696417 19980
384 189856 841560
385 323203 210577
386 969121 118995
387 495628 477479
388 85673 785795
389 726550 87322
390 524326 130427
391 744324 826205
392 599830 743063
393 614561 392060
394 784670 590062
395 623852 469269
396 702542 962797
397 19652 692333
398 659577 486876
399 983364 268276
400 344815 253449
401 282135 149934
402 818117 631283
403 75369 386716
404 940206 197802
405 642414 302659
406 920479 956590
407 624723 304436
408 166783 811475
409 259954 692733
410 963839 209540
411 36615 921579
412 496745 69753
413 928442 819186
414 300877 864344
415 402109 698956
416 845589 528747
417 444908 221666
418 209947 787734
419 201481 295393
420 576279 803086
421 132106 91937
422 626222 414311
423 432654 780962
424 466052 949898
425 763891 840390
426 185998 119019
427 866167 645859
428 407860 753387
429 705025 596450
430 421335 287635
431 185234 644812
432 621522 839327
433 170553 828542
434 330367 210412
435 871782 385820
436 345422 310055
437 928842 123448
438 23541 917595
439 55412 850885
440 661893 175055
441 114160 704426
442 443009 114473
443 513721 200776
444 907225 605581
445 51113 381405
446 457366 991069
447 423611 190459
448 457663 822050
449 163095 502774
450 390770 515058
451 725550 615166
452 288004 588835
453 726229 481572
454 676010 751693
455 132137 207083
456 846161 99444
457 545337 39930
458 830268 194164
459 221201 431062
460 381663 348502
461 665447 827593
462 819641 356723
463 660270 730256
464 22050 340006
465 397218 541969
466 241584 303719
467 718748 454810
468 328893 14716
469 159089 403078
470 284204 319557
471 979574 476162
472 223917 702610
473 715957 629773
474 171427 66887
475 530188 727407
476 799999 823088
477 105555 848800
478 273473 421831
479 896417 833194
480 259942 711513
481 322482 272931
482 467488 812580
483 227508 369998
484 875527 842726
485 323972 200495
486 22736 154314
487 900874 654256
488 548503 842358
489 722038 970841
490 83249 238439
491 833838 188856
492 80064 685705
493 219486 968653
494 836230 906168
495 227301 958895
496 139188 316362
497 79106 83708
498 296820 825260
499 575288 569661
500 154107 873598
501 907734 200586
502 983637 291749
503 893568 611143
504 743024 419850
505 629313 304820
506 585600 990249
507 605893 301046
508 572324 6120
509 193825 383779
510 515759 402248
511 794709 305865
512 688619 450373
513 292761 822150
514 170676 609124
515 760687 937360
516 99333 302188
517 341527 778429
518 652838 843589
519 582962 779017
520 113380 213366
521 774827 452450
522 390408 825052
523 164185 833323
524 627742 628732
525 790947 474670
526 654583 966164
527 808973 216747
528 774265 605546
529 859059 205208
530 638911 49979
531 28180 964007
532 306469 415947
533 529992 133149
534 599840 780840
535 136861 739001
536 378378 565093
537 592831 41089
538 747664 828545
539 496891 471872
540 676108 687214
541 963091 965467
542 970212 710708
543 909179 135326
544 995718 925579
545 248436 519688
546 243749 802121
547 642156 374378
548 834988 209734
549 859618 349319
550 77387 335640
551 336431 155869
552 952623 103732
553 511578 689116
554 995951 98265
555 307568 638938
556 609828 933479
557 956772 119223
558 806229 226059
559 321851 932091
560 580959 320257
561 273530 250521
562 703452 801220
563 402570 222508
564 612469 489098
565 529510 58548
566 832593 398626
567 164304 37169
568 77386 29612
569 8695 850989
570 904478 683119
571 813475 63626
572 344620 928178
573 246157 993227
574 98668 840935
575 971808 612479
576 597265 370520
577 819808 18839
578 503047 937804
579 991565 915454
580 26346 481966
581 680420 144962
582 193786 624448
583 825463 546201
584 588858 28593
585 873065 813002
586 127390 480915
587 960283 968479
588 722992 903010
589 430713 684613
590 298173 464765
591 230943 697015
592 462752 47544
593 378128 687630
594 204839 539856
595 211706 531185
596 440753 980101
597 977923 91476
598 555728 332559
599 103343 376140
600 205186 343146
601 562514 414054
602 542762 507043
603 381536 900250
604 907767 772263
605 640711 815416
606 732965 451708
607 703747 495161
608 41213 700319
609 167038 102310
610 68719 492904
611 442857 212718
612 823407 529919
613 250487 713336
614 938153 453240
615 586942 822741
616 995243 658449
617 43902 482757
618 731799 779234
619 993267 967591
620 6330 677808
621 520592 102529
622 471136 718801
623 88327 228035
624 156693 448004
625 840989 842392
626 394405 650103
627 789198 382444
628 347902 904065
629 370152 60005
630 775243 602302
631 906983 940176
632 765933 962902
633 294824 630436
634 980572 984946
635 406833 813178
636 543625 719034
637 261321 226327
638 98498 792754
639 423519 440963
640 182016 346421
641 343183 878148
642 677996 984640
643 915758 55067
644 892516 81000
645 187932 101363
646 798662 8320
647 560757 193152
648 134183 801557
649 841207 244809
650 620303 295572
651 804515 715730
652 265987 494567
653 499208 516257
654 972106 804558
655 466685 292835
656 11549 289152
657 872072 673879
658 803640 898662
659 379418 572780
660 828718 493266
661 789228 735762
662 364643 111261
663 8662 827894
664 453046 766754
665 727118 582240
666 820647 618961
667 974277 889180
668 334872 54031
669 6076 4116
670 180999 17096
671 675648 319735
672 252281 694666
673 312134 62899
674 643677 449496
675 184489 306289
676 348510 74453
677 517691 38062
678 474925 185553
679 741453 376807
680 159695 445177
681 510181 967989
682 623558 449589
683 617186 691813
684 36870 177406
685 361745 740741
686 254984 929922
687 388290 522428
688 144756 714775
689 218071 326580
690 636335 823109
691 86440 76239
692 607059 281940
693 72059 852657
694 995403 524687
695 271994 643058
696 17161 828670
697 642371 440258
698 762111 745726
699 931444 729852
700 549910 597359
701 844828 317097
702 813160 361380
703 219848 272271
704 467394 235750
705 966003 622267
706 190150 216765
707 104813 516636
708 428016 681511
709 325618 183299
710 687478 871460
711 760368 307017
712 627496 764385
713 895912 937887
714 116761 26910
715 302580 872484
716 247380 982320
717 360577 14067
718 632958 869675
719 971426 90422
720 853924 390547
721 527039 812103
722 837209 400533
723 882689 710143
724 201173 877985
725 544345 824223
726 628964 904534
727 427272 677425
728 349978 862507
729 956519 799092
730 728422 350173
731 300844 376971
732 381826 575455
733 95228 378047
734 379556 704279
735 633946 717872
736 480337 447632
737 638954 863254
738 242495 855834
739 879745 950070
740 414407 33405
741 981367 317669
742 298488 952407
743 571640 870409
744 600493 785122
745 918839 254911
746 490118 267147
747 456476 136051
748 910210 79406
749 173148 973954
750 158038 26855
751 830398 251103
752 463578 510940
753 842856 311295
754 606046 474865
755 105785 479569
756 262014 171397
757 880253 473510
758 860055 33697
759 920495 245775
760 665244 15821
761 204898 405601
762 546240 607091
763 887474 229234
764 984054 128013
765 20398 931199
766 249787 404880
767 844285 934838
768 771390 809970
769 437415 824977
770 92351 537942
771 949913 354718
772 119877 903017
773 50012 84516
774 720906 849384
775 248576 680976
776 95352 45134
777 953556 226838
778 777067 425517
779 406817 528740
780 739549 32885
781 873880 781069
782 382513 567842
783 529655 907295
784 51519 977236
785 423498 775538
786 312790 71110
787 997198 984268
788 920469 159763
789 452045 319402
790 830023 461957
791 822416 455314
792 388464 987512
793 57319 468718
794 22366 276443
795 405182 864095
796 758451 460179
797 401478 316813
798 225152 878802
799 357519 135609
800 982547 890248
801 632471 401504
802 19361 786619
803 858559 640038
804 656670 966043
805 169518 308348
806 403150 130373
807 123557 875454
808 274433 413700
809 379590 65700
810 342689 650853
811 549776 915909
812 994688 533249
813 143067 911286
814 51749 210579
815 125708 280431
816 503092 486001
817 149883 521674
818 58806 692042
819 331756 513009
820 713079 643618
821 89128 956666
822 933753 754329
823 314318 842542
824 465490 868229
825 173745 313865
826 827052 146939
827 9900 702116
828 387155 146469
829 251620 497686
830 727812 166516
831 308281 143660
832 252964 525899
833 219219 446484
834 196620 369228
835 561135 431891
836 948209 511360
837 891954 28824
838 823800 402836
839 906008 292571
840 146093 996598
841 659666 554063
842 482766 959192
843 972149 359432
844 233037 623983
845 302454 612322
846 495422 962528
847 951874 281187
848 695408 577768
849 64711 904929
850 930528 911482
851 936533 172918
852 722136 177147
853 654199 272989
854 664173 50708
855 729966 27723
856 913432 627636
857 195231 115490
858 671094 345753
859 191786 971776
860 830491 641451
861 381772 291691
862 438699 649652
863 495358 775290
864 789224 714807
865 374624 550810
866 738663 855300
867 562605 118369
868 83165 32029
869 358831 367276
870 288098 626395
871 167645 261260
872 793492 661003
873 230550 203731
874 523828 302221
875 785829 920118
876 788543 349903
877 530304 379718
878 172819 81232
879 610313 603766
880 93981 622170
881 914157 296896
882 762609 103571
883 860078 652171
884 834144 534228
885 884940 467362
886 821925 889565
887 185947 910372
888 852907 31868
889 761386 58981
890 476833 414125
891 164977 185457
892 620826 752454
893 636653 441766
894 92690 459034
895 258291 430994
896 197884 824603
897 482336 820735
898 804470 278079
899 75313 883119
900 808095 198681
901 442344 464846
902 825387 371703
903 755141 603085
904 729077 777849
905 743065 731053
906 988541 151279
907 345475 662986
908 424285 89553
909 814560 941874
910 299100 581998
911 576857 951024
912 726132 686258
913 25018 357078
914 64178 814243
915 155231 249821
916 302791 983536
917 315916 745780
918 425583 13697
919 839982 957839
920 328168 547099
921 627205 150816
922 159933 676292
923 854136 246860
924 98471 796077
925 795716 447392
926 213901 261070
927 727887 558273
928 895890 458807
929 148930 79607
930 946119 741443
931 763103 771237
932 449681 195966
933 103847 837725
934 991346 669183
935 808850 177425
936 991082 18483
937 146157 851708
938 368097 315787
939 223137 167859
940 790368 566211
941 208147 984570
942 868123 413788
943 486718 531553
944 533855 119950
945 641932 587858
946 22351 170799
947 148989 150743
948 556016 608722
949 4659 308225
950 308194 538349
951 23723 930611
952 5708 229505
953 239244 229330
954 392947 314099
955 71554 364336
956 924951 28980
957 437674 358261
958 719092 592304
959 622248 298937
960 639949 495125
961 833066 683120
962 360988 270501
963 153701 60471
964 12774 916651
965 612463 138766
966 922840 909037
967 96304 426031
968 641259 179167
969 546896 509861
970 694695 894414
971 909304 234918
972 480000 146807
973 754792 339230
974 809810 878487
975 997041 495544
976 595947 88007
977 695761 169428
978 615509 114685
979 834307 579677
980 588245 60077
981 682434 883085
982 619404 177140
983 455031 690032
984 548979 290866
985 603469 379862
986 782493 743760
987 301895 144404
988 899177 745058
989 987359 191560
990 654992 39016
991 226164 433097
992 328405 552386
993 456332 39754
994 289633 919164
995 970999 951227
996 630187 256030
997 906392 314832
998 111921 165544
999 933023 335595
1000 247630 9733
1001 351870 618250
1002 223495 958025
1003 269380 162850
1004 759601 143374
1005 713096 575754
1006 825052 915142
1007 608677 637018
1008 429889 426404
1009 976692 304571
1010 65219 289487
1011 757009 213384
1012 43235 593736
1013 27991 164242
1014 520265 343870
1015 875024 736326
1016 985457 843984
1017 478463 79238
1018 213963 311021
1019 824419 691387
1020 122496 29928
1021 63062 985062
1022 853945 681511
1023 194217 416802
1024 212794 312656
1025 286841 947678
1026 645278 589153
1027 460571 511303
1028 24275 507886
1029 139786 144257
1030 744061 958359
1031 338431 68214
1032 20878 683168
1033 512692 839990
1034 61197 927165
1035 442800 13087
1036 213610 664036
1037 17729 117540
1038 644208 167856
1039 752812 531932
1040 569460 520105
1041 24455 376007
1042 599808 916664
1043 397895 917242
1044 823106 795295
1045 566546 373973
1046 249823 897253
1047 248586 109409
1048 816317 399025
1049 967332 736404
1050 37303 26361
1051 663990 680861
1052 743195 766735
1053 923223 269271
1054 989344 543906
1055 113407 107033
1056 684779 344490
1057 577711 370087
1058 708535 441177
1059 819627 911468
1060 866850 113666
1061 872657 324792
1062 889862 416439
1063 349097 532748
1064 920841 250994
1065 194317 374937
1066 178511 208906
1067 418524 462427
1068 835325 679964
1069 798296 229720
1070 208129 956718
1071 97615 911637
1072 928445 452879
1073 501315 925030
1074 7390 832147
1075 760312 283569
1076 478183 716337
1077 542087 662365
1078 847849 455083
1079 262337 280768
1080 931409 243258
1081 470974 759624
1082 335777 156689
1083 9417 773141
1084 416045 124832
1085 868771 783504
1086 433786 987479
1087 151155 583280
1088 635482 156319
1089 782705 227497
1090 568589 894013
1091 270411 640073
1092 319584 951058
1093 903962 418887
1094 873129 261834
1095 453009 62184
1096 263919 673464
1097 360948 424624
1098 522931 110136
1099 760481 345165
1100 817396 344995
1101 142325 779893
1102 263558 866299
1103 13158 838110
1104 396752 591029
1105 758402 428961
1106 581954 502
1107 827758 869225
1108 979339 797510
1109 398675 911152
1110 633758 899281
1111 12659 70880
1112 307435 523775
1113 641178 653893
1114 723921 284856
1115 570122 797372
1116 759567 191676
1117 469094 139627
1118 312058 269908
1119 812314 450359
1120 971719 106452
1121 20212 961976
1122 628076 553728
1123 49524 193039
1124 366028 837172
1125 783445 869038
1126 386214 475625
1127 775042 20024
1128 585428 950649
1129 310798 123930
1130 554240 743250
1131 25796 946393
1132 619309 651950
1133 408749 619978
1134 372426 274029
1135 819701 786300
1136 431482 561502
1137 127706 764720
1138 513066 537034
1139 295837 287411
1140 938347 690529
1141 343094 599990
1142 730616 826872
1143 771575 813173
1144 572366 817144
1145 730878 692080
1146 897482 538285
1147 630658 185418
1148 674970 458709
1149 834269 863356
1150 40661 512489
1151 897201 78616
1152 898825 92916
1153 525943 786223
1154 745009 948170
1155 248448 772254
1156 378283 493654
1157 393052 862160
1158 845767 487510
1159 315734 433891
1160 976979 950039
1161 785708 509069
1162 233367 307211
1163 889098 352865
1164 662677 34790
1165 238776 726842
1166 792025 347666
1167 38963 166092
1168 312245 849440
1169 206938 868455
1170 981104 284064
1171 497439 138474
1172 840164 780838
1173 906371 388412
1174 304917 323446
1175 296320 322104
1176 796032 799479
1177 624580 313819
1178 720463 549535
1179 39653 732733
1180 780671 676503
1181 579285 876553
1182 967066 964383
1183 274815 239808
1184 653489 612213
1185 955788 457355
1186 182593 992287
1187 137570 654875
1188 154006 986229
1189 884489 919548
1190 586747 339563
1191 313212 929943
1192 254118 562272
1193 147557 915472
1194 380599 74579
1195 891276 72436
1196 195950 594724
1197 912667 523748
1198 101471 505151
1199 904 185289
1200 626831 920142
1201 503922 385368
1202 736698 956756
1203 8892 866089
1204 545360 62307
1205 166261 804991
1206 168935 965073
1207 841456 708234
1208 480552 984561
1209 963885 443317
1210 862912 769664
1211 238904 468199
1212 985382 35645
1213 953432 797224
1214 255589 180814
1215 645982 287917
1216 440868 822182
1217 753286 781756
1218 170628 348138
1219 88486 545884
1220 81720 162996
1221 951586 937281
1222 211667 121612
1223 833532 727750
1224 609342 877021
1225 570316 304246
1226 249562 820089
1227 539306 338913
1228 479273 681740
1229 632082 954942
1230 786128 660754
1231 777602 999475
1232 980586 3265
1233 853404 231653
1234 753405 719844
1235 874702 752801
1236 375218 86863
1237 873001 558665
1238 520102 418814
1239 928892 646468
1240 556372 271691
1241 165142 300647
1242 394685 985228
1243 510315 441392
1244 841595 750021
1245 928352 938974
1246 594732 368642
1247 671182 328918
1248 787777 864722
1249 64280 653002
1250 601510 414717
1251 798857 962874
1252 320649 298624
1253 139104 948915
1254 425404 554078
1255 828598 37880
1256 840145 882060
1257 26589 847153
1258 66021 408960
1259 328293 651667
1260 215488 988681
1261 167372 100403
1262 118334 459984
1263 953943 412344
1264 766214 574376
1265 419561 571186
1266 993410 374814
1267 817869 518491
1268 431546 283081
1269 274057 547531
1270 919207 101355
1271 113099 189927
1272 534533 939671
1273 771601 494329
1274 250307 211197
1275 374975 375432
1276 98508 489904
1277 233441 30323
1278 421307 424043
1279 145004 802158
1280 867078 856022
1281 674857 877872
1282 634871 727242
1283 924781 650217
1284 347527 86918
1285 75552 571692
1286 158652 117095
1287 276692 840055
1288 890172 677468
1289 866962 88011
1290 38677 529900
1291 267340 964055
1292 707297 563538
1293 896329 115537
1294 739943 90626
1295 593709 781328
1296 935554 187139
1297 471979 347514
1298 942702 996003
1299 913234 694478
1300 49498 94133
1301 627366 162296
1302 172520 845075
1303 108092 134452
1304 782606 669902
1305 133994 305769
1306 684100 54377
1307 208448 85749
1308 920467 487718
1309 405893 287356
1310 784540 928777
1311 736982 653049
1312 37419 981419
1313 944325 996356
1314 944574 431617
1315 731963 755719
1316 894862 197060
1317 954017 732907
1318 845799 212963
1319 755606 621548
1320 643071 408610
1321 709644 452586
1322 306086 664932
1323 44346 282505
1324 149720 490560
1325 403189 946346
1326 51428 481617
1327 962515 293779
1328 199270 430306
1329 208279 439612
1330 999275 895128
1331 378846 161057
1332 26830 725383
1333 596124 231513
1334 748290 543516
1335 41403 637962
1336 337997 915332
1337 884167 838193
1338 877348 255365
1339 690534 743639
1340 782148 514018
1341 788077 504962
1342 432342 836834
1343 376873 733804
1344 170229 228633
1345 136782 614285
1346 464672 212090
1347 580145 5108
1348 70613 794312
1349 568419 467893
1350 787583 788980
1351 591970 406080
1352 708412 889170
1353 158269 546466
1354 49275 125680
1355 916905 465466
1356 260077 979645
1357 302829 384989
1358 430456 166755
1359 580912 21722
1360 654770 801812
1361 663094 280396
1362 755933 252422
1363 45992 931917
1364 206920 994996
1365 679923 330881
1366 206089 564853
1367 826734 316682
1368 253940 808431
1369 202132 47352
1370 406378 210117
1371 152891 148506
1372 573863 334970
1373 951191 184275
1374 456156 327722
1375 959116 138696
1376 587392 573422
1377 787969 456701
1378 582891 27117
1379 579346 391730
1380 635229 349837
1381 344334 1922
1382 719302 706788
1383 312574 111570
1384 405781 967859
1385 433798 246180
1386 710599 253189
1387 62605 516074
1388 214420 89672
1389 492427 299231
1390 669531 18874
1391 352570 815189
1392 359766 330085
1393 986547 204167
1394 845550 119945
1395 4107 142370
1396 402650 234272
1397 613554 160197
1398 499518 899701
1399 85901 57789
1400 120549 861518
