NAME : portgen-200-203
COMMENT : portgen N=200, seed=203
TYPE : TSP
DIMENSION : 200
EDGE_WEIGHT_TYPE : EUC_2D
NODE_COORD_SECTION
1 579482 875007
2 992172 659427
3 238034 785196
4 292176 177758
5 323240 26839
6 347872 198552
7 769934 277331
8 933271 56112
9 78167 679048
10 742424 397609
11 217738 322834
12 515399 332602
13 985154 640776
14 224192 244728
15 591106 963214
16 932314 243921
17 196797 229247
18 521222 361494
19 590706 22701
20 228096 796964
21 591072 979020
22 426120 756071
23 771218 383517
24 609099 271218
25 556762 428743
26 365767 582207
27 944938 68422
28 51269 335560
29 678209 762924
30 138204 876539
31 194489 269475
32 949661 526276
33 435767 368851
34 772432 13862
35 506113 549754
36 447013 806948
37 122285 313681
38 31841 635530
39 377896 446977
40 281332 649594
41 962566 461268
42 106523 714567
43 768724 662839
44 294260 670521
45 793480 152370
46 589062 576844
47 516587 678341
48 349950 784123
49 856735 112439
50 724229 135687
51 5620 162121
52 989885 907168
53 466176 904499
54 475684 230371
55 299697 388430
56 41300 7688
57 969443 985834
58 287476 617645
59 752887 271319
60 176325 651643
61 512116 659993
62 289633 370425
63 544134 284891
64 817063 215116
65 847504 127342
66 159846 147524
67 147279 892902
68 608293 954878
69 491824 120689
70 427090 151079
71 909951 22940
72 494195 141836
73 640254 929069
74 287210 146162
75 134207 65059
76 967060 641618
77 264934 596886
78 975841 858096
79 14842 96982
80 298875 511298
81 412674 354995
82 803281 148618
83 478478 18360
84 513492 827607
85 345579 358406
86 330435 606724
87 137112 111266
88 684583 870497
89 395058 692746
90 394583 686037
91 270049 720080
92 916241 336205
93 714667 804850
94 344243 998661
95 414424 589932
96 441385 664217
97 775109 68683
98 820644 303227
99 885827 382929
100 457253 769757
101 534011 594463
102 751579 448169
103 795009 246980
104 725377 928729
105 882219 170990
106 513852 16180
107 682558 708942
108 69913 748457
109 579885 734597
110 327974 175251
111 132532 130563
112 370353 575822
113 824395 735971
114 855145 688942
115 316257 437603
116 145120 466328
117 810527 223592
118 172185 253868
119 37521 207298
120 266291 966210
121 224965 609646
122 670686 239173
123 457399 310822
124 293863 199287
125 244288 84672
126 448081 196885
127 66672 19650
128 624636 67683
129 783936 527986
130 275984 541140
131 209458 518078
132 662438 916008
133 946025 904206
134 345493 443385
135 251542 759090
136 454593 380597
137 490309 243301
138 727169 935647
139 63890 350703
140 951185 756711
141 952035 327158
142 412958 775116
143 228144 627042
144 803890 894518
145 277567 267979
146 908375 594136
147 955756 507200
148 511617 844368
149 119336 427385
150 512004 521752
151 246931 943160
152 248102 487576
153 132637 120922
154 783926 291555
155 791505 997594
156 263793 889417
157 250419 8004
158 632765 615322
159 562321 155237
160 404391 101656
161 784869 918108
162 931380 729790
163 512159 511433
164 132495 2733
165 110664 606246
166 151720 772334
167 559198 953591
168 492918 62617
169 76739 404953
170 142351 612822
171 64720 648652
172 490127 175910
173 483109 990266
174 662755 225966
175 995041 183
176 711873 116603
177 316721 905757
178 370031 474596
179 383961 294511
180 994658 70019
181 44182 378972
182 149204 178683
183 932874 615140
184 399290 74508
185 524895 642499
186 952566 336355
187 160195 404207
188 389783 668266
189 601387 25623
190 359758 37562
191 127471 837984
192 8074 40644
193 562063 772747
194 623130 380514
195 20716 877777
196 663327 2231
197 880058 499851
198 660255 728364
199 488456 85919
200 786126 814843
