NAME : portgen-200-207
COMMENT : portgen N=200, seed=207
TYPE : TSP
DIMENSION : 200
EDGE_WEIGHT_TYPE : EUC_2D
NODE_COORD_SECTION
1 968745 174511
2 548898 120088
3 447306 538994
4 874640 274082
5 970763 326380
6 255144 827861
7 337379 427169
8 537408 968699
9 709532 701935
10 894841 374394
11 97997 156822
12 362991 738798
13 283406 849876
14 739281 684783
15 588277 988403
16 905938 367420
17 997611 88282
18 644435 976852
19 459818 890295
20 316182 784278
21 441052 112248
22 940328 658855
23 967313 924550
24 662191 31953
25 360336 569516
26 548598 872689
27 88337 251605
28 366063 601325
29 176900 460615
30 475652 470454
31 79176 984345
32 957899 186485
33 885327 142896
34 887532 678523
35 459855 612858
36 306508 677578
37 341598 325325
38 825796 225308
39 68484 111385
40 372735 682081
41 672976 278665
42 209130 117822
43 909227 921592
44 409521 811125
45 202954 501539
46 89320 781294
47 430439 703324
48 477769 763474
49 770650 615003
50 833058 742004
51 856065 550805
52 659217 678255
53 896540 269932
54 663558 970515
55 342378 444470
56 191804 365774
57 257661 974113
58 381134 297881
59 553905 254575
60 708715 121853
61 372246 272528
62 845465 717850
63 756792 755702
64 18360 663343
65 428784 555863
66 561749 97969
67 769007 928264
68 490277 307202
69 21003 235017
70 736688 611346
71 367686 154945
72 102409 81101
73 129293 816791
74 935829 712588
75 946531 722066
76 745113 107306
77 186218 277194
78 180255 758096
79 781798 730953
80 187978 589337
81 248928 428541
82 233826 731032
83 76783 36858
84 263364 176560
85 844820 564342
86 362051 841316
87 308043 986649
88 376740 264939
89 86309 568270
90 537595 998695
91 973904 287407
92 475365 839447
93 306935 133208
94 864142 37975
95 851481 453418
96 43838 844443
97 390196 172345
98 249294 526370
99 846901 115760
100 704361 864353
101 730481 367559
102 174993 947835
103 748161 457705
104 631941 346771
105 970259 47047
106 893953 743822
107 879471 734559
108 545499 404485
109 38344 61480
110 481737 550413
111 189956 147603
112 472199 980466
113 833861 994491
114 666323 360208
115 238487 919034
116 632998 739538
117 598010 490548
118 104741 230082
119 407935 740805
120 293948 902449
121 94863 802662
122 556238 301067
123 263461 896234
124 372244 409730
125 338484 254802
126 860046 486693
127 877273 785326
128 231355 990942
129 769548 684444
130 843093 518079
131 49769 891135
132 52823 67810
133 952183 91291
134 187584 578404
135 471098 649264
136 32240 628613
137 722996 226934
138 690367 703263
139 270330 686872
140 749110 842918
141 224943 981879
142 517114 720407
143 869264 741862
144 686715 530200
145 538364 13450
146 42497 829531
147 269707 644683
148 870208 466249
149 79665 329303
150 610700 560197
151 625904 685371
152 660620 495565
153 29859 878166
154 969578 156865
155 916061 489493
156 304227 239348
157 146079 829643
158 475581 220238
159 621427 408140
160 197601 485934
161 11626 858281
162 967703 910900
163 23360 346869
164 967993 227431
165 197074 812200
166 733684 113464
167 770811 259617
168 538690 985594
169 835799 687471
170 244826 649026
171 120434 278574
172 332599 52430
173 1823 184216
174 861828 358806
175 621323 523339
176 498256 852233
177 132228 798500
178 826512 512440
179 914560 401003
180 956874 44265
181 42367 282107
182 912039 267035
183 369058 25652
184 906748 93649
185 827820 291364
186 358409 262620
187 786816 674261
188 987678 159392
189 726052 169202
190 84387 510920
191 432308 566989
192 270557 152809
193 769832 451577
194 201425 503776
195 890558 513038
196 78845 742150
197 859651 953461
198 290616 857813
199 491758 658338
200 64752 842430
