NAME : portgen-1300-1308
COMMENT : portgen N=1300, seed=1308
TYPE : TSP
DIMENSION : 1300
EDGE_WEIGHT_TYPE : EUC_2D
NODE_COORD_SECTION
1 113528 862934
2 37742 667020
3 799570 771989
4 698051 537309
5 951387 525019
6 732022 545235
7 526672 920051
8 76101 158355
9 492693 751580
10 847795 484515
11 139504 211859
12 412606 294350
13 127276 154897
14 517460 309919
15 309477 921749
16 145908 360479
17 921500 287458
18 808864 854073
19 432829 695666
20 561934 542379
21 398252 33303
22 226290 150235
23 692528 343918
24 275845 674179
25 44016 67455
26 622639 77757
27 59024 672796
28 13101 753049
29 941433 750283
30 858156 945496
31 339159 2385
32 975374 409008
33 126767 698719
34 318945 376437
35 227522 732182
36 882509 818513
37 707564 780339
38 861876 61747
39 152834 739809
40 281249 374227
41 213463 767176
42 451763 363980
43 582590 143523
44 385104 512492
45 160691 110144
46 535128 56391
47 468143 829751
48 659870 579738
49 325738 445950
50 288358 630781
51 191084 536035
52 392930 669788
53 853992 855462
54 625994 695044
55 90206 869578
56 367944 428941
57 589592 748011
58 410367 282767
59 534242 145623
60 749138 547028
61 372981 872994
62 88078 596741
63 541098 346473
64 425583 37775
65 926347 6413
66 435753 457790
67 649603 411670
68 6282 784522
69 177584 703751
70 953613 299822
71 609280 239481
72 763354 613663
73 737163 662134
74 968313 871401
75 288653 313396
76 154155 287962
77 519603 281945
78 195028 733293
79 886432 981259
80 663506 69469
81 677878 922242
82 741431 790384
83 260297 128462
84 665587 975928
85 10848 748233
86 314454 662840
87 856970 435741
88 392872 85018
89 353390 806133
90 401713 807804
91 460041 444324
92 374269 856877
93 328534 513510
94 716359 859218
95 151373 877819
96 118935 201655
97 692903 205379
98 985367 946440
99 382511 327612
100 220790 652145
101 308743 162179
102 469687 480848
103 853355 709831
104 913693 662726
105 953410 681517
106 16934 27213
107 829886 785686
108 950534 476223
109 229338 536051
110 805016 313857
111 745951 337974
112 755137 358702
113 439490 152274
114 193153 376122
115 582386 683041
116 171325 690664
117 852722 720196
118 790870 432827
119 614437 588583
120 906342 852311
121 284172 180307
122 54202 837515
123 131868 780960
124 446517 334200
125 765888 833092
126 753287 6389
127 745226 537748
128 480820 618078
129 309456 749491
130 689977 420528
131 95393 325109
132 756383 101099
133 397345 836627
134 973011 992370
135 653817 169574
136 29705 895137
137 770162 971923
138 560570 739561
139 592748 217388
140 877882 821412
141 842818 443661
142 686144 161858
143 587648 846215
144 934280 751623
145 322851 954242
146 459816 622067
147 934765 736767
148 822606 389034
149 410144 82279
150 276945 392306
151 188211 229128
152 456317 944476
153 990274 309625
154 320245 583368
155 950100 634604
156 683797 557833
157 426639 735735
158 960711 473326
159 390344 19615
160 278492 8310
161 426483 890731
162 715425 261511
163 981362 800576
164 438819 825685
165 981648 250945
166 419316 9380
167 267288 243277
168 137614 284985
169 17021 950408
170 201146 114321
171 455870 914664
172 473130 314540
173 527759 569084
174 906641 673253
175 755405 22029
176 950214 584458
177 100630 26000
178 972989 178831
179 961840 213039
180 806862 705289
181 292603 369836
182 382222 835778
183 178734 769132
184 84702 112099
185 207975 391627
186 566684 717090
187 264210 256463
188 58096 842024
189 790101 689424
190 288521 802531
191 838735 225780
192 18823 276359
193 958341 49480
194 627158 431509
195 64543 368481
196 200283 904922
197 742432 809518
198 547637 738779
199 650454 216667
200 256444 685734
201 778982 217217
202 384731 952873
203 183294 724434
204 565634 824271
205 67658 923509
206 551673 530331
207 148496 438380
208 505006 387680
209 627403 572703
210 288141 439954
211 118678 868034
212 855654 522241
213 612645 349467
214 332359 311336
215 73168 333662
216 276389 965830
217 621766 365012
218 250857 308404
219 77283 580442
220 771353 570660
221 422076 54454
222 143368 624589
223 249803 332248
224 49267 220191
225 196873 198169
226 406420 339117
227 143498 922782
228 409344 813152
229 595450 19719
230 702015 874889
231 647150 985191
232 52917 496998
233 501433 497218
234 386963 523906
235 188577 172757
236 338413 407212
237 375830 89971
238 33533 779561
239 724535 932872
240 112896 799493
241 754016 312639
242 609320 198279
243 686511 291197
244 912912 124768
245 863578 753639
246 921441 553377
247 391865 598595
248 232247 14863
249 678623 53396
250 591055 470242
251 607713 116395
252 107294 397380
253 444153 93781
254 729796 945219
255 236270 118146
256 900239 470682
257 156140 948376
258 953448 93773
259 593326 454322
260 264750 486569
261 818595 333566
262 932850 718334
263 565043 222017
264 299917 978450
265 645818 939752
266 49764 779316
267 696601 994749
268 899253 283333
269 156498 660944
270 244831 592738
271 697871 458590
272 860017 377009
273 935043 587874
274 620526 673531
275 33551 10229
276 714946 700173
277 407578 651303
278 420477 828397
279 419793 112544
280 498126 160819
281 937282 68852
282 700388 643532
283 420275 441648
284 610664 779131
285 13332 365573
286 473246 919794
287 420770 254520
288 771623 118421
289 925988 281546
290 297856 736646
291 802224 187373
292 480324 484998
293 2469 980912
294 78927 53069
295 574474 457604
296 672669 377367
297 647611 879257
298 119491 778076
299 37820 605497
300 605386 816622
301 661886 338979
302 375674 296905
303 208005 527572
304 219849 922579
305 648833 439565
306 749469 366724
307 538069 40521
308 488150 559914
309 421241 821130
310 524041 642198
311 403828 5167
312 173744 196710
313 703686 134267
314 544120 123865
315 46515 244050
316 898572 3408
317 632713 858291
318 987176 435500
319 649303 439802
320 996848 442555
321 559670 257797
322 529028 932276
323 53776 667501
324 203623 450900
325 175571 985224
326 233956 913955
327 558982 361336
328 918049 658478
329 706266 517383
330 309728 772505
331 878269 780046
332 925731 206278
333 879894 491671
334 837695 605792
335 986745 820649
336 356291 970340
337 645558 538816
338 408241 489873
339 446185 812408
340 278661 45208
341 428000 26737
342 814136 274010
343 365780 118525
344 77676 426434
345 978396 495505
346 597804 43510
347 453056 176199
348 86264 589330
349 612238 990211
350 524035 563902
351 221315 391214
352 172238 130363
353 557223 207219
354 99818 284971
355 995555 799523
356 580802 279831
357 538986 814223
358 174700 834758
359 326990 749532
360 120014 290564
361 879432 847484
362 81757 422843
363 599333 965076
364 798101 515195
365 981593 201021
366 390055 161213
367 816853 479137
368 464405 148169
369 487750 999913
370 99309 531021
371 791535 328143
372 306420 687832
373 616072 750320
374 961753 30213
375 576865 121187
376 791228 97043
377 8618 323013
378 173847 60101
379 574361 693100
380 665957 409054
381 719468 99904
382 185662 464533
383 7988 252658
384 973410 851154
385 198150 424380
386 873005 296776
387 172667 998826
388 499336 782389
389 838866 758743
390 248996 539231
391 390715 105001
392 849238 572539
393 481552 290150
394 975551 352319
395 471149 211746
396 174758 636595
397 801762 674929
398 658016 494758
399 155476 307594
400 188495 833682
401 911453 203009
402 781217 37634
403 730471 686227
404 247804 436078
405 841460 883696
406 84550 222041
407 221951 454210
408 234295 82873
409 298141 510733
410 806516 513229
411 97182 665816
412 662659 364468
413 512926 669995
414 515559 135032
415 268355 813109
416 534585 402787
417 917283 365299
418 454680 168674
419 883050 395027
420 338243 398679
421 992008 464817
422 545802 957920
423 114564 508942
424 973936 437294
425 162002 988020
426 979198 20443
427 39239 375386
428 299097 508666
429 285726 415918
430 582953 561797
431 803177 852776
432 97834 442780
433 891688 619732
434 676238 264030
435 339645 725353
436 108936 860847
437 348730 818496
438 534030 76738
439 626577 287272
440 65371 4259
441 384269 99641
442 552079 706557
443 9932 681808
444 304952 474502
445 473611 834947
446 492436 619019
447 55382 612890
448 289743 131161
449 116087 727306
450 423889 37826
451 882365 686664
452 371923 157742
453 603751 879557
454 468364 332681
455 365454 617289
456 203714 811224
457 942306 748005
458 69360 184157
459 797394 484944
460 153037 760526
461 503645 948931
462 840140 301819
463 842987 422272
464 488923 190987
465 214745 654473
466 608373 293895
467 921818 448082
468 800545 573044
469 157334 804073
470 637197 825774
471 884413 820008
472 321464 713084
473 331302 543504
474 778878 753562
475 769902 867471
476 642237 925099
477 512561 769416
478 429453 588469
479 764845 923841
480 357197 30706
481 722222 664291
482 695484 539679
483 732875 383705
484 489759 229222
485 416703 525855
486 405278 43831
487 715041 285565
488 118288 578545
489 436369 70723
490 872366 254518
491 657426 565082
492 833790 184038
493 932250 944082
494 598411 382138
495 715206 416839
496 83284 928112
497 387370 111341
498 420495 840581
499 104966 35898
500 594795 752756
501 107134 708155
502 881196 515383
503 210045 77155
504 91309 328523
505 837166 485370
506 990057 382706
507 208635 940357
508 947421 794109
509 276921 584142
510 119183 892294
511 278739 453860
512 634426 663946
513 418721 697123
514 162635 199657
515 75520 41133
516 487235 107846
517 233557 386995
518 264461 274719
519 356446 893432
520 236616 138140
521 667161 14269
522 262955 822911
523 138100 629424
524 293686 723423
525 692620 723372
526 677946 905308
527 960378 553662
528 265521 999288
529 474598 494201
530 250922 935325
531 720708 197876
532 91906 699026
533 818209 975788
534 119751 385723
535 802256 317997
536 500423 553497
537 891522 395811
538 214348 373430
539 493482 80763
540 398425 419432
541 222525 668433
542 948734 140195
543 320424 289359
544 15940 534530
545 568785 288672
546 154968 970723
547 91176 918619
548 637716 113664
549 122746 867143
550 608563 764670
551 135941 212922
552 324998 273187
553 500847 9512
554 956573 820182
555 233238 976161
556 983347 940067
557 925415 962249
558 780356 749985
559 106700 173287
560 61309 704545
561 853041 252607
562 777159 37586
563 182055 287500
564 228498 618335
565 894964 204835
566 416856 673300
567 847525 422263
568 436085 282457
569 743017 986485
570 359838 570439
571 182659 842652
572 473221 864240
573 435631 902360
574 193564 53589
575 736563 350216
576 885165 504411
577 972179 403728
578 347813 462641
579 365397 902734
580 837102 218389
581 266495 970088
582 460343 662798
583 793502 140694
584 466845 61175
585 526618 877995
586 556421 53111
587 436724 711093
588 819379 348630
589 280428 373431
590 689773 719414
591 922103 325763
592 781232 676574
593 938340 446767
594 212956 184726
595 628761 295390
596 815611 681842
597 459866 481843
598 14018 129547
599 405928 762128
600 44860 87001
601 621932 820133
602 363816 17148
603 428112 559402
604 723178 295605
605 465388 901046
606 249685 180671
607 273973 541711
608 402777 584652
609 510221 978500
610 648780 663954
611 734766 704717
612 16314 439616
613 256063 736288
614 689294 419575
615 282980 259977
616 625451 984823
617 908042 788726
618 469729 741432
619 51789 239521
620 273796 353687
621 936545 234455
622 535945 964806
623 560624 110894
624 665527 20249
625 225779 277730
626 440253 986353
627 479147 784883
628 461550 637109
629 912090 575089
630 547419 686680
631 507612 483657
632 21808 111700
633 964500 15229
634 644725 309167
635 981087 291883
636 919125 489971
637 752720 371050
638 223701 748412
639 225569 231431
640 978066 618953
641 824198 114205
642 872156 596299
643 752365 141793
644 963014 796342
645 824226 454500
646 96706 742622
647 258433 981912
648 434562 446573
649 481735 164894
650 741105 812211
651 885324 434096
652 42182 606826
653 453532 326047
654 114197 882848
655 32518 319756
656 674095 115747
657 750862 92919
658 589974 764990
659 225224 39895
660 677138 517926
661 533493 479830
662 568062 168876
663 406559 485029
664 447788 145894
665 917518 897653
666 634215 342721
667 198913 658310
668 944858 708450
669 363342 779236
670 6325 987374
671 916569 923118
672 119203 306300
673 921006 616875
674 174560 89557
675 575352 949533
676 998784 335840
677 247376 843451
678 177996 542603
679 235182 383872
680 661967 745081
681 962705 334960
682 876523 45143
683 403186 750976
684 996543 444562
685 171912 973098
686 590429 135666
687 464542 727605
688 519141 197652
689 232454 724610
690 990880 863956
691 249846 63916
692 483926 172436
693 934948 299255
694 466197 153770
695 255124 193882
696 711906 918780
697 607323 33226
698 396945 780902
699 458575 391598
700 787158 723353
701 384421 449950
702 98677 711396
703 699686 934868
704 851914 74939
705 908503 878741
706 76405 81412
707 128748 468085
708 33175 43925
709 727636 843296
710 648197 622283
711 292400 604945
712 657403 448559
713 588677 140479
714 36989 753146
715 27918 584273
716 345738 157515
717 816106 112138
718 787551 168434
719 935168 15841
720 139261 891023
721 571618 622900
722 505572 632840
723 901481 106960
724 261376 158764
725 444549 256466
726 743912 705429
727 363679 202885
728 377614 226905
729 633843 986538
730 923845 531252
731 999699 836073
732 935677 17480
733 307122 453504
734 575839 495907
735 566604 926214
736 782548 568872
737 398747 391731
738 878371 586971
739 241265 454517
740 70945 361771
741 506635 50451
742 829300 496666
743 584573 509665
744 221837 798626
745 805016 334046
746 592594 439260
747 449236 213046
748 108474 2746
749 224153 113840
750 754469 314509
751 865695 806858
752 87819 82777
753 749830 693461
754 876128 867013
755 618312 867949
756 5068 835217
757 181521 589799
758 938657 560438
759 386836 722631
760 909005 304375
761 229351 461999
762 741438 252094
763 60518 975689
764 481052 315970
765 641901 184910
766 710842 374251
767 836205 202996
768 356703 671418
769 868930 239501
770 558008 24134
771 122828 499206
772 889620 500640
773 104694 130595
774 697822 197142
775 152527 132784
776 521693 908183
777 471939 569558
778 603666 491443
779 970652 884823
780 726073 78411
781 824530 636626
782 309005 594177
783 745120 505861
784 945596 680881
785 485104 808062
786 862616 189694
787 570103 776220
788 782682 321168
789 990059 171879
790 648427 569075
791 5037 596229
792 589896 563490
793 360379 74216
794 65246 242028
795 457876 850842
796 725822 188048
797 754397 749945
798 161518 933134
799 929103 113399
800 717958 783526
801 140535 525942
802 548714 583452
803 127747 925463
804 318286 908448
805 209179 529450
806 426197 728624
807 426946 875231
808 352589 636482
809 882229 559059
810 432659 811985
811 576758 832196
812 962922 701577
813 667527 336674
814 640979 986650
815 648473 857218
816 2881 81611
817 962700 118976
818 142877 276412
819 169282 714664
820 210901 723897
821 191987 506187
822 809369 645890
823 274083 893625
824 225126 52820
825 82418 824843
826 292155 942452
827 464926 860739
828 780645 58924
829 563241 429738
830 440575 851334
831 756180 603622
832 697547 485282
833 337463 920009
834 919254 781056
835 601147 458963
836 411355 829408
837 476640 607815
838 519829 634305
839 367270 102183
840 920932 608602
841 773432 211241
842 546075 797138
843 101037 399259
844 384063 477417
845 781513 222867
846 357158 388226
847 113516 751937
848 312541 362578
849 29546 201553
850 126061 639778
851 526354 122943
852 131887 473815
853 51410 80914
854 396377 667787
855 759702 381386
856 674860 85823
857 648224 217707
858 494176 367954
859 490105 945610
860 172741 974885
861 890463 717701
862 654995 961369
863 932609 288412
864 697521 2825
865 556405 438915
866 237928 699482
867 342481 539546
868 933741 687609
869 563016 328368
870 302962 733083
871 909153 438453
872 304676 806628
873 332404 639456
874 733231 152147
875 819328 24128
876 665057 26721
877 645147 687146
878 401849 826872
879 780461 592341
880 540073 363801
881 517898 68008
882 364825 26618
883 472232 236407
884 781147 841596
885 885302 854719
886 634722 337958
887 126282 148612
888 309827 863742
889 72553 967848
890 559520 105736
891 507950 105179
892 462751 192604
893 921016 169919
894 334656 315862
895 67313 697333
896 906461 721419
897 443065 448242
898 98361 571195
899 312171 156063
900 496800 468662
901 566903 765382
902 592627 713591
903 516177 559877
904 563969 452543
905 766129 231929
906 492215 464599
907 525028 842739
908 457339 796478
909 624943 916583
910 928257 901037
911 924236 625083
912 344796 416640
913 287816 869339
914 745331 412690
915 632435 749949
916 299772 620010
917 201719 327590
918 613521 43351
919 580150 620011
920 735264 124537
921 544976 418073
922 387605 166276
923 773097 281378
924 376623 26424
925 160425 229021
926 825864 899480
927 523628 746850
928 168889 946892
929 563663 265036
930 100069 472825
931 979727 943958
932 717278 641591
933 686953 74142
934 76994 358751
935 69642 175960
936 419855 598519
937 756157 699236
938 75172 24756
939 101454 597945
940 247751 340923
941 305676 480294
942 312620 159609
943 770222 355814
944 902731 560128
945 640636 539379
946 966357 221399
947 550368 559304
948 704682 946456
949 661915 688368
950 91103 748340
951 179924 778678
952 778673 819501
953 923344 345570
954 586859 364019
955 976627 813075
956 44161 3535
957 624400 560690
958 506468 758327
959 393589 157974
960 936908 740497
961 412226 388625
962 267648 321302
963 996036 641177
964 819846 936655
965 775891 729602
966 437897 737435
967 621317 434675
968 296762 302141
969 855893 751930
970 653140 11894
971 962224 744757
972 623219 900139
973 127153 577731
974 953750 229066
975 563267 63505
976 126610 725259
977 912477 361500
978 310443 442488
979 157360 343997
980 522739 621203
981 489676 834928
982 710878 964732
983 850850 299403
984 380315 724261
985 433537 928736
986 804577 164523
987 594706 873402
988 613886 686966
989 476147 906147
990 10859 553547
991 483816 475849
992 413916 154687
993 239926 602968
994 26556 656585
995 583825 997359
996 921825 131631
997 318393 724403
998 207317 797701
999 150050 749816
1000 286252 440186
1001 101583 47603
1002 218207 9719
1003 579688 650761
1004 311342 757789
1005 121574 707475
1006 415932 500775
1007 760172 525379
1008 699377 358044
1009 516535 986474
1010 757414 53149
1011 149352 630498
1012 438009 993351
1013 827152 756974
1014 946315 584987
1015 293714 963125
1016 375624 718357
1017 784573 303383
1018 137615 983041
1019 715676 888536
1020 455309 881881
1021 86432 40082
1022 899170 530675
1023 848006 291326
1024 693622 325042
1025 897250 450343
1026 851385 565063
1027 456102 323126
1028 64561 383225
1029 263029 914823
1030 872103 596647
1031 935084 422805
1032 302479 239692
1033 621042 375849
1034 601605 229496
1035 677373 408050
1036 664421 191493
1037 89223 307071
1038 201763 584289
1039 174396 114882
1040 928789 443926
1041 493944 31492
1042 712883 697067
1043 28041 952818
1044 415878 544880
1045 682341 761765
1046 381436 486180
1047 211163 47259
1048 217459 894939
1049 950858 592098
1050 328912 263716
1051 116930 578740
1052 396252 453324
1053 956399 819893
1054 852179 759035
1055 295085 111743
1056 967347 718149
1057 232481 110337
1058 215210 448903
1059 211642 255220
1060 22233 726103
1061 424991 9506
1062 900583 413656
1063 291120 85681
1064 795240 635899
1065 350671 381869
1066 732109 415361
1067 819796 817045
1068 476579 775795
1069 799010 602545
1070 481856 579137
1071 741175 160657
1072 522647 956238
1073 336774 371930
1074 585596 797506
1075 756138 131778
1076 99698 314958
1077 241426 947043
1078 531607 701569
1079 758943 579206
1080 976744 180604
1081 20883 249634
1082 277178 715947
1083 370568 806690
1084 195501 276243
1085 773563 843279
1086 863306 414136
1087 499082 890455
1088 626405 110033
1089 768079 953540
1090 882049 589551
1091 326738 216034
1092 659154 170067
1093 360985 482475
1094 138182 103848
1095 446477 669888
1096 580293 522766
1097 828982 638577
1098 715831 327038
1099 661574 632192
1100 329833 226741
1101 603851 632056
1102 915456 166586
1103 805039 883663
1104 655803 71359
1105 586057 49132
1106 563386 655094
1107 132728 306856
1108 600311 498117
1109 420652 638601
1110 116 43529
1111 145115 563309
1112 946410 546822
1113 239428 231250
1114 498679 332495
1115 85415 742741
1116 454229 696719
1117 367483 832917
1118 26164 671643
1119 83305 352298
1120 569756 862868
1121 61823 499581
1122 103732 402948
1123 524772 16983
1124 576355 282159
1125 399148 484580
1126 828359 329079
1127 546776 587092
1128 772511 907131
1129 264573 82539
1130 140421 133395
1131 800358 303505
1132 501603 723188
1133 987308 63805
1134 551362 729780
1135 782083 583327
1136 921761 138492
1137 239452 515535
1138 215169 816036
1139 16532 359318
1140 774310 332296
1141 966676 416139
1142 192073 952019
1143 942382 150723
1144 195116 644294
1145 845608 962359
1146 120281 353525
1147 570214 986428
1148 941107 923331
1149 260129 588196
1150 187779 708736
1151 450 217037
1152 507849 66852
1153 517904 412219
1154 137005 594757
1155 644709 621788
1156 712014 620279
1157 236931 178062
1158 13114 446833
1159 733291 515174
1160 782081 63977
1161 803675 963166
1162 542000 73347
1163 582877 704724
1164 630643 172600
1165 997631 802949
1166 679030 421775
1167 714609 152522
1168 620282 346397
1169 179208 14011
1170 938904 495549
1171 417432 679942
1172 862213 781630
1173 158684 157114
1174 811524 496866
1175 403551 236382
1176 292687 87529
1177 590564 384829
1178 29705 578675
1179 502427 355326
1180 446570 171506
1181 233010 122994
1182 655852 149159
1183 204355 32072
1184 758066 455300
1185 19378 855999
1186 635308 236424
1187 111623 545698
1188 771289 716146
1189 372601 157171
1190 43642 4201
1191 202296 275316
1192 726030 826124
1193 569939 556036
1194 765922 565449
1195 948166 588209
1196 588331 723908
1197 994633 82905
1198 860241 181008
1199 568318 316514
1200 10341 442537
1201 784513 654353
1202 453224 399349
1203 34086 17371
1204 361499 764439
1205 814890 473669
1206 812752 936978
1207 407160 858360
1208 583175 509102
1209 128361 572947
1210 288918 23347
1211 463753 441551
1212 444958 576840
1213 71486 980955
1214 783199 712274
1215 511612 753918
1216 354647 608162
1217 342281 569972
1218 191448 265318
1219 868156 867669
1220 242949 60836
1221 427675 192974
1222 276530 924819
1223 124456 146779
1224 278949 417792
1225 11418 879285
1226 397808 856044
1227 804902 256422
1228 87889 176350
1229 312071 883251
1230 207900 768768
1231 149214 493829
1232 521490 754053
1233 45994 619778
1234 660448 482340
1235 733903 436395
1236 230152 710568
1237 561528 409633
1238 625538 607709
1239 636648 188536
1240 488951 895135
1241 668883 899947
1242 504374 742843
1243 604703 860818
1244 86671 588227
1245 523978 571670
1246 604869 385815
1247 133765 806553
1248 830684 717106
1249 631446 866897
1250 299280 516747
1251 510131 90413
1252 928841 116283
1253 210402 497861
1254 351670 62058
1255 651718 227071
1256 89679 723844
1257 359273 636229
1258 163898 763398
1259 360063 714937
1260 923368 328887
1261 988331 793550
1262 183059 217156
1263 926264 139738
1264 781727 445245
1265 199230 127677
1266 256039 574590
1267 536817 261879
1268 805456 945039
1269 540674 868144
1270 578945 841304
1271 500754 371734
1272 664859 195090
1273 583339 811319
1274 202755 916608
1275 880289 690946
1276 935379 186200
1277 667666 171603
1278 260708 935540
1279 553595 666961
1280 310826 265363
1281 957186 483525
1282 483113 810413
1283 726316 717945
1284 58984 164182
1285 52890 352579
1286 560643 443454
1287 834648 232422
1288 393508 802131
1289 125884 11456
1290 956448 990723
1291 586142 114765
1292 134418 933867
1293 170490 772513
1294 91477 726403
1295 535563 87510
1296 886054 376491
1297 815254 226366
1298 280661 57300
1299 537086 432437
1300 801581 781207
