NAME : portgen-1500-1506
COMMENT : portgen N=1500, seed=1506
TYPE : TSP
DIMENSION : 1500
EDGE_WEIGHT_TYPE : EUC_2D
NODE_COORD_SECTION
1 382072 188373
2 95682 969738
3 658560 585007
4 530054 805355
5 503761 852295
6 142033 696043
7 615210 837027
8 480880 331426
9 745250 384487
10 392467 335382
11 212364 494236
12 868396 901071
13 390751 5391
14 14353 92641
15 169420 168618
16 840290 473672
17 561764 309654
18 407917 314282
19 953861 641591
20 922206 414408
21 472299 128097
22 179623 838058
23 899242 125058
24 903914 830547
25 820917 535749
26 172739 956598
27 157295 740368
28 595402 908400
29 626608 786027
30 561821 344277
31 631145 888463
32 883149 89353
33 379996 13935
34 516419 777152
35 937784 355821
36 427512 914703
37 563569 856717
38 162642 255766
39 336941 128027
40 305668 482351
41 378782 228325
42 530820 825142
43 537472 951826
44 590522 472411
45 929658 393981
46 797862 176709
47 703806 566384
48 986896 557595
49 564528 322905
50 675415 643476
51 788117 775886
52 524878 338566
53 156967 944413
54 425778 332153
55 202895 643576
56 317877 154197
57 856369 167840
58 546415 454436
59 184657 316765
60 102456 822400
61 449407 193514
62 101736 294307
63 567704 651625
64 389825 225003
65 699750 218228
66 829988 4788
67 925132 662092
68 164474 224585
69 371955 362979
70 278727 83036
71 767169 273757
72 369954 107257
73 944573 604348
74 74972 409498
75 998680 335270
76 167770 339524
77 623154 457186
78 813488 783329
79 850753 862786
80 174091 932382
81 572458 62798
82 53425 119859
83 876406 44119
84 784243 749111
85 223267 942066
86 379464 775158
87 318084 767186
88 654629 109882
89 570359 644550
90 480819 784374
91 800872 527039
92 50911 767368
93 645770 767189
94 951362 805273
95 785686 120355
96 440342 622843
97 139711 336660
98 703571 992011
99 955672 602768
100 452628 834690
101 33989 430421
102 928679 214305
103 534398 640731
104 288613 855786
105 811416 46299
106 831966 45480
107 77099 53736
108 492039 949614
109 923086 716764
110 416287 884395
111 88446 181474
112 296483 388576
113 908077 949042
114 846479 103779
115 232787 13898
116 821269 714572
117 833134 434520
118 952408 755391
119 449939 997175
120 275328 696155
121 844102 234597
122 388986 901291
123 31908 258867
124 326359 751135
125 428583 754529
126 145531 851893
127 369980 438729
128 13421 319416
129 597287 494159
130 261897 779006
131 190791 291437
132 580457 115260
133 202196 597369
134 656493 175808
135 21827 233172
136 623254 171951
137 288181 661757
138 738863 236552
139 811494 857754
140 375155 588661
141 351754 352320
142 841882 453780
143 823106 529831
144 134115 717874
145 232323 355039
146 98897 274130
147 975347 42156
148 72901 672150
149 946415 727228
150 162428 795355
151 447373 468605
152 375980 839921
153 402774 793211
154 10011 916199
155 615622 483589
156 185300 879413
157 261836 906858
158 680108 916661
159 316089 538300
160 42358 530045
161 650953 929265
162 13380 226471
163 785799 154649
164 795971 448260
165 258983 945651
166 226541 895294
167 242131 891565
168 403360 472341
169 90484 935024
170 773672 906445
171 213742 595814
172 675515 702277
173 704085 169632
174 260750 748876
175 256357 918252
176 876179 498155
177 468244 216776
178 568813 552078
179 226474 484414
180 436560 930432
181 702727 74986
182 142527 709176
183 269847 589485
184 203898 559558
185 202772 510476
186 655910 567213
187 281943 124106
188 653866 152797
189 461020 796603
190 657657 233720
191 928175 311557
192 11699 328550
193 242923 151555
194 752766 532954
195 621718 813875
196 268443 530925
197 732251 263196
198 250534 646528
199 313870 551408
200 48410 551287
201 708612 464146
202 91218 22637
203 990077 564622
204 486455 139694
205 973853 417258
206 799312 693519
207 862696 622685
208 661989 171802
209 342734 879331
210 458642 623318
211 275615 652489
212 511148 651484
213 801864 191764
214 475995 259306
215 134029 89243
216 666342 321326
217 822750 240399
218 434408 234655
219 448860 389014
220 666561 71120
221 808820 873435
222 74312 998399
223 538260 615953
224 19777 80767
225 461332 58770
226 170533 54564
227 417378 959166
228 884945 387285
229 641395 850819
230 588229 755421
231 115761 97441
232 473132 902732
233 608438 925876
234 619206 864296
235 84425 46035
236 152025 261967
237 417999 399871
238 452785 221050
239 235111 551981
240 766538 414578
241 550368 625175
242 671077 378608
243 973482 568900
244 848193 920018
245 631960 508531
246 615448 584564
247 304588 620526
248 919095 546852
249 455436 674440
250 545613 317209
251 380842 467795
252 314228 46753
253 508401 545357
254 383486 38770
255 985684 316045
256 539091 721377
257 218858 79697
258 139972 531197
259 792852 852606
260 983636 61585
261 470440 944766
262 318683 767216
263 665192 684229
264 947738 371245
265 891470 907427
266 837564 196341
267 566296 450493
268 875486 828991
269 406316 591379
270 238635 442284
271 776047 995587
272 936381 570374
273 38090 670682
274 265880 537372
275 955333 234865
276 599113 84190
277 782969 638186
278 479645 184501
279 901499 863735
280 171267 679409
281 139040 792106
282 800134 543400
283 539997 543503
284 784996 648483
285 41607 469290
286 265316 255480
287 897272 748770
288 462472 386250
289 161796 680496
290 287570 480691
291 782730 84003
292 199978 212061
293 768386 45457
294 396206 22896
295 910495 331982
296 43995 757833
297 549772 769345
298 176967 520567
299 98315 187610
300 107902 651840
301 508886 585383
302 249801 474641
303 452135 515110
304 884211 570908
305 869799 434187
306 788294 878602
307 953239 839284
308 635414 381207
309 242333 30789
310 366432 19430
311 445188 597385
312 540581 389766
313 960403 679932
314 5678 422630
315 296635 947362
316 502038 590887
317 810697 853383
318 692396 904127
319 130763 360693
320 576646 387179
321 803123 365417
322 656464 891065
323 886793 446609
324 217251 160006
325 808941 497035
326 514889 675684
327 890975 160540
328 149802 917998
329 774686 396418
330 782244 548008
331 384346 523518
332 994262 482620
333 631064 422876
334 222138 62174
335 952490 188804
336 163955 82327
337 221847 869396
338 504541 769504
339 706410 380040
340 239964 42404
341 905246 609259
342 640385 748626
343 563016 978520
344 596624 328077
345 222318 269520
346 681988 68589
347 408202 387841
348 223223 720795
349 143570 787067
350 386524 117289
351 740199 837211
352 920041 766536
353 591788 905629
354 35298 142348
355 597524 171281
356 321373 446608
357 174100 512724
358 866019 315756
359 115315 606420
360 259396 910268
361 279306 435071
362 675650 835201
363 448605 326744
364 162286 455311
365 277608 598911
366 734205 564061
367 782515 68682
368 721030 458638
369 435159 127661
370 882606 247259
371 863204 990204
372 68681 312050
373 990213 246916
374 392939 573001
375 939235 896479
376 558509 688259
377 509459 787612
378 383083 176137
379 54695 851358
380 45505 133150
381 470469 907637
382 259741 350265
383 308076 331169
384 377927 862049
385 522511 619103
386 922816 542313
387 667184 362917
388 351758 591047
389 925612 888037
390 452118 272467
391 272048 310927
392 409805 144457
393 128441 826568
394 304319 432250
395 760605 389861
396 80710 573109
397 605150 263503
398 324442 320891
399 323019 705763
400 960291 399166
401 321304 504902
402 120883 666768
403 624430 247582
404 278453 365001
405 659171 556514
406 871817 622445
407 90753 655644
408 52440 897360
409 302487 996238
410 25822 987185
411 8150 672164
412 901758 123344
413 297799 417914
414 421430 416
415 738487 104176
416 312593 560611
417 228866 895603
418 400649 649603
419 220174 754160
420 92017 231081
421 524081 308081
422 406428 773420
423 381710 408546
424 671351 481805
425 965704 906528
426 899460 322602
427 967276 856115
428 86572 760693
429 276036 225279
430 266118 974826
431 27408 524293
432 272984 428089
433 32433 563736
434 216016 317333
435 273933 643893
436 226008 820681
437 30533 119294
438 87725 685547
439 704887 45643
440 36771 537106
441 141878 196151
442 734298 763660
443 76767 788300
444 287626 800776
445 863169 836913
446 433586 902841
447 480227 448124
448 5072 703399
449 277548 287134
450 685694 696163
451 703658 625708
452 445033 428598
453 764649 703308
454 588304 203615
455 779347 298272
456 473066 475260
457 362109 429204
458 541240 124567
459 44065 824860
460 423017 329034
461 286188 928882
462 631638 577770
463 940234 600300
464 375648 601935
465 354644 384416
466 97243 501271
467 266295 738499
468 64039 666618
469 834041 305094
470 222420 952199
471 744234 462766
472 377758 534135
473 550725 504703
474 271202 902456
475 507889 404771
476 327750 675613
477 932489 301278
478 598919 202386
479 359412 706534
480 364558 98031
481 869267 283210
482 981195 827147
483 554037 10299
484 97501 827974
485 878479 36536
486 853364 141609
487 316970 18246
488 1283 610575
489 996393 330360
490 978850 737847
491 240888 669114
492 237376 256612
493 515149 814033
494 520076 439147
495 184461 53740
496 569116 6067
497 426615 185883
498 98835 602625
499 145796 359512
500 532851 940150
501 508310 940842
502 923605 770041
503 163883 658636
504 438236 675876
505 786128 784886
506 682310 920265
507 522072 310817
508 528915 863199
509 856595 795312
510 728312 951412
511 864503 737989
512 295122 938328
513 528225 912522
514 218003 546928
515 854362 342647
516 172338 320516
517 544231 193964
518 55536 320622
519 147041 926558
520 727697 651949
521 957438 724764
522 710834 233049
523 189237 831127
524 710944 488286
525 657658 186312
526 384621 598867
527 505149 190204
528 767811 187794
529 396610 729641
530 714504 843260
531 511594 511677
532 948179 134179
533 827447 957546
534 209430 289023
535 121580 697787
536 152255 368308
537 137653 542000
538 566790 265635
539 232839 104918
540 170517 340430
541 515912 488362
542 832423 11101
543 831052 660660
544 372336 410052
545 366516 97990
546 111191 858018
547 804978 29909
548 499694 589129
549 587110 168834
550 666258 923602
551 598288 606026
552 317768 317227
553 670400 896259
554 766443 494047
555 359152 107150
556 815457 986557
557 363124 616514
558 732068 653576
559 706699 918269
560 634484 238318
561 370436 40596
562 622764 197977
563 99499 546228
564 50540 820426
565 871600 670530
566 499192 738791
567 745765 63366
568 524973 529354
569 125237 215909
570 279033 177476
571 953961 454066
572 775567 128198
573 727553 70595
574 235253 607000
575 930410 953466
576 538589 766683
577 297233 995727
578 424410 859496
579 860260 254402
580 792254 141045
581 771022 550534
582 215014 181676
583 153188 361390
584 210990 234926
585 888960 661473
586 418322 99698
587 987859 681018
588 699729 603752
589 743363 627036
590 773567 240003
591 685967 796138
592 28172 730554
593 899508 948657
594 523776 564089
595 910177 163582
596 318364 890310
597 326948 617559
598 759153 854263
599 466207 94549
600 428469 123800
601 327232 608217
602 833432 690407
603 267498 742451
604 738511 566678
605 96219 475752
606 335719 296170
607 344224 628671
608 822681 880711
609 223585 597454
610 422522 298925
611 895183 116441
612 806457 765160
613 334241 810104
614 266265 297452
615 413520 957277
616 865241 176684
617 530817 297815
618 904283 389796
619 451913 399500
620 907873 18796
621 725072 926322
622 141567 611252
623 268398 201923
624 83853 561788
625 283318 949048
626 587998 168754
627 681028 471191
628 258558 150548
629 77400 535617
630 786123 877701
631 290537 339010
632 658805 77422
633 750679 409397
634 154603 732971
635 360273 620758
636 796857 661797
637 314136 473473
638 710927 726428
639 435412 335265
640 506601 183693
641 732704 730648
642 511328 535818
643 666740 526231
644 517879 453394
645 547135 494885
646 235193 718942
647 39226 287115
648 221939 63274
649 612185 668094
650 900325 541969
651 766510 748587
652 55186 99625
653 216344 857350
654 657425 145209
655 804451 732327
656 632668 624005
657 988481 291238
658 642507 571595
659 299783 371689
660 855483 687405
661 797211 486509
662 832646 818303
663 854247 48269
664 606611 214510
665 257129 853577
666 69003 290202
667 530814 774273
668 551024 108698
669 742166 220090
670 893310 95145
671 226447 146189
672 597910 859730
673 697673 748684
674 886295 220922
675 432868 173669
676 456663 397675
677 410964 46747
678 472966 476308
679 217772 280912
680 548601 107645
681 115183 437335
682 251899 709305
683 505879 486479
684 26094 128751
685 593564 893823
686 685299 78860
687 938821 681814
688 230742 399536
689 75544 785898
690 345337 377938
691 830496 325698
692 665909 149483
693 738393 631667
694 38303 821508
695 268393 64544
696 82603 613415
697 626526 999487
698 409845 147586
699 207368 916096
700 628987 298137
701 673139 100396
702 875585 54929
703 343172 130965
704 731766 261480
705 308354 841298
706 438004 396263
707 12518 484056
708 25041 501767
709 810808 252411
710 299460 358292
711 279110 109998
712 499763 295426
713 220683 584903
714 203275 883891
715 338641 99777
716 667769 814063
717 477544 504039
718 939934 434233
719 313179 181852
720 124442 236626
721 820859 785891
722 522048 910100
723 785434 972605
724 113652 331099
725 778803 824942
726 944311 323477
727 577454 529210
728 630367 859076
729 622852 371546
730 114995 908939
731 817785 549913
732 137038 71727
733 20439 652113
734 874215 102417
735 698621 52435
736 388114 479709
737 473608 474518
738 413981 955633
739 532543 970552
740 665059 361607
741 962051 831729
742 768895 429702
743 281991 117856
744 677024 405816
745 483599 287820
746 560017 210761
747 483230 72006
748 848511 341149
749 312283 47529
750 496119 829801
751 440062 143100
752 666040 417196
753 862890 112582
754 554581 147752
755 247219 512511
756 182051 217035
757 887946 827174
758 348921 607024
759 66683 65032
760 223216 679289
761 339829 826685
762 606298 868820
763 612373 245014
764 813669 56412
765 611627 301398
766 401051 384790
767 723332 152547
768 179555 745015
769 943782 941721
770 80780 674966
771 51172 611992
772 182600 804309
773 947990 733331
774 604462 614409
775 459632 603496
776 527480 255870
777 435902 194720
778 428749 55271
779 419767 513492
780 237640 117875
781 168799 612860
782 66971 572253
783 461338 570059
784 34434 83636
785 879183 615590
786 2561 452273
787 605399 619719
788 151809 83959
789 390783 411577
790 440071 557101
791 825246 300177
792 818772 493752
793 132599 788191
794 317819 151079
795 691209 609496
796 710580 860146
797 62537 465190
798 672404 598899
799 6592 562880
800 652500 864031
801 342547 192885
802 174338 902531
803 778249 227302
804 437098 942149
805 62121 640557
806 737452 268688
807 822282 628143
808 407294 308653
809 550322 601781
810 899848 862439
811 563466 471554
812 431136 15152
813 273042 809676
814 277935 702867
815 841469 924506
816 646860 448634
817 349455 799513
818 819648 556558
819 477894 190628
820 86458 823945
821 237868 716038
822 251231 828770
823 46029 239026
824 429009 47385
825 192148 862728
826 320964 303724
827 721410 727993
828 217171 893913
829 843429 374824
830 82882 221691
831 749408 246470
832 855691 238176
833 402689 21414
834 17456 993512
835 582114 168267
836 879643 502937
837 409632 37119
838 541475 259741
839 750143 703143
840 797980 379128
841 966246 903110
842 619985 619778
843 175098 400390
844 592942 111279
845 396824 798234
846 539102 484381
847 608514 918190
848 944301 734930
849 306405 214111
850 287294 786287
851 488882 725866
852 249404 813019
853 896482 417853
854 683739 101631
855 552894 816780
856 300971 732150
857 978000 284648
858 682589 265026
859 637955 937500
860 293874 667758
861 715009 803344
862 706217 795826
863 679384 153777
864 253533 596613
865 140637 123621
866 576002 648511
867 150248 981200
868 78157 234096
869 925110 335336
870 937189 910072
871 762434 655442
872 817404 729066
873 83224 735757
874 778163 812688
875 238805 790523
876 481397 709792
877 73474 163673
878 210285 840370
879 575617 268204
880 734862 662386
881 492743 348402
882 164442 642822
883 54346 645528
884 914745 248933
885 201423 946831
886 486862 825267
887 698694 503350
888 186360 5217
889 729870 542544
890 585540 839014
891 578160 985329
892 861750 478251
893 630878 227599
894 484069 507426
895 926853 432628
896 319350 676176
897 133912 990357
898 423209 937166
899 956747 314054
900 542705 78007
901 5886 235619
902 227147 399791
903 212363 496067
904 848041 595223
905 532795 982686
906 356301 68190
907 341350 302234
908 343035 816566
909 214489 174084
910 219613 117180
911 688780 600691
912 706228 123416
913 940945 251243
914 598120 298902
915 290987 690293
916 157175 134646
917 9748 602854
918 482712 509969
919 643979 559515
920 135215 814311
921 13109 309985
922 287813 809673
923 743847 718659
924 969948 10496
925 49412 171966
926 339046 657845
927 23067 852412
928 920831 871239
929 225870 624293
930 917078 702393
931 852088 288525
932 460008 718484
933 969576 46315
934 780377 531676
935 558386 624376
936 846618 203993
937 124671 47646
938 778133 30935
939 577624 853816
940 202584 69705
941 25372 973826
942 381823 588593
943 838204 868649
944 674638 291264
945 633277 436397
946 729592 112302
947 1129 510839
948 967692 809115
949 185313 240166
950 31540 712912
951 141035 116132
952 807911 979707
953 146593 365219
954 276021 434473
955 14207 52181
956 196601 934606
957 991016 480681
958 972800 739786
959 287396 949169
960 750791 160460
961 861001 540210
962 500136 845474
963 483340 730486
964 396081 144964
965 901053 412913
966 754914 143150
967 839608 150402
968 873103 90766
969 982810 901142
970 615792 98418
971 581253 725469
972 540473 472816
973 575395 189382
974 612165 155654
975 27498 237206
976 413034 40349
977 339113 618626
978 957997 997884
979 276523 657508
980 106603 55827
981 382409 374878
982 818681 915789
983 470928 471131
984 394132 518199
985 905285 783418
986 127620 131741
987 921670 513584
988 747426 820652
989 201097 881510
990 887476 485456
991 453963 738573
992 38360 845226
993 30504 380035
994 324469 923819
995 679474 401972
996 696633 464610
997 995856 832373
998 970797 449511
999 803798 26888
1000 725389 754743
1001 988284 730655
1002 268178 542042
1003 783243 674461
1004 1988 493887
1005 588121 577962
1006 673415 352703
1007 978034 704631
1008 359193 917799
1009 379022 986307
1010 944991 21416
1011 667333 367244
1012 792810 150541
1013 795134 396965
1014 863563 379628
1015 730341 72965
1016 818663 707210
1017 293388 309513
1018 812040 101259
1019 760538 333729
1020 486032 112705
1021 1013 338162
1022 978828 658057
1023 734638 329388
1024 671800 845314
1025 37239 573832
1026 585948 424169
1027 296546 652423
1028 936080 281074
1029 437266 958664
1030 730001 681983
1031 913922 668259
1032 7854 475416
1033 576949 335253
1034 373875 319977
1035 969992 29804
1036 245998 533707
1037 949067 371159
1038 435468 243163
1039 70698 140386
1040 214461 514059
1041 959699 904899
1042 649627 48357
1043 159043 150403
1044 699355 817972
1045 732564 476787
1046 727383 440561
1047 363736 456227
1048 866706 467305
1049 389094 607668
1050 222588 491475
1051 258690 531414
1052 630853 523180
1053 614133 681049
1054 774542 248188
1055 493380 785677
1056 581719 619294
1057 226099 253214
1058 954600 473361
1059 304523 551627
1060 608710 109643
1061 946158 766206
1062 97388 478517
1063 771113 714584
1064 902853 425887
1065 757025 754418
1066 468620 822509
1067 647005 428783
1068 932340 340404
1069 678799 396413
1070 93757 685681
1071 845879 147728
1072 209261 622920
1073 530628 961176
1074 343172 885219
1075 685113 152121
1076 564452 963206
1077 850643 468169
1078 22854 436181
1079 884408 202069
1080 590839 273728
1081 2250 378129
1082 154431 807699
1083 939797 433991
1084 410032 603179
1085 722585 993423
1086 130188 419304
1087 866513 456588
1088 545191 982952
1089 915563 629218
1090 455662 334932
1091 830175 700783
1092 835047 483297
1093 752168 90491
1094 668077 839306
1095 488986 498349
1096 930372 75619
1097 673827 100333
1098 555493 426575
1099 281214 752673
1100 77729 547676
1101 45613 713954
1102 429556 350181
1103 321945 863668
1104 128159 367345
1105 716001 932362
1106 768104 45102
1107 713083 92490
1108 343356 926630
1109 704301 54098
1110 252205 513221
1111 152776 657358
1112 525450 174909
1113 947810 416233
1114 989747 516332
1115 134642 681522
1116 854792 548218
1117 913216 523299
1118 566827 785073
1119 987699 742557
1120 139940 825537
1121 386190 613979
1122 587100 975764
1123 345572 273013
1124 550169 498917
1125 152522 139259
1126 436828 764882
1127 618031 396206
1128 692883 497394
1129 800737 906256
1130 783353 536872
1131 875968 385602
1132 227404 890463
1133 546172 154124
1134 458002 737318
1135 746917 70343
1136 376461 205383
1137 901575 112946
1138 76393 387894
1139 39327 129243
1140 482025 450415
1141 615495 83491
1142 732978 597770
1143 805553 469190
1144 320813 22753
1145 977127 412703
1146 327071 250381
1147 995639 69597
1148 449076 180806
1149 712404 474154
1150 899371 957678
1151 233685 420925
1152 16892 702107
1153 523763 353336
1154 31903 20260
1155 590653 223693
1156 176581 777984
1157 929129 370650
1158 209801 625587
1159 389962 157806
1160 441387 365366
1161 441720 983848
1162 837947 789239
1163 836657 955535
1164 188491 199467
1165 589182 723056
1166 355991 19067
1167 538590 258332
1168 273833 837511
1169 154361 362328
1170 387968 179965
1171 79227 163006
1172 581365 611760
1173 970982 343223
1174 412433 206399
1175 232940 493540
1176 992314 512936
1177 884971 176314
1178 601686 214618
1179 882335 758559
1180 428273 686252
1181 198975 669574
1182 632292 410687
1183 144465 13575
1184 196618 317368
1185 399667 866578
1186 213154 183562
1187 924866 947846
1188 373051 928783
1189 98876 661633
1190 187552 622039
1191 73200 429932
1192 771194 902930
1193 524081 686416
1194 386775 127903
1195 113867 260258
1196 640892 836993
1197 962660 521390
1198 966811 895664
1199 238139 633518
1200 238708 42199
1201 244346 750799
1202 18847 610900
1203 420340 562382
1204 741742 982041
1205 652232 915270
1206 827843 754432
1207 644692 168014
1208 45360 361982
1209 706914 110901
1210 443875 248800
1211 775435 563100
1212 78659 357468
1213 622231 462354
1214 164715 313966
1215 527506 810669
1216 187041 116835
1217 9401 272282
1218 794196 318768
1219 785239 603179
1220 857570 162099
1221 979502 275873
1222 684027 865066
1223 484823 77792
1224 758333 605192
1225 899159 504456
1226 730949 924173
1227 106012 428039
1228 855157 127511
1229 741398 746565
1230 816704 101572
1231 777142 138562
1232 124471 490132
1233 935768 551969
1234 70404 779625
1235 683191 967567
1236 603649 101721
1237 211742 939418
1238 517851 851262
1239 457087 650620
1240 502310 494720
1241 720956 418150
1242 497262 425934
1243 33526 48479
1244 992364 519268
1245 336513 242226
1246 248363 5614
1247 919988 890002
1248 558450 877780
1249 64131 744608
1250 347215 633560
1251 620704 107712
1252 102881 404438
1253 783500 312799
1254 426911 680077
1255 394512 806678
1256 135146 222130
1257 410051 574477
1258 853209 771528
1259 218573 234468
1260 931682 57987
1261 487837 325796
1262 432410 49630
1263 346863 495936
1264 998840 807303
1265 155918 205052
1266 424351 777010
1267 256108 695632
1268 359573 498825
1269 8099 922784
1270 572725 261998
1271 829905 757895
1272 587586 278526
1273 754388 922566
1274 573203 870357
1275 543139 62514
1276 878940 256827
1277 588690 142163
1278 209209 843694
1279 851604 407248
1280 44864 284675
1281 304699 504126
1282 107352 132514
1283 976772 377251
1284 634543 131525
1285 820088 930642
1286 198324 348216
1287 691329 869168
1288 179047 231010
1289 737106 290246
1290 840421 503168
1291 644332 591591
1292 762439 871243
1293 900352 920224
1294 669658 123593
1295 718860 982322
1296 864281 876574
1297 102695 642082
1298 63673 481689
1299 66565 718418
1300 99478 523378
1301 185460 282956
1302 29936 39970
1303 418181 287348
1304 494388 717447
1305 241811 288985
1306 174036 728010
1307 688388 62542
1308 420393 428125
1309 401431 465269
1310 68841 495083
1311 310685 916125
1312 32046 296710
1313 745182 915367
1314 318280 651358
1315 450986 891699
1316 736622 19658
1317 48435 551436
1318 329132 916321
1319 903203 699897
1320 450849 472226
1321 518792 204388
1322 54752 223777
1323 671636 948156
1324 844527 805985
1325 896900 148305
1326 163409 415207
1327 267431 207779
1328 786756 165801
1329 234521 478500
1330 710838 501859
1331 384145 794490
1332 266597 769585
1333 770192 969647
1334 673258 464610
1335 390905 472236
1336 583598 595446
1337 568368 920536
1338 331673 895478
1339 648693 824267
1340 509953 579380
1341 680846 839780
1342 940520 949126
1343 507554 942131
1344 753061 278850
1345 781243 359484
1346 243063 438592
1347 308991 978612
1348 888627 923346
1349 636020 134216
1350 892103 776158
1351 299462 20260
1352 296031 317519
1353 467458 323629
1354 474686 318305
1355 700225 844625
1356 412739 955671
1357 697256 351353
1358 258796 945552
1359 485499 287984
1360 880957 846845
1361 333627 539042
1362 572507 614747
1363 172774 563338
1364 299414 250848
1365 453077 8044
1366 420792 330388
1367 124042 665328
1368 166641 725175
1369 142523 589167
1370 690329 562001
1371 456632 465076
1372 397893 934398
1373 25857 704020
1374 866084 694244
1375 805838 325289
1376 623932 385171
1377 681138 884059
1378 355365 969073
1379 896217 630702
1380 150878 742283
1381 181105 885518
1382 627975 138223
1383 387993 947662
1384 557778 762857
1385 325495 554775
1386 79467 791254
1387 482146 555667
1388 222913 948455
1389 857903 688448
1390 259381 203700
1391 667120 668712
1392 99969 710793
1393 826938 535273
1394 702413 985818
1395 277335 218978
1396 167397 379666
1397 263672 135554
1398 482533 665377
1399 982930 842225
1400 711485 77402
1401 846117 177636
1402 434862 602137
1403 658168 955219
1404 285201 970344
1405 57120 820092
1406 266660 910399
1407 353367 931900
1408 574886 801439
1409 621846 492421
1410 655689 722615
1411 964732 715552
1412 51372 248092
1413 708658 901830
1414 356391 880008
1415 897499 267693
1416 663253 887558
1417 631328 439289
1418 937039 756721
1419 315344 168069
1420 135907 25499
1421 913427 209991
1422 330128 554719
1423 254245 451844
1424 328293 15579
1425 426896 580702
1426 308985 102922
1427 944725 443791
1428 414149 958558
1429 546308 995573
1430 665098 901447
1431 639875 117132
1432 834437 31620
1433 906665 56668
1434 580270 798647
1435 677654 123042
1436 473146 606267
1437 65524 74986
1438 413630 861810
1439 770827 607580
1440 833943 750099
1441 355522 360818
1442 214910 996051
1443 627818 546120
1444 53121 599707
1445 532624 880370
1446 176450 516696
1447 490414 12865
1448 552353 307159
1449 144467 255141
1450 141089 392435
1451 681017 720712
1452 181635 676796
1453 225180 948167
1454 888011 948674
1455 815973 868028
1456 905436 946600
1457 462949 784727
1458 724997 123178
1459 626718 821572
1460 479267 599505
1461 912201 325129
1462 657558 285219
1463 442025 752433
1464 424631 388728
1465 849806 465462
1466 973798 822152
1467 791607 965915
1468 844662 408921
1469 897869 430182
1470 271053 504639
1471 919402 231549
1472 120440 933118
1473 968168 851320
1474 859138 205195
1475 570839 799919
1476 882528 755738
1477 405335 675626
1478 418637 858864
1479 929105 215720
1480 832133 816258
1481 50297 457829
1482 677620 311333
1483 948626 673887
1484 826160 529830
1485 816558 873676
1486 264039 421523
1487 250732 679347
1488 716977 156463
1489 919794 981931
1490 866581 583160
1491 823328 208911
1492 556595 33547
1493 415164 515968
1494 144531 480273
1495 17289 170775
1496 582761 368039
1497 613623 397376
1498 240600 497879
1499 980816 441093
1500 216141 811705
