NAME : portgen-200-210
COMMENT : portgen N=200, seed=210
TYPE : TSP
DIMENSION : 200
EDGE_WEIGHT_TYPE : EUC_2D
NODE_COORD_SECTION
1 260693 149139
2 716442 715583
3 854261 354343
4 811489 596325
5 706405 801036
6 185599 799843
7 762963 289547
8 740511 653140
9 183055 969100
10 9155 856983
11 8192 282312
12 248685 293445
13 757095 256702
14 125597 514824
15 86155 7295
16 386155 460044
17 98221 982557
18 486845 938370
19 361652 540991
20 382247 524763
21 78538 962169
22 575985 335943
23 364385 830325
24 702010 352504
25 463016 925097
26 935720 840550
27 695887 388993
28 602158 800648
29 50917 733884
30 228738 915890
31 992691 270498
32 214077 181642
33 722497 223429
34 223857 427019
35 925162 910186
36 951129 830551
37 506083 84058
38 921262 167642
39 586425 859692
40 691287 956447
41 205784 391712
42 286085 170264
43 14604 115657
44 245966 916579
45 260060 263415
46 714512 934633
47 615828 472061
48 573633 247987
49 456086 491927
50 414680 196742
51 243899 842318
52 661217 506569
53 719312 544007
54 554464 525622
55 374388 486500
56 554682 134338
57 473824 965322
58 201377 58058
59 654669 742016
60 608008 474510
61 767343 731930
62 12338 728420
63 666286 108811
64 169334 999513
65 364745 377255
66 613177 60802
67 485303 204786
68 401764 71445
69 917888 320762
70 968887 956546
71 460988 503949
72 308570 785549
73 496072 982582
74 922294 887408
75 805774 464822
76 78652 456572
77 127181 37425
78 583565 183097
79 357015 456430
80 104805 647866
81 626119 233701
82 556735 417842
83 25512 50732
84 825768 688275
85 469250 218795
86 135763 767261
87 936242 143186
88 395857 310770
89 604748 974912
90 144854 483189
91 751796 712903
92 894708 716879
93 751135 379475
94 504067 67461
95 179273 351032
96 245677 229613
97 851512 750092
98 820782 693727
99 567707 165384
100 389691 185301
101 377833 947381
102 742553 322584
103 713026 365749
104 561864 410302
105 286290 204089
106 679030 289553
107 277156 753772
108 402188 396506
109 382189 806643
110 597059 331785
111 483025 660383
112 298583 283949
113 840961 188382
114 24707 613657
115 430160 30108
116 748906 194446
117 688622 940765
118 804159 462242
119 435746 140935
120 314690 354629
121 997286 697423
122 470401 847488
123 868007 585293
124 931029 567563
125 909130 632400
126 669019 954049
127 735224 359583
128 436395 183387
129 258758 801787
130 518425 250783
131 930003 420928
132 95612 931660
133 206802 981606
134 819152 429668
135 885765 816894
136 465476 814626
137 897512 964659
138 662765 528975
139 925159 938999
140 847553 657574
141 929623 222919
142 95232 179376
143 100105 327978
144 98833 756961
145 733962 822552
146 643090 6078
147 255170 497795
148 889152 182660
149 799911 505742
150 184723 339031
151 660134 992030
152 720009 251556
153 702776 446100
154 858817 555847
155 259478 108417
156 84553 501796
157 67824 695872
158 607693 923924
159 165757 597817
160 42508 24142
161 181694 313410
162 244945 546733
163 156760 473446
164 94616 645955
165 261883 216665
166 670157 369311
167 679520 739136
168 573020 427827
169 155094 399359
170 571682 176180
171 162220 501016
172 714453 709820
173 640858 329679
174 761133 708437
175 341034 415706
176 88043 153956
177 243858 968057
178 668873 290822
179 312509 980872
180 678536 274949
181 291005 459458
182 984165 83298
183 946196 583536
184 787342 358004
185 55014 278013
186 162791 457319
187 256782 626801
188 936098 27737
189 69551 276887
190 877859 865938
191 160936 113743
192 967418 986934
193 925659 210699
194 385146 596222
195 792940 989483
196 640484 797090
197 344345 293668
198 13388 704900
199 244234 87652
200 773721 613120
