NAME : portgen-1400-1404
COMMENT : portgen N=1400, seed=1404
TYPE : TSP
DIMENSION : 1400
EDGE_WEIGHT_TYPE : EUC_2D
NODE_COORD_SECTION
1 455853 51025
2 399167 722884
3 822110 863149
4 677204 849089
5 491932 714002
6 506573 648657
7 145357 516160
8 575388 60450
9 645448 300868
10 505818 927359
11 265739 227557
12 754807 43063
13 285325 173318
14 879590 871239
15 241570 526292
16 512881 324451
17 141022 904280
18 765980 622659
19 291511 517932
20 676005 237908
21 797790 230779
22 567300 817058
23 398814 328713
24 550060 931812
25 329786 446022
26 10566 49316
27 500610 69195
28 568156 131401
29 910003 494887
30 956903 199450
31 571637 159271
32 173083 254023
33 916211 275794
34 81357 328299
35 117346 246674
36 510389 713636
37 971082 59795
38 916793 216422
39 726946 685612
40 474907 153923
41 263315 384703
42 914336 42119
43 954654 353609
44 151368 886998
45 988069 490186
46 541302 963212
47 400586 429331
48 727519 84154
49 259697 507504
50 900265 182391
51 601766 864448
52 456905 175862
53 182707 625863
54 134980 458490
55 114540 214547
56 980033 23004
57 506817 466716
58 658148 608425
59 758685 743752
60 526504 832057
61 16097 573852
62 428034 934955
63 644907 645941
64 256731 795219
65 877088 290930
66 81442 268455
67 571072 260360
68 173890 240310
69 877885 447619
70 383971 346229
71 594924 407615
72 360493 156012
73 474089 967450
74 535178 465630
75 784423 81577
76 827423 464477
77 630416 609335
78 100948 333311
79 293376 196545
80 1971 942396
81 747977 687360
82 74519 768311
83 619622 572417
84 662511 350805
85 992627 690698
86 73247 293055
87 959328 444926
88 4633 551619
89 943436 818699
90 834007 311596
91 352565 60186
92 793247 934691
93 542952 394082
94 193936 802760
95 640737 601473
96 577799 527080
97 454992 693273
98 272981 301868
99 448286 915566
100 151378 922470
101 24013 716478
102 631623 472827
103 729012 767237
104 671230 695725
105 66382 706866
106 139374 490615
107 555808 400498
108 364597 220897
109 232368 381246
110 495329 317754
111 124130 746944
112 199426 70156
113 666684 356768
114 661432 486501
115 715914 237396
116 880389 247711
117 752316 127141
118 172221 861949
119 504377 392749
120 570093 322054
121 161714 812690
122 307431 322982
123 477342 830854
124 327653 384835
125 26589 916213
126 640436 961785
127 199652 913981
128 42081 776302
129 964162 504481
130 300605 867063
131 262859 278480
132 125631 744328
133 545151 326684
134 183184 232825
135 923155 533743
136 893244 847532
137 354656 579115
138 677318 162345
139 547291 285444
140 28075 890381
141 392605 156950
142 185896 848850
143 974537 601908
144 122079 7987
145 581989 845537
146 678764 271552
147 469593 36350
148 428809 314181
149 458033 728315
150 645664 314996
151 283562 42208
152 356760 136207
153 523607 483485
154 775889 350801
155 939444 440173
156 654223 956174
157 922492 455067
158 188298 991306
159 808887 89281
160 315518 230970
161 868650 454869
162 587161 608158
163 250180 851035
164 490772 218449
165 55508 193832
166 386456 196490
167 346000 587902
168 236158 436430
169 234458 730828
170 660552 983230
171 793020 32798
172 692468 351019
173 976887 223895
174 684391 861434
175 786169 577773
176 823409 239584
177 672807 451831
178 928540 87072
179 696208 768857
180 900049 87177
181 249027 45060
182 690248 956214
183 647152 621425
184 263706 571473
185 478180 964402
186 306915 947453
187 303111 737744
188 407560 629066
189 782062 135329
190 679618 163107
191 154827 721914
192 318399 968330
193 944805 341395
194 506241 389785
195 940749 614733
196 172724 662984
197 252648 696149
198 676314 845567
199 729686 954723
200 943458 347820
201 441833 549061
202 181816 623062
203 422946 101495
204 921184 704476
205 507025 587145
206 580831 306422
207 828108 285316
208 914452 586042
209 792412 994099
210 279899 801585
211 891738 308982
212 628015 130359
213 522569 757854
214 765637 680049
215 314798 306065
216 707881 77586
217 628304 92472
218 582276 848405
219 893806 33083
220 53878 358762
221 548982 512142
222 109886 139163
223 722994 863742
224 34969 122288
225 173580 918460
226 79929 49637
227 639925 637393
228 639939 364247
229 920757 89343
230 40785 574541
231 207689 888100
232 650597 148263
233 38163 68689
234 196535 688944
235 562321 50710
236 551073 670123
237 820518 361438
238 721655 842101
239 669057 990622
240 490420 158322
241 837096 676293
242 639263 740257
243 98376 819780
244 426988 480040
245 54309 513586
246 651869 204861
247 470761 3168
248 807689 878858
249 691623 748448
250 417508 880893
251 194685 44347
252 631868 15258
253 81364 403636
254 410373 899668
255 539016 820158
256 937258 440716
257 35034 527199
258 922672 2827
259 417339 647429
260 340574 159304
261 377065 448087
262 271436 681428
263 856025 506726
264 38255 805260
265 280073 318019
266 431728 769388
267 451605 670261
268 221063 396379
269 641259 112064
270 817584 95548
271 402441 779558
272 139466 895004
273 136521 203781
274 933425 789333
275 147142 300962
276 840603 886363
277 468374 99489
278 449165 425296
279 592741 961606
280 794194 684984
281 762377 298309
282 82083 443468
283 417716 157699
284 301249 140029
285 390677 718890
286 69401 628005
287 500286 39611
288 318701 490702
289 979713 171946
290 232263 430728
291 913984 76648
292 11065 595089
293 555641 133418
294 687305 8136
295 252545 63363
296 95130 501229
297 721386 98694
298 26146 774436
299 279272 99855
300 576303 645818
301 224068 761478
302 557069 716413
303 386977 763954
304 875297 873284
305 543847 315746
306 737990 584604
307 709061 730831
308 589854 261147
309 576922 983389
310 417321 643280
311 878427 201394
312 563726 744859
313 494822 307923
314 70936 783872
315 652633 554746
316 615404 106428
317 628099 916517
318 692738 329380
319 367587 280234
320 5235 294494
321 556496 703916
322 590815 609265
323 184936 893735
324 937503 976527
325 603871 718223
326 703499 495399
327 447221 21556
328 30414 117640
329 133379 640551
330 23675 57597
331 396367 595063
332 868049 249353
333 759249 34074
334 993789 99795
335 545894 696118
336 323643 600395
337 379517 699098
338 939780 383027
339 754173 542169
340 714444 377182
341 174544 430384
342 760196 595036
343 158379 20341
344 238378 378746
345 157267 658664
346 335590 267791
347 734339 309116
348 970850 956101
349 324399 891717
350 669484 801908
351 139562 395334
352 262082 226689
353 543679 273115
354 735202 852184
355 863176 10073
356 879261 754632
357 483284 365011
358 722006 128575
359 860723 558932
360 278502 803148
361 709674 102072
362 430311 743986
363 556556 928309
364 338312 152827
365 155418 666665
366 647825 901988
367 678992 704371
368 497920 419911
369 947100 395185
370 873029 29803
371 159617 679445
372 100243 354119
373 948989 233518
374 837480 990352
375 752560 42540
376 617788 171572
377 736298 2819
378 154082 237573
379 716341 557710
380 728768 123767
381 326014 340017
382 979155 833373
383 850455 199815
384 654388 129164
385 416022 488488
386 291095 870370
387 806372 235961
388 185359 538102
389 365773 427492
390 589903 318982
391 211968 780601
392 424058 31651
393 340650 307807
394 922832 845619
395 853916 298105
396 765523 817935
397 979162 384541
398 738707 289247
399 873073 864282
400 168760 410886
401 867744 409987
402 400449 433577
403 830572 837187
404 747513 704647
405 662168 846275
406 314740 870721
407 703794 430663
408 358244 508078
409 360854 594614
410 94665 561208
411 326742 790106
412 960404 5135
413 620743 881107
414 469921 372794
415 405388 348171
416 790589 661126
417 765323 743628
418 4241 341246
419 76807 993395
420 673406 832571
421 946952 328218
422 750954 292708
423 971362 975417
424 857531 974027
425 763797 857600
426 819325 500278
427 458893 820588
428 620297 206618
429 644664 656820
430 429336 489326
431 760380 754118
432 31240 829597
433 899322 986522
434 119767 411086
435 459300 382827
436 650547 386827
437 830816 237065
438 741882 826464
439 331212 139815
440 384838 414124
441 236443 813100
442 943458 916062
443 587791 36471
444 629885 935725
445 844306 17719
446 221478 665720
447 534094 290579
448 182024 560125
449 497401 513889
450 550825 144898
451 644204 717715
452 589189 349672
453 621156 6224
454 556820 542831
455 232796 583826
456 576733 708938
457 812514 411617
458 267847 94659
459 220023 740661
460 647573 339197
461 489120 605877
462 860260 314401
463 738622 932831
464 797638 481143
465 615908 735657
466 269643 788381
467 907019 801011
468 837391 527504
469 586 531841
470 648214 493132
471 816447 889224
472 288152 505109
473 528598 615601
474 805460 219693
475 551956 249192
476 762486 16257
477 897981 815167
478 875255 855823
479 810696 788177
480 512281 93652
481 5638 24979
482 894617 739664
483 767378 687508
484 420786 307404
485 883018 652246
486 289199 330
487 188704 398380
488 576710 472862
489 707896 45092
490 439146 882799
491 122135 9461
492 968862 522256
493 730019 244664
494 893764 167355
495 33633 149882
496 106718 693181
497 648822 995967
498 203933 816117
499 700520 889772
500 928398 55735
501 907704 760367
502 780546 669157
503 127057 753025
504 47395 375725
505 85148 630590
506 962059 643341
507 754544 362398
508 986933 312456
509 376156 898649
510 535731 951260
511 986988 531013
512 379006 827283
513 744541 528832
514 219783 519546
515 271322 823685
516 425467 332171
517 959944 808556
518 920740 478793
519 254917 606463
520 535322 417562
521 868507 995115
522 631623 82372
523 162894 575704
524 314175 821538
525 251426 675100
526 596334 180973
527 618449 104713
528 630267 575533
529 800422 971990
530 748417 648263
531 498108 440931
532 840402 667585
533 762082 966943
534 11717 672171
535 199504 411229
536 998281 554617
537 647222 860630
538 354926 806014
539 912564 274293
540 197015 169007
541 728409 247792
542 771129 623059
543 325577 984535
544 491768 292359
545 46473 953796
546 467076 582745
547 406959 124093
548 419281 313889
549 347892 770993
550 727446 356879
551 663139 39882
552 624523 82418
553 946691 348541
554 409844 995389
555 779135 645732
556 83764 508062
557 925517 794620
558 181186 915362
559 33972 716309
560 248303 448192
561 619051 240723
562 944725 842624
563 748089 958398
564 930094 564803
565 913939 6384
566 396170 917174
567 495157 551283
568 85242 220347
569 322275 976509
570 441872 410214
571 950563 775459
572 44056 598280
573 334745 226353
574 638019 564334
575 376004 460882
576 383795 783088
577 857054 721061
578 960708 745965
579 544725 73240
580 997175 726344
581 26265 433335
582 553517 368921
583 695168 308305
584 464006 327236
585 459875 954833
586 277342 469638
587 340304 787420
588 64397 835962
589 383669 223664
590 881915 2124
591 413673 856854
592 567627 187595
593 980118 962835
594 363657 126235
595 856114 776937
596 756340 995039
597 516633 487039
598 132871 480925
599 435154 256635
600 533882 498782
601 842684 414355
602 682418 373880
603 47208 526941
604 215461 669458
605 740942 997873
606 382307 418489
607 217125 220238
608 970003 31226
609 916701 66478
610 236049 214243
611 873150 207371
612 793353 961092
613 112149 862987
614 787219 966424
615 740211 537456
616 620501 714210
617 482721 884042
618 619816 995184
619 639728 347389
620 217591 948892
621 46134 297178
622 890186 641871
623 903787 548968
624 201685 555541
625 374889 269884
626 693705 468729
627 516423 996426
628 878281 128473
629 931634 798375
630 754063 52024
631 887212 868071
632 451867 792050
633 951738 85129
634 528302 575254
635 316450 421035
636 829540 361160
637 691588 966164
638 520538 404420
639 690947 796926
640 82810 983675
641 931352 988844
642 212361 688187
643 650244 752430
644 262342 690670
645 932303 534687
646 466882 64474
647 30939 796556
648 119351 684974
649 605590 924021
650 121333 499366
651 858020 404758
652 472730 391213
653 338531 704861
654 256368 828235
655 346182 125851
656 866130 240963
657 866071 219376
658 585142 822738
659 837131 655310
660 672699 266764
661 479538 604280
662 453921 817083
663 563014 424782
664 888429 300374
665 627632 815677
666 148051 862712
667 450744 956959
668 117544 690388
669 122772 992984
670 103045 827505
671 915298 607031
672 17970 665539
673 55148 862601
674 610553 213855
675 233542 694568
676 796544 305215
677 296388 305655
678 351315 995308
679 954014 515770
680 273668 648142
681 582088 263384
682 725190 518676
683 210553 259098
684 222992 200532
685 164228 722540
686 212184 623276
687 421768 978130
688 470220 174323
689 307892 148265
690 465768 567705
691 470767 372659
692 26705 979489
693 233588 884667
694 137521 932067
695 746406 858445
696 467395 922239
697 828755 380504
698 615321 292022
699 185263 39840
700 195318 880824
701 554709 462287
702 748087 665836
703 223800 423884
704 278509 316898
705 72067 466647
706 857786 21946
707 769364 415223
708 180747 659848
709 434629 344685
710 903355 918530
711 73835 183152
712 5214 283404
713 167831 749896
714 875188 755931
715 754329 46335
716 895814 990993
717 76197 999120
718 709918 448821
719 603294 611482
720 798742 573739
721 450038 792835
722 28712 827875
723 784610 284243
724 917025 545351
725 212672 865424
726 416833 429331
727 285510 148982
728 985009 563715
729 386090 748966
730 955918 774979
731 820589 667026
732 518155 498327
733 16609 64951
734 993234 941488
735 630612 896503
736 742823 889278
737 132013 37931
738 501697 644504
739 897642 856231
740 298394 604116
741 363806 126222
742 800013 979350
743 225745 228788
744 472837 577870
745 982511 644967
746 455587 661806
747 980870 902239
748 830916 560760
749 660822 990780
750 326178 140105
751 386600 60794
752 246956 608556
753 501617 290610
754 629317 306159
755 923236 756221
756 90878 808219
757 766454 310950
758 319391 158783
759 686156 615916
760 667410 455849
761 404128 2453
762 615310 490507
763 509902 682029
764 642321 523457
765 536314 211086
766 15186 591482
767 932994 542172
768 513238 555587
769 359767 489062
770 659958 66962
771 542632 856920
772 910459 526662
773 240838 453134
774 46496 490362
775 392336 148887
776 918438 137365
777 454466 115091
778 124919 795118
779 127799 704783
780 95318 946030
781 930843 140255
782 646200 856274
783 213589 233957
784 897760 239792
785 70112 866257
786 112287 195793
787 223580 518523
788 537410 266763
789 547986 500218
790 365588 714784
791 554229 937537
792 428139 590284
793 280243 874931
794 945281 76719
795 328583 279280
796 657826 119974
797 418950 793700
798 954675 346838
799 633340 391935
800 989251 974074
801 905147 546278
802 124774 677551
803 594657 980900
804 709225 864182
805 834848 249987
806 849836 51079
807 376200 816037
808 288203 810868
809 721304 852500
810 901599 866750
811 600616 505824
812 250541 96037
813 961110 566008
814 71018 546028
815 923865 556509
816 557537 683804
817 665369 115600
818 864948 503150
819 561336 612101
820 302080 469375
821 153626 92781
822 175120 461832
823 678663 152001
824 869433 322912
825 832590 388666
826 275820 87311
827 468070 432741
828 416536 221343
829 880908 9174
830 812603 91507
831 419563 97124
832 562102 365473
833 96360 757054
834 875958 914368
835 137373 136202
836 941434 398392
837 19909 512932
838 590930 513305
839 37754 817800
840 679501 739766
841 685100 61844
842 733425 832358
843 136946 460413
844 121701 299896
845 19240 107893
846 627191 646968
847 474727 165878
848 527940 755234
849 72871 662187
850 870901 165358
851 114247 51633
852 643410 92823
853 703566 213975
854 353886 635712
855 295795 956122
856 99641 581012
857 989934 704709
858 464315 772595
859 622396 396223
860 837533 341126
861 684182 213770
862 43466 972015
863 21954 889801
864 754981 927085
865 809366 376954
866 159418 402042
867 522004 723378
868 640125 104087
869 71910 28716
870 368042 364350
871 838017 725478
872 462363 678113
873 423711 413420
874 603501 502712
875 143923 638138
876 252 145785
877 852821 493947
878 5939 712204
879 529628 920032
880 452698 599478
881 142065 325169
882 267670 931444
883 118105 374163
884 118649 311820
885 280997 50895
886 169093 119684
887 252300 199394
888 340874 538396
889 360949 549519
890 966075 309750
891 360173 834949
892 474387 209887
893 234888 834249
894 134372 590560
895 605272 265961
896 985438 760089
897 747718 317146
898 195257 718332
899 473177 262968
900 337239 885314
901 52470 53982
902 536637 834173
903 277964 165303
904 671398 642933
905 259058 171690
906 577832 939067
907 314760 186737
908 614040 381975
909 577450 950523
910 736187 399773
911 900985 855681
912 974581 395683
913 998424 115111
914 583047 418126
915 921430 175570
916 866998 718015
917 290461 794384
918 731917 421105
919 520188 287650
920 595846 852912
921 256798 183848
922 854372 205499
923 364976 129757
924 785508 352035
925 318722 80146
926 135285 55051
927 341538 161668
928 18316 334455
929 763521 742252
930 102256 856858
931 645114 383748
932 47086 406145
933 914892 393983
934 84695 109260
935 821761 484283
936 596467 225415
937 631800 656041
938 264487 845934
939 514142 812913
940 377367 663969
941 351589 840794
942 315870 64571
943 530456 483249
944 670929 884315
945 879492 337933
946 336410 410927
947 465889 111563
948 256445 31382
949 552048 198331
950 941012 519041
951 615614 972595
952 974667 654753
953 728556 294491
954 739180 276966
955 631211 535066
956 663526 879205
957 862759 764322
958 520447 234186
959 917859 935523
960 149700 883509
961 841935 886363
962 168248 302719
963 868669 623872
964 250748 977047
965 927485 969996
966 106753 237175
967 181701 842301
968 443 472383
969 978034 551548
970 544123 296269
971 565390 735405
972 734615 995982
973 495997 450047
974 242679 163169
975 242894 632572
976 780634 575000
977 270846 971016
978 412287 378438
979 790893 132366
980 654309 256172
981 316456 187631
982 732843 334941
983 969676 928120
984 144590 866777
985 268324 70400
986 991507 754689
987 692628 517127
988 102875 266935
989 615517 197232
990 890431 490230
991 832978 118381
992 322738 671312
993 653539 919121
994 504332 846759
995 872624 72322
996 327793 111257
997 283224 473722
998 304762 810700
999 42776 217487
1000 893106 229062
1001 834529 45446
1002 272738 752663
1003 799593 662252
1004 252262 599533
1005 317476 493166
1006 874105 944134
1007 259741 581986
1008 928379 205198
1009 904407 259120
1010 30179 158975
1011 885343 927102
1012 973670 39261
1013 235871 946060
1014 481950 939964
1015 717533 440623
1016 14673 15983
1017 879756 397265
1018 616124 888844
1019 858640 740751
1020 742932 448341
1021 14714 245211
1022 816580 713648
1023 186979 400690
1024 137587 243962
1025 237851 358701
1026 328749 102812
1027 499954 452482
1028 214389 818546
1029 165689 875473
1030 136538 910749
1031 803611 511510
1032 856601 869134
1033 478451 628894
1034 127554 546093
1035 395007 527689
1036 67610 660445
1037 21269 671477
1038 830226 782531
1039 427148 521187
1040 824872 417324
1041 780370 606477
1042 803426 806783
1043 637011 503162
1044 159382 10621
1045 918813 987230
1046 761289 312546
1047 345744 215243
1048 380730 354268
1049 223942 145102
1050 883422 404448
1051 973541 616400
1052 419089 820527
1053 578330 722272
1054 299385 693170
1055 815471 711226
1056 659164 155068
1057 956660 149308
1058 149460 491064
1059 165766 641357
1060 488403 124183
1061 404951 982451
1062 662670 990558
1063 554147 451210
1064 241356 200742
1065 93146 107954
1066 483145 733978
1067 705716 113646
1068 758160 625302
1069 649816 654117
1070 657323 145946
1071 337395 518024
1072 522218 794629
1073 582279 778837
1074 649876 355185
1075 661096 929520
1076 112912 23200
1077 51955 775468
1078 921302 239563
1079 910684 305443
1080 62366 953028
1081 72455 645268
1082 35846 669524
1083 373830 141139
1084 632850 162030
1085 567028 370622
1086 841188 810581
1087 980261 558883
1088 11271 381751
1089 930495 887202
1090 69255 314584
1091 540526 935912
1092 138375 140118
1093 35498 837877
1094 698131 36191
1095 739815 617021
1096 992452 487786
1097 87088 286701
1098 304758 526814
1099 537763 963334
1100 783358 200527
1101 848341 762673
1102 285929 346511
1103 388994 176999
1104 884824 911837
1105 739969 83425
1106 541431 874492
1107 565628 445345
1108 960575 584669
1109 558179 749145
1110 364766 847016
1111 603375 669515
1112 378672 366501
1113 522280 78514
1114 524651 633749
1115 169889 834271
1116 496926 18658
1117 147232 985830
1118 773153 666033
1119 370284 693029
1120 179542 450829
1121 279698 948986
1122 671425 892798
1123 13645 322937
1124 109113 720587
1125 764421 226243
1126 2162 904013
1127 793445 949087
1128 703601 829683
1129 615441 300099
1130 573358 722960
1131 806715 191794
1132 732294 289140
1133 803727 592444
1134 203066 672829
1135 431700 637638
1136 475555 837591
1137 984723 138522
1138 844853 699361
1139 876069 429585
1140 662899 692596
1141 463073 224552
1142 60391 446928
1143 27556 305131
1144 286363 858092
1145 182102 180708
1146 462967 697455
1147 261329 541904
1148 975274 442106
1149 964262 532902
1150 47944 314283
1151 446867 679528
1152 57688 71824
1153 763169 777609
1154 843622 346516
1155 921530 398469
1156 543319 757348
1157 117996 392650
1158 259992 109259
1159 930465 190390
1160 313866 361620
1161 628182 670163
1162 624884 117416
1163 190770 796026
1164 779903 912899
1165 375353 67244
1166 855738 529553
1167 508054 264430
1168 149276 705725
1169 106555 667740
1170 186935 918296
1171 374666 95973
1172 544226 820481
1173 552525 792803
1174 72571 143913
1175 351133 179247
1176 662203 51363
1177 157549 980700
1178 458544 917314
1179 171473 793257
1180 922547 57444
1181 671054 175881
1182 159580 3233
1183 23802 447346
1184 213121 297515
1185 840124 467189
1186 36688 786552
1187 839256 134618
1188 699416 576819
1189 512613 644183
1190 658871 273456
1191 624552 986645
1192 990352 317909
1193 396190 679856
1194 369972 504820
1195 240627 701930
1196 492603 809040
1197 827616 719746
1198 881608 588114
1199 256716 409607
1200 121064 975706
1201 280189 428387
1202 485041 77677
1203 554694 675558
1204 61010 839640
1205 584510 778688
1206 547342 666653
1207 552630 220616
1208 564840 862013
1209 348265 439834
1210 121625 435688
1211 190629 803514
1212 176450 864417
1213 186999 608300
1214 301510 761579
1215 579924 23858
1216 515808 672973
1217 59672 880183
1218 726114 957899
1219 434015 769735
1220 753068 534176
1221 331591 930138
1222 383195 804939
1223 511300 689089
1224 632590 963198
1225 532747 273308
1226 286604 495137
1227 829682 97206
1228 459898 607216
1229 368715 604858
1230 351562 596794
1231 241543 291275
1232 86572 50334
1233 447096 617204
1234 283457 747690
1235 709316 875751
1236 229423 385067
1237 907086 848317
1238 149084 695492
1239 973831 79243
1240 404519 579782
1241 239585 696651
1242 410016 983130
1243 782314 224532
1244 586401 9338
1245 433086 108910
1246 674442 686324
1247 60419 877316
1248 304753 946524
1249 23051 534878
1250 655855 815808
1251 715257 553346
1252 558678 952964
1253 33722 589952
1254 85120 846552
1255 314891 235365
1256 20815 359376
1257 171771 242652
1258 922351 555219
1259 230856 209255
1260 745581 500572
1261 594153 748579
1262 91835 893507
1263 160494 676077
1264 826388 954122
1265 814594 559131
1266 610372 127278
1267 764352 169153
1268 558967 880208
1269 524880 167364
1270 60778 227095
1271 993676 377145
1272 263757 932513
1273 514757 925863
1274 594488 166911
1275 716822 628676
1276 120135 68928
1277 720284 96723
1278 205436 587978
1279 788993 389525
1280 393996 153514
1281 65072 917756
1282 785774 87796
1283 241689 643669
1284 95619 239257
1285 727895 996488
1286 960731 63945
1287 492433 116905
1288 380436 525224
1289 28295 995112
1290 688071 572515
1291 887083 436863
1292 560125 661080
1293 494059 692615
1294 341504 676556
1295 927464 915298
1296 784589 285622
1297 439468 64289
1298 266364 929731
1299 884712 146852
1300 552077 989532
1301 897568 599375
1302 478839 144307
1303 741592 683272
1304 508803 59204
1305 602663 512820
1306 246474 112437
1307 462060 478698
1308 368925 779449
1309 478287 721484
1310 821431 311957
1311 758956 948767
1312 687180 738362
1313 98920 361355
1314 585105 348125
1315 375312 697163
1316 16421 969091
1317 392449 175251
1318 326040 774645
1319 974802 81427
1320 292154 714610
1321 214327 620019
1322 855124 615507
1323 156341 835822
1324 598441 701105
1325 965369 905008
1326 344625 536587
1327 771539 854913
1328 973111 928477
1329 206926 303587
1330 818266 966946
1331 708469 427375
1332 767049 888053
1333 298492 626455
1334 257312 846553
1335 322356 533103
1336 181008 777182
1337 756115 916423
1338 967331 222369
1339 177227 832267
1340 765251 170443
1341 154429 281517
1342 529858 408365
1343 988694 589045
1344 202041 504395
1345 876759 699584
1346 517333 128249
1347 759070 759051
1348 533602 437145
1349 863903 938701
1350 648175 933971
1351 658594 766174
1352 935854 794925
1353 750579 63107
1354 6728 363174
1355 866219 384066
1356 726435 702530
1357 426828 118682
1358 449613 580220
1359 668305 7997
1360 354451 861346
1361 762551 318611
1362 198377 388385
1363 874508 414833
1364 841327 961189
1365 165843 904224
1366 215641 814052
1367 966048 381184
1368 444007 451898
1369 854689 411176
1370 958751 408474
1371 920740 194044
1372 149944 15412
1373 937032 198722
1374 929871 370685
1375 884543 118768
1376 595817 902713
1377 772858 743951
1378 718330 844542
1379 800126 554669
1380 350917 298680
1381 208418 595551
1382 404422 457745
1383 463325 532390
1384 552585 411416
1385 181649 250891
1386 650348 297619
1387 123454 235682
1388 265529 859838
1389 545753 454426
1390 670054 29966
1391 614707 286657
1392 610271 867162
1393 695805 620089
1394 409629 508302
1395 917858 911617
1396 899312 443273
1397 229527 707859
1398 758125 623120
1399 70590 914262
1400 749883 77194
