NAME : portgen-600-609
COMMENT : portgen N=600, seed=609
TYPE : TSP
DIMENSION : 600
EDGE_WEIGHT_TYPE : EUC_2D
NODE_COORD_SECTION
1 89729 774644
2 999865 916515
3 979195 795728
4 412343 454661
5 546795 930243
6 936075 73442
7 365622 985878
8 753171 683723
9 161694 502078
10 212813 41305
11 64106 972557
12 45957 61534
13 757735 364516
14 505700 910309
15 303919 519925
16 255137 779055
17 479358 921224
18 527360 820306
19 305550 83537
20 168855 9307
21 864117 1680
22 118309 388678
23 174885 298379
24 997967 985790
25 119500 217265
26 423043 566092
27 499978 661522
28 2856 310674
29 295285 78641
30 389155 158889
31 490178 328806
32 285806 537488
33 66125 934395
34 955132 976944
35 810993 454791
36 685756 175903
37 382577 995548
38 618261 498013
39 472579 384434
40 58677 447061
41 69230 427058
42 521154 145030
43 29746 926330
44 493249 941870
45 855098 592964
46 865173 328605
47 272543 714063
48 323550 688213
49 619102 122760
50 770416 676871
51 825800 613532
52 927112 672439
53 148034 995984
54 44938 354948
55 631776 76526
56 817425 353415
57 223543 796190
58 293715 161572
59 56262 571742
60 213938 377911
61 315293 832371
62 206528 134121
63 628991 72224
64 248790 710138
65 847513 622277
66 453075 117631
67 752658 982151
68 629636 715815
69 203515 724963
70 851314 868174
71 870067 921506
72 727931 477186
73 277671 32801
74 122077 138422
75 85071 251326
76 439422 908963
77 275247 148139
78 223796 708168
79 860874 944961
80 42802 432219
81 792469 319974
82 503633 763602
83 206458 895918
84 625483 746356
85 518519 260913
86 39495 917840
87 486670 962612
88 938488 406330
89 557124 58389
90 910325 920822
91 211349 303829
92 667335 415293
93 829807 133100
94 613998 989056
95 775692 733717
96 90331 457158
97 206444 590401
98 828678 952226
99 434835 765319
100 538697 871340
101 475677 63687
102 228096 164248
103 39976 135593
104 241627 859953
105 318331 90695
106 94170 871818
107 169269 309085
108 341888 335310
109 113530 913231
110 934923 254232
111 461083 860164
112 207659 647179
113 785235 975807
114 689743 322422
115 922635 802895
116 164703 697170
117 740058 819629
118 826652 339531
119 134560 358250
120 73405 494497
121 19570 700766
122 54132 521460
123 272634 230167
124 249499 559264
125 805165 852870
126 262482 112413
127 842683 735802
128 706637 778507
129 323629 408467
130 337596 700444
131 1032 883376
132 786548 823833
133 71125 393403
134 817685 647808
135 36451 111721
136 85810 554265
137 108065 82053
138 991749 348669
139 17480 471856
140 940542 6728
141 652178 281276
142 984825 222190
143 801862 281326
144 910621 916224
145 748504 433248
146 521845 486751
147 321799 961684
148 408686 465304
149 592701 972079
150 529711 923964
151 212687 777642
152 618722 798437
153 200692 981206
154 127587 620493
155 933939 425310
156 867885 407405
157 659962 904347
158 178599 514281
159 561577 824864
160 415147 605821
161 800702 845606
162 118097 112486
163 899034 308168
164 935543 309627
165 881360 10542
166 221081 396986
167 537917 515231
168 138842 244772
169 621314 80478
170 43591 287581
171 719749 85757
172 501076 142683
173 632546 676239
174 368654 209313
175 62650 100518
176 529761 283073
177 90718 519168
178 702883 815700
179 239725 103490
180 659594 955919
181 359892 47109
182 576901 646358
183 705561 782127
184 906328 517279
185 271800 502359
186 145627 352263
187 762214 314629
188 76059 517629
189 754887 598929
190 409602 83333
191 68442 832052
192 650033 925441
193 650650 173972
194 820085 891558
195 809670 356715
196 338444 104034
197 808677 541231
198 141954 367485
199 323543 186447
200 66623 114917
201 921351 769724
202 799710 979316
203 32075 697709
204 633040 165277
205 868517 528910
206 995614 348166
207 293820 302879
208 617475 255857
209 238431 35670
210 504404 338075
211 458584 719880
212 450655 156883
213 581008 375902
214 552553 782897
215 282553 378350
216 884588 589610
217 730412 880692
218 87719 720276
219 538231 347153
220 307965 394793
221 935540 784415
222 387154 471594
223 898130 618563
224 653378 651794
225 960222 766051
226 814932 540645
227 903893 688272
228 230328 331740
229 39311 919018
230 891597 311799
231 159477 285886
232 857312 473723
233 593369 211199
234 961012 822226
235 404748 998912
236 602478 586637
237 75447 738352
238 523143 917938
239 815987 762382
240 926554 249267
241 336590 633534
242 891300 970754
243 218872 598702
244 732298 256688
245 287322 876519
246 759263 716005
247 942404 309053
248 792314 348903
249 708968 648801
250 948450 980192
251 802575 890996
252 725239 710955
253 429460 181397
254 649344 933139
255 469400 631626
256 599442 782623
257 631696 15077
258 552535 443472
259 343481 548258
260 681408 244465
261 502231 312210
262 873775 424556
263 196336 711482
264 861397 364491
265 308892 341746
266 268593 882848
267 292982 294928
268 649825 553967
269 1838 876223
270 418219 775400
271 255220 184039
272 575279 42856
273 374288 447053
274 842229 517848
275 112716 80832
276 487506 344476
277 339909 606703
278 711598 919727
279 598013 430310
280 61129 875493
281 179559 773121
282 514919 693999
283 376405 415402
284 207343 588840
285 640789 105482
286 601242 825632
287 435542 600576
288 756959 157755
289 972301 267071
290 712957 276608
291 113468 431086
292 303362 433399
293 162187 495472
294 367928 598983
295 918523 234422
296 346623 412998
297 235434 312736
298 174157 429587
299 748497 974703
300 285896 216533
301 474751 575157
302 804891 836107
303 967363 56419
304 41114 906509
305 444516 216126
306 551799 999030
307 511787 826707
308 528869 766560
309 537686 202182
310 519841 946817
311 666905 232640
312 302943 424256
313 630730 26084
314 20741 599434
315 633212 700540
316 116641 65791
317 822555 496830
318 724809 114438
319 919299 476654
320 904529 395626
321 957785 165745
322 79141 971705
323 567516 113982
324 110054 811178
325 682006 148073
326 408846 149062
327 341490 585356
328 99891 408959
329 752602 308060
330 111298 852925
331 137120 564459
332 1979 48889
333 258341 386054
334 919889 540082
335 259190 414886
336 656506 726508
337 520176 371768
338 537971 517843
339 891150 717587
340 324364 221770
341 273481 712680
342 488136 780287
343 563419 552182
344 63811 773665
345 238489 338755
346 194549 379216
347 217464 489643
348 739120 231276
349 645568 707372
350 433734 49673
351 222832 392467
352 486814 460235
353 874591 696165
354 660926 561202
355 21936 547709
356 345147 978937
357 69571 772543
358 658376 757903
359 346994 512336
360 309769 27064
361 740485 212516
362 106348 209517
363 192054 264038
364 239694 59940
365 497177 841805
366 856917 329947
367 695651 776654
368 876622 294544
369 643109 715593
370 121911 805516
371 205187 551475
372 463896 211425
373 598270 982032
374 272868 7946
375 297588 475081
376 991582 585628
377 210194 591928
378 192756 892884
379 696816 710159
380 583613 580046
381 53056 945333
382 439291 216419
383 342522 793672
384 515040 858145
385 174272 676343
386 485034 339048
387 214748 834687
388 35481 154856
389 2322 514419
390 16761 299169
391 567222 529534
392 476327 917131
393 788748 911583
394 890656 479231
395 434131 82949
396 779503 784963
397 541320 445567
398 320481 866139
399 336727 629209
400 175943 443413
401 979710 758449
402 991185 998419
403 907859 462047
404 109300 293063
405 803179 281172
406 2228 217585
407 276028 500663
408 800542 268092
409 404012 993723
410 895938 476383
411 456945 885831
412 682201 730859
413 696633 726585
414 347862 216328
415 926827 573434
416 45555 709258
417 711239 735589
418 296940 349637
419 253505 975664
420 116588 520656
421 507571 896932
422 583292 957747
423 626004 893672
424 102761 810461
425 748934 593895
426 518276 120398
427 702381 602509
428 397857 270451
429 47209 255596
430 701478 558221
431 208541 133636
432 176474 282523
433 773601 105296
434 634292 318280
435 874659 906870
436 165330 593551
437 244789 302043
438 958107 336547
439 183450 79692
440 333001 426181
441 679376 92266
442 514850 368605
443 364892 911918
444 532783 428716
445 961987 191644
446 715344 935225
447 101004 209718
448 355325 914019
449 652143 281249
450 999640 289456
451 710222 23069
452 477459 322752
453 914518 426010
454 605548 333775
455 237617 485938
456 737668 618492
457 293608 509834
458 842876 273316
459 32632 966756
460 927198 859582
461 453153 353043
462 318640 585202
463 196647 142261
464 116092 922036
465 387524 532096
466 730999 849674
467 842075 847062
468 688513 60884
469 798657 5015
470 525728 91575
471 879286 566026
472 501518 102405
473 738491 362301
474 616584 515801
475 13070 213064
476 797926 730106
477 893724 467543
478 558457 860548
479 180994 630396
480 634239 853634
481 627353 600532
482 808046 146041
483 606652 171641
484 116974 191202
485 771343 480575
486 656732 516830
487 953686 714133
488 61655 723046
489 459318 851096
490 26745 336099
491 961266 485696
492 287796 533889
493 904743 130466
494 41627 696033
495 240410 516871
496 943909 607454
497 233672 45153
498 434843 362456
499 612340 787384
500 40750 15444
501 902983 765488
502 489056 676970
503 251797 312230
504 442309 359834
505 562800 427990
506 818920 484961
507 389985 117368
508 909724 19898
509 366859 762893
510 711198 244195
511 559300 329589
512 150452 755898
513 577591 891243
514 27774 276715
515 462336 749424
516 280737 99483
517 288296 598755
518 517179 476305
519 95710 170428
520 624164 884844
521 763607 278734
522 984835 996215
523 957570 614320
524 457001 477774
525 467562 543599
526 334682 335625
527 325048 291325
528 734707 803500
529 477191 890300
530 159791 775491
531 216520 271881
532 735669 677955
533 664383 540186
534 500125 393770
535 159797 295404
536 562897 889085
537 295331 167598
538 909513 223675
539 4541 859127
540 21191 774091
541 414052 137473
542 116923 686844
543 532904 8855
544 363813 610340
545 934372 976992
546 976179 701939
547 10630 328760
548 321947 874521
549 983402 817236
550 86701 733894
551 609778 597874
552 456583 693470
553 129547 197208
554 218701 638203
555 758420 725851
556 439686 866851
557 955928 182799
558 799312 514580
559 261250 406909
560 356008 789861
561 556783 682889
562 307068 425902
563 685626 965022
564 432502 601860
565 38050 712304
566 4974 366337
567 100706 295339
568 334404 547200
569 181545 934124
570 887532 18324
571 747605 956903
572 254332 144510
573 420208 293290
574 394870 584727
575 643133 356924
576 442018 381542
577 779185 374396
578 728920 243440
579 497168 161243
580 359065 582346
581 15663 284576
582 750671 740096
583 978246 482783
584 612518 811417
585 762590 506022
586 119709 676522
587 763775 999083
588 347843 175241
589 903703 932672
590 696982 442185
591 467854 271259
592 242795 455704
593 696640 720397
594 615665 360609
595 317093 851621
596 934681 370127
597 171533 381509
598 898615 71082
599 193127 255248
600 796667 244967
