NAME : portgen-600-607
COMMENT : portgen N=600, seed=607
TYPE : TSP
DIMENSION : 600
EDGE_WEIGHT_TYPE : EUC_2D
NODE_COORD_SECTION
1 895097 124892
2 221502 186185
3 374559 918829
4 121111 906499
5 723034 280472
6 982439 758787
7 81900 410959
8 951102 227430
9 846012 990634
10 136605 52912
11 123976 555564
12 122161 358436
13 108609 759966
14 248156 690282
15 305334 507330
16 268325 717305
17 78951 991706
18 965753 512627
19 370994 649739
20 124812 515650
21 439127 435065
22 361204 937285
23 576837 27863
24 971420 105423
25 717713 646878
26 831628 920852
27 428278 569931
28 845459 177791
29 45940 229795
30 220431 861931
31 547834 471371
32 781687 207383
33 841345 547373
34 397582 144614
35 834121 923239
36 256009 740588
37 272921 489726
38 221284 203124
39 127285 552230
40 512976 930817
41 714025 18360
42 469850 443402
43 959495 796953
44 935618 871567
45 150361 418380
46 115045 226380
47 815618 201572
48 259640 698538
49 162144 871478
50 716001 373712
51 900577 419190
52 592446 786895
53 932853 813268
54 451001 984876
55 610435 48506
56 242173 174372
57 79434 802051
58 746886 321454
59 655753 580114
60 947743 142807
61 385228 526103
62 428612 460408
63 22662 836818
64 148142 486025
65 556872 408016
66 752123 142409
67 941794 464470
68 688644 539652
69 938925 667799
70 696515 638040
71 141199 355503
72 923824 7554
73 33151 588941
74 797767 355209
75 178909 422822
76 550396 676119
77 314605 307985
78 621589 758168
79 477396 127976
80 98251 393200
81 874342 783201
82 288360 972395
83 907306 886669
84 250547 71880
85 768899 157945
86 523687 300544
87 401205 524920
88 592410 709109
89 211498 120627
90 838819 264493
91 359422 20165
92 387773 163672
93 533674 968922
94 854048 969399
95 557164 801974
96 289105 867045
97 898900 538570
98 114353 840655
99 954298 398903
100 415143 324041
101 377442 677139
102 516389 914415
103 63400 530230
104 288345 150933
105 774310 652667
106 904119 507997
107 570812 296276
108 104095 7296
109 884300 749789
110 858042 66651
111 932370 851643
112 656736 444857
113 780502 846547
114 784154 486789
115 461520 62179
116 420764 60565
117 346316 186151
118 360374 851424
119 449353 91496
120 59577 526377
121 84621 104258
122 111356 490513
123 869603 437461
124 210309 454043
125 758068 267805
126 56500 467509
127 937383 352964
128 903277 316877
129 330823 330238
130 554041 211975
131 80877 196848
132 91355 247933
133 568046 799860
134 396640 80299
135 426673 666634
136 796987 430257
137 991721 590236
138 10150 464861
139 914260 303772
140 541579 463624
141 515724 453916
142 932747 249545
143 981302 223916
144 969209 98383
145 618105 560513
146 454784 369054
147 664823 392942
148 729390 654363
149 112536 521120
150 480362 404742
151 523200 906536
152 912463 294443
153 752081 602584
154 534761 687838
155 371661 679361
156 347668 232439
157 712132 993527
158 757191 711823
159 532024 698412
160 518542 913682
161 687323 875520
162 599936 21930
163 143433 890450
164 517794 697278
165 838155 407566
166 930099 226422
167 932110 862218
168 115956 283284
169 741784 939219
170 492353 269479
171 691891 270796
172 579840 704423
173 873189 579264
174 769117 642892
175 249509 838940
176 136569 415258
177 682964 72796
178 474642 296778
179 974426 50244
180 178486 468797
181 860800 595542
182 195484 102182
183 987469 76871
184 652599 7709
185 120338 177927
186 942705 889131
187 448903 679602
188 777112 272065
189 192555 527139
190 547288 846655
191 916024 467549
192 518791 369358
193 546766 334557
194 30937 829928
195 874749 39084
196 630684 734075
197 818881 314426
198 326773 802760
199 821892 900238
200 927310 601123
201 386708 241977
202 95604 402853
203 922915 669020
204 896466 313606
205 526030 140084
206 265840 144498
207 175495 139401
208 838112 126724
209 776660 881057
210 775409 184708
211 254978 752361
212 80398 519214
213 791218 700728
214 793526 46049
215 756686 108092
216 375599 878948
217 1109 407203
218 580814 771526
219 292053 379390
220 531246 420041
221 557897 149880
222 54518 690040
223 784106 878323
224 653676 299667
225 523208 626045
226 9233 775843
227 143551 819218
228 225524 507759
229 240868 688401
230 822039 151389
231 376966 517075
232 782360 105989
233 582187 115960
234 89979 485454
235 355295 959788
236 473048 476993
237 357849 149364
238 175474 479135
239 608809 261179
240 293689 283458
241 459859 105125
242 224010 605296
243 731125 858523
244 96588 895120
245 825015 464854
246 681546 806599
247 24094 571457
248 946993 80903
249 792030 905154
250 514566 304970
251 269514 392497
252 5977 239749
253 166185 904108
254 551832 538254
255 88092 367000
256 411171 345747
257 863386 357185
258 469843 570367
259 492981 210902
260 158995 501283
261 323929 184824
262 970888 50324
263 690274 80550
264 471015 118100
265 983178 271365
266 927302 70555
267 173086 926688
268 872287 114112
269 241739 866825
270 135453 160758
271 365542 885685
272 736124 323731
273 140924 496721
274 835710 973769
275 881183 866442
276 609888 673930
277 921975 243200
278 377667 198958
279 219410 79288
280 367461 52072
281 662369 685007
282 402801 927334
283 1458 525485
284 609623 539654
285 216261 973121
286 734656 519211
287 329719 292553
288 891395 649999
289 262848 727688
290 672657 491315
291 861140 391726
292 750638 931105
293 608996 242295
294 667753 245752
295 925230 346802
296 504488 702084
297 650564 162332
298 426102 846330
299 555966 443570
300 432335 490924
301 233872 108022
302 301112 389868
303 5301 218161
304 923292 990870
305 634203 135372
306 531205 973657
307 154058 20659
308 547584 960285
309 34443 240469
310 501231 155128
311 969518 166052
312 107318 725336
313 739248 626633
314 218099 939851
315 287251 673234
316 726707 271978
317 93484 537284
318 960110 887482
319 237668 729979
320 383521 648711
321 207851 427284
322 744520 770101
323 377284 338436
324 594765 925227
325 423083 799468
326 628230 616115
327 156318 759101
328 764217 961894
329 14537 763828
330 429757 117819
331 980493 193312
332 607348 985492
333 927521 103920
334 229137 383957
335 643375 209147
336 365519 109215
337 817385 701762
338 526897 353402
339 9733 348217
340 961118 777354
341 612095 454271
342 510093 169432
343 692740 533394
344 664630 107992
345 609763 856189
346 658345 853710
347 86604 174373
348 283191 98635
349 609898 42757
350 243203 23881
351 328702 246548
352 964109 645729
353 187373 173959
354 106022 986885
355 66360 230823
356 297263 906545
357 154064 573568
358 459473 126782
359 106708 432974
360 702300 828885
361 494021 186379
362 140753 619493
363 880445 118971
364 145106 171656
365 514389 352937
366 247380 22848
367 281856 730295
368 480091 705550
369 300206 936524
370 709958 565958
371 426685 231656
372 405691 780877
373 362167 471965
374 712957 467110
375 293928 164220
376 953528 438242
377 528368 890265
378 776501 305854
379 964691 233813
380 165637 481823
381 873753 169497
382 276926 500402
383 804138 65607
384 500853 373187
385 211400 987508
386 413824 639598
387 139045 538080
388 875356 55779
389 658011 250487
390 842992 574591
391 154279 911292
392 6018 32566
393 479184 77882
394 745921 781454
395 926157 414484
396 204696 927019
397 725124 722450
398 152133 787087
399 92610 867611
400 905521 306388
401 813954 462470
402 624118 719337
403 9940 42236
404 432223 495801
405 411081 698618
406 559933 183237
407 307656 751153
408 277126 946734
409 444373 554476
410 348268 17050
411 972996 633242
412 467665 905012
413 173553 951354
414 15480 419708
415 528139 833120
416 623555 162209
417 839405 144373
418 14658 971042
419 603636 254864
420 755439 532450
421 633509 191444
422 433185 909106
423 441487 571454
424 459353 820112
425 548896 200779
426 771607 672901
427 339472 72401
428 682832 651744
429 623064 479744
430 704679 38898
431 438600 177358
432 740362 878631
433 65108 368488
434 750052 398550
435 309666 705672
436 487380 624260
437 5579 147489
438 245443 300094
439 293770 395264
440 222179 521809
441 328289 535735
442 715029 489241
443 394520 446196
444 421847 960774
445 79264 646169
446 220989 205085
447 945198 49766
448 45069 9249
449 185865 285695
450 663662 141392
451 277683 64089
452 597932 27087
453 872489 235871
454 957872 850230
455 677880 236635
456 229897 662290
457 400479 58509
458 817908 233514
459 232160 690595
460 833561 55859
461 182622 464356
462 734887 168274
463 427988 423291
464 26327 978491
465 275000 9572
466 342222 443539
467 717383 985543
468 291912 665999
469 135256 656520
470 671332 161005
471 214035 731251
472 127212 23405
473 463547 756633
474 470197 776924
475 621777 621778
476 982921 207374
477 10695 654090
478 799169 834144
479 346705 612389
480 735175 206489
481 100615 301351
482 178898 516875
483 22599 498645
484 535077 377074
485 594961 61275
486 763317 455236
487 68818 211783
488 72938 975248
489 453661 80797
490 369104 593843
491 76585 413938
492 243316 68510
493 908956 40871
494 264640 200508
495 962943 793266
496 130921 758182
497 61559 610057
498 397688 758799
499 662433 915428
500 950466 488299
501 302971 389400
502 407819 27933
503 545193 568983
504 964057 942184
505 745134 758298
506 569504 146197
507 649445 941909
508 75568 342433
509 239792 568840
510 119186 263800
511 836212 619648
512 426607 106662
513 758303 373916
514 47416 40884
515 666590 503954
516 11190 511476
517 335663 610806
518 24339 930387
519 764492 301407
520 992941 566523
521 801079 695799
522 81321 699142
523 957053 511272
524 331574 954896
525 851753 23771
526 711382 621548
527 248838 446511
528 477108 791494
529 53737 797013
530 3593 614805
531 804490 662650
532 949242 178610
533 957219 873704
534 64876 950302
535 984855 564295
536 10858 284895
537 717087 95414
538 552418 214663
539 370810 980095
540 629553 966808
541 320179 250403
542 37290 51784
543 699463 348539
544 562233 157052
545 653587 150635
546 865510 814189
547 316551 428646
548 555664 516183
549 978712 985906
550 146724 742390
551 140462 351479
552 325342 884944
553 703592 460979
554 584258 197053
555 747047 128568
556 229261 896684
557 143426 852958
558 749295 990301
559 346098 520596
560 622945 441035
561 894991 78970
562 803578 242464
563 423833 659378
564 959552 832142
565 391822 91439
566 630405 173756
567 233047 500984
568 737547 423494
569 106977 184332
570 302489 709162
571 2440 41636
572 534106 212551
573 255643 786540
574 10611 74087
575 4812 896285
576 556630 146569
577 594084 55285
578 111985 966705
579 118432 824358
580 147397 280097
581 354001 399925
582 894563 37885
583 126128 187624
584 362578 930874
585 597314 962754
586 979690 272011
587 515784 726659
588 884405 748421
589 484885 748292
590 130479 457128
591 540946 135194
592 684745 111724
593 737437 230479
594 279193 195161
595 374856 549923
596 60916 176102
597 587018 339735
598 729472 730428
599 525852 807446
600 328145 507221
