NAME : portgen-500-505
COMMENT : portgen N=500, seed=505
TYPE : TSP
DIMENSION : 500
EDGE_WEIGHT_TYPE : EUC_2D
NODE_COORD_SECTION
1 968877 987545
2 524988 939330
3 538110 196971
4 268261 950232
5 711205 142179
6 346979 711401
7 612047 90092
8 45610 956453
9 746209 907016
10 249955 644890
11 177352 288885
12 8573 500428
13 3182 927893
14 113393 468880
15 377484 865004
16 940916 568084
17 658209 586333
18 323817 821005
19 708644 526081
20 878611 339150
21 764618 537747
22 748881 916286
23 76408 231518
24 617567 206688
25 226582 557151
26 669455 13570
27 771593 898758
28 818213 400792
29 329335 938655
30 615512 717105
31 488327 742180
32 71621 372054
33 377560 809231
34 962519 695761
35 13683 814092
36 338886 539521
37 680434 692803
38 975435 163781
39 517291 109814
40 682214 602389
41 598558 174738
42 853367 660379
43 376677 198736
44 496463 286155
45 208772 514586
46 858485 12883
47 512397 64518
48 263 225097
49 857313 56077
50 940851 912627
51 714227 507752
52 524473 624192
53 958593 494717
54 160203 111214
55 522081 619477
56 904329 43180
57 729882 100926
58 858619 475443
59 229782 7102
60 371791 152463
61 951918 906442
62 754910 101056
63 99865 831134
64 15047 56241
65 734210 480717
66 3578 406076
67 587733 62737
68 698060 555378
69 444855 752440
70 801759 901233
71 968954 489361
72 914363 56308
73 562667 952042
74 257973 411340
75 964653 169129
76 210049 801071
77 321867 460133
78 909049 308150
79 920018 461735
80 926131 403215
81 49861 407763
82 309454 620847
83 650522 414967
84 128816 673573
85 538259 906576
86 217470 818441
87 42448 202661
88 942414 150846
89 584575 294776
90 192007 791715
91 911115 553312
92 130109 330995
93 430855 595815
94 96622 966886
95 412214 283092
96 426561 771282
97 214181 895183
98 683763 150512
99 446912 711702
100 113894 411821
101 367467 963196
102 219333 172937
103 258014 656736
104 670962 990871
105 29277 313234
106 211527 953132
107 49520 643039
108 976653 278579
109 193581 414271
110 937084 500010
111 968055 417113
112 559679 126437
113 539109 254273
114 599107 869511
115 944647 285677
116 479884 593703
117 265498 878773
118 580188 957982
119 503791 487070
120 354341 152276
121 402233 682351
122 29801 912204
123 315037 9448
124 211602 87743
125 356074 429489
126 551404 577401
127 767055 828216
128 931937 773764
129 697698 340560
130 592749 300031
131 152944 183891
132 636530 877001
133 911001 529175
134 923331 137315
135 328001 967205
136 66976 105838
137 58197 507594
138 948605 390653
139 650058 731462
140 194500 765344
141 556575 258547
142 276761 644615
143 132732 295992
144 957173 388496
145 967771 51012
146 34651 366475
147 159069 387136
148 85299 296394
149 624154 522206
150 963598 924383
151 359390 480139
152 893243 590729
153 872914 292857
154 300640 122440
155 695483 635944
156 816590 309201
157 372788 541737
158 265380 786469
159 24822 249393
160 791702 614606
161 905021 401124
162 173717 403618
163 607814 586837
164 212594 467467
165 634679 655747
166 90013 527617
167 35979 558555
168 948753 247373
169 885758 735023
170 379234 346263
171 271170 707780
172 596794 353165
173 145991 633526
174 192758 755451
175 779321 498462
176 83799 156686
177 887527 307851
178 834369 831772
179 444160 334688
180 641975 625541
181 407099 565616
182 743205 349220
183 364774 108810
184 712407 19623
185 395746 631853
186 593710 269371
187 470071 293240
188 530806 748334
189 513597 865865
190 569248 776042
191 142676 877906
192 825492 9138
193 248648 524397
194 784412 686759
195 193780 839942
196 534965 866134
197 339277 747380
198 752553 1799
199 237708 303553
200 822358 397657
201 119929 326892
202 186202 3278
203 355785 205893
204 331194 878388
205 59202 309971
206 47360 757401
207 140907 802032
208 90575 540965
209 226338 995825
210 596666 362975
211 871102 408853
212 197265 998088
213 511923 266817
214 83168 466792
215 937455 324913
216 417139 635208
217 806663 259276
218 728682 385275
219 736999 23459
220 918563 707682
221 298059 788586
222 90092 830805
223 968840 126112
224 668869 341188
225 235456 485736
226 918630 770916
227 366098 497444
228 980517 484721
229 520229 926925
230 274596 970509
231 468894 307735
232 959825 351519
233 11912 258773
234 667308 310102
235 833191 964463
236 872096 885149
237 760368 110930
238 444344 100186
239 42755 699820
240 17571 27202
241 746587 156242
242 192196 966945
243 856019 109404
244 675383 455143
245 247364 469909
246 717967 426897
247 190267 954099
248 835586 412909
249 28218 979162
250 386460 868654
251 83356 969048
252 323617 208253
253 739148 762387
254 578719 399152
255 641425 871113
256 809338 65086
257 679561 804686
258 252542 41996
259 117467 5725
260 515933 599002
261 230554 688146
262 923641 964537
263 881106 903047
264 561531 552114
265 371781 681957
266 521466 643602
267 58395 146457
268 217864 681500
269 476681 387509
270 714402 814022
271 991936 669657
272 939209 648361
273 239354 29820
274 503255 225730
275 72992 932538
276 851377 476103
277 607380 704503
278 347187 439753
279 910652 177160
280 990389 57647
281 285706 191209
282 684750 827402
283 879177 139681
284 125876 31200
285 565332 222721
286 538741 891737
287 932733 583394
288 747625 754451
289 80765 219138
290 617349 441352
291 992395 384371
292 561725 314134
293 396251 330256
294 958852 230993
295 267280 78183
296 555623 445481
297 822177 491680
298 275281 100198
299 736923 355815
300 900736 484903
301 949054 284117
302 608380 631640
303 940143 467006
304 914378 293246
305 308251 16930
306 480901 679659
307 909880 912205
308 502023 840224
309 369032 193069
310 552121 778978
311 402757 770061
312 130463 80428
313 273666 254624
314 283357 301093
315 643250 280618
316 840073 787519
317 910886 600418
318 960451 312735
319 474491 649519
320 812110 556026
321 961224 765783
322 678871 488301
323 675426 785562
324 315017 741748
325 218014 20657
326 816841 435830
327 712564 620117
328 644829 161535
329 373230 7961
330 671188 627408
331 992514 264858
332 481135 752225
333 55706 715118
334 787 421578
335 236779 716461
336 525207 627283
337 975055 531464
338 962137 966926
339 57497 510346
340 435598 112131
341 881393 275395
342 629904 15842
343 288104 575215
344 306384 158661
345 544712 245333
346 311947 52912
347 412740 95649
348 30818 333941
349 790728 147407
350 526164 708500
351 728065 804670
352 306150 105882
353 139263 541445
354 805926 696722
355 332012 69614
356 855150 214569
357 463248 425855
358 315460 939601
359 852117 385486
360 721406 721765
361 924389 853380
362 895414 528278
363 988396 720536
364 321133 869173
365 392200 420691
366 160999 360774
367 178333 365984
368 256981 666823
369 812147 204049
370 700381 348502
371 723098 920897
372 437254 822947
373 320943 458567
374 157498 884462
375 107252 310282
376 12808 921555
377 755207 105472
378 547500 367290
379 626337 940165
380 848901 472440
381 729298 601877
382 996340 983510
383 346516 934252
384 777314 640301
385 104911 856893
386 782103 967654
387 278233 411124
388 708957 2834
389 98172 789942
390 980777 621105
391 94199 380967
392 20271 919760
393 691393 559121
394 364434 194823
395 19467 322728
396 889508 171845
397 99137 843488
398 566398 755443
399 642664 26130
400 113990 318108
401 360395 367555
402 903684 486147
403 216083 631840
404 901283 835447
405 414079 988378
406 2856 431514
407 920698 526172
408 582931 557453
409 502740 152852
410 417111 591073
411 291588 751184
412 526311 786803
413 496498 414547
414 63970 792086
415 195041 77116
416 101551 262724
417 375862 992398
418 618249 662684
419 460269 494099
420 336828 133940
421 56381 211581
422 777711 428394
423 31139 138324
424 645534 312334
425 346989 151851
426 691472 850577
427 831089 36874
428 216557 97670
429 991692 911285
430 867897 553398
431 171571 407184
432 498618 280138
433 931997 791274
434 653802 492303
435 495033 444606
436 911918 190406
437 805862 265260
438 899600 441011
439 920094 489437
440 570245 398827
441 422854 152685
442 924189 641642
443 905544 694367
444 764105 95724
445 60401 826975
446 8882 967965
447 999065 892222
448 222021 865975
449 405719 512451
450 528793 590128
451 218229 156096
452 742088 948161
453 728996 538787
454 926388 189446
455 131329 522189
456 333564 895968
457 850883 40921
458 544515 203606
459 408118 606396
460 58117 66022
461 385554 141351
462 963510 904905
463 226377 755821
464 448317 857700
465 536264 360813
466 514623 730648
467 358107 48055
468 65263 526885
469 301801 883267
470 97126 701937
471 286249 157709
472 37606 994379
473 441420 867530
474 4455 94160
475 665845 466199
476 417657 548018
477 976186 167980
478 75504 487581
479 797989 694032
480 882898 202110
481 236986 43120
482 92319 429391
483 235940 175855
484 858362 856504
485 599501 676985
486 199151 313957
487 940551 591917
488 648365 837536
489 165164 795529
490 829400 738795
491 957832 754285
492 974802 334153
493 123826 471502
494 638328 928715
495 812115 889408
496 668523 445296
497 283766 420141
498 502786 972291
499 217157 445688
500 346013 603884
