NAME : portgen-500-501
COMMENT : portgen N=500, seed=501
TYPE : TSP
DIMENSION : 500
EDGE_WEIGHT_TYPE : EUC_2D
NODE_COORD_SECTION
1 579614 688041
2 968262 478669
3 328837 443173
4 685796 853908
5 63682 842638
6 439706 82091
7 44602 940255
8 441473 43866
9 114844 884129
10 97537 668105
11 297092 454897
12 160981 94232
13 704930 718792
14 598304 28825
15 380314 839814
16 967292 444586
17 857396 727299
18 200604 205647
19 839532 658487
20 790525 351836
21 914637 404519
22 234672 13501
23 880313 690485
24 564475 445953
25 423008 416377
26 486625 723088
27 628194 715574
28 503419 135028
29 830644 240963
30 278065 123190
31 603640 27309
32 63383 711845
33 928000 35186
34 847419 31100
35 59941 750988
36 479391 668891
37 461120 681159
38 181480 574003
39 826703 445406
40 590812 569902
41 888147 357341
42 750760 257123
43 236174 939982
44 381202 145550
45 799298 165417
46 358228 808432
47 598545 39536
48 872444 245746
49 943398 553512
50 832021 306310
51 863781 119068
52 855141 853106
53 528230 129284
54 972328 371070
55 479400 563436
56 753825 685094
57 441664 112647
58 764962 795207
59 428763 23846
60 839400 682254
61 91788 293906
62 199078 753630
63 887206 360322
64 813750 608014
65 152929 52195
66 601674 455632
67 966005 27375
68 816076 203053
69 915676 638112
70 492161 440966
71 511218 357355
72 306149 117044
73 73629 64321
74 609353 844914
75 152329 512122
76 431996 335383
77 400583 779825
78 704635 408149
79 153062 827765
80 37029 325176
81 213607 334216
82 878908 38434
83 52217 396469
84 378944 324620
85 39018 700640
86 185853 583849
87 871517 327278
88 250257 756404
89 893323 419252
90 48995 479057
91 207260 985984
92 570985 827752
93 838588 267457
94 576723 927571
95 975158 419607
96 824109 591056
97 599094 791520
98 255112 927369
99 485838 978871
100 866786 317224
101 170998 190101
102 795919 673272
103 304862 446011
104 764398 572830
105 941237 437178
106 831425 225491
107 852607 617421
108 501067 622551
109 735122 87388
110 783321 124848
111 910631 400073
112 457834 721793
113 529642 995752
114 787929 198245
115 22416 804246
116 992006 320493
117 478015 611816
118 647631 981769
119 133377 953563
120 326685 216036
121 532335 489335
122 144250 850310
123 508976 424036
124 133222 877300
125 261878 259359
126 139440 287593
127 956454 62540
128 325218 850504
129 712085 184102
130 25640 323093
131 312633 810834
132 246144 725200
133 904842 342090
134 81240 2297
135 108445 77031
136 489329 857821
137 825509 523961
138 985407 623038
139 443618 395293
140 396575 679137
141 283667 603826
142 172604 699323
143 491612 181172
144 74348 752814
145 706974 305541
146 900528 131080
147 845118 249654
148 726707 674513
149 663825 620288
150 864902 885938
151 980417 737928
152 480725 582740
153 975692 535613
154 114988 257130
155 570927 144046
156 776156 959270
157 477128 720098
158 422564 181553
159 965716 996490
160 998493 230329
161 678264 460951
162 137394 222507
163 96614 751401
164 377096 242769
165 548269 449794
166 508049 186488
167 824366 252529
168 902981 324396
169 126698 452506
170 276759 310059
171 215455 77857
172 754321 476645
173 627277 439576
174 993685 622610
175 153039 975306
176 297416 421056
177 72019 415108
178 377888 793928
179 913561 228195
180 679759 651296
181 408915 662481
182 980371 260868
183 928590 698298
184 204948 483
185 92820 982988
186 187867 343106
187 843450 23187
188 932912 257207
189 388932 722286
190 844619 302685
191 837839 148901
192 563009 896972
193 40878 845567
194 206116 563497
195 323938 204682
196 119447 126215
197 359685 293770
198 122191 872349
199 234407 731134
200 543732 370070
201 50644 271399
202 777990 850354
203 137466 148515
204 858046 175046
205 374229 532320
206 587811 350064
207 904256 475076
208 531848 282700
209 302796 686600
210 138676 56240
211 463891 473814
212 456750 722750
213 932343 916467
214 565115 993096
215 885720 784396
216 399160 213885
217 348057 312299
218 714873 487775
219 244644 87932
220 365124 758178
221 542771 519516
222 424821 267698
223 740791 645633
224 669464 636934
225 361427 205723
226 307234 241311
227 845413 759335
228 970909 836758
229 923342 465691
230 135480 649690
231 903871 770114
232 809922 616050
233 989548 68295
234 925242 636558
235 734285 886215
236 613235 665861
237 325173 932952
238 749006 222580
239 628400 697414
240 751841 95584
241 993125 99424
242 857615 236029
243 880525 629046
244 403963 732006
245 322750 646578
246 562532 608085
247 353646 478909
248 144943 876909
249 194343 491868
250 518691 518210
251 17232 972050
252 885093 265842
253 212598 207810
254 383695 609384
255 878810 341863
256 432795 191335
257 142941 488902
258 87158 295786
259 416467 331013
260 471107 112638
261 873951 433374
262 117867 216075
263 868982 641185
264 780767 59330
265 720354 541196
266 838884 19016
267 818603 409977
268 662789 801790
269 956483 368713
270 148871 584738
271 212579 72950
272 260899 210111
273 772626 129158
274 490218 137571
275 609926 503758
276 96142 135012
277 771513 977495
278 679325 998216
279 153446 475115
280 603052 410807
281 251327 14982
282 460512 294071
283 129284 359845
284 930435 932829
285 716275 958000
286 805568 278895
287 721086 967349
288 16496 738939
289 661860 140371
290 536749 870766
291 487738 305651
292 456277 309547
293 289869 823902
294 558503 524531
295 280693 302943
296 871354 23653
297 652437 190871
298 779170 933683
299 351863 293550
300 193614 33686
301 467297 349846
302 600822 739160
303 16019 790490
304 678734 461966
305 687626 855423
306 439713 628914
307 194422 300109
308 539452 227673
309 362545 269641
310 514901 195600
311 7982 636885
312 739214 682589
313 490702 455721
314 678073 981926
315 951329 226006
316 60205 199894
317 452745 681326
318 431053 858823
319 111229 156168
320 770094 62195
321 461356 288861
322 9630 85093
323 294961 234469
324 284438 969847
325 700168 323448
326 255610 369937
327 342221 967608
328 973481 267403
329 897101 919496
330 308107 157196
331 679260 522565
332 691872 625430
333 394066 150851
334 619283 109328
335 5147 304983
336 943234 392697
337 569473 191452
338 939989 638044
339 294664 771606
340 709107 223299
341 558620 758577
342 673818 794132
343 546746 537639
344 508021 827314
345 287259 280201
346 239539 1901
347 151020 465110
348 118961 68659
349 719388 818178
350 145103 656916
351 939804 512832
352 260739 476868
353 764828 497033
354 696118 548088
355 420862 435841
356 759381 69786
357 632236 27905
358 917656 677359
359 371544 226761
360 506469 325407
361 431463 801105
362 964224 348231
363 365178 430401
364 131957 92605
365 426624 442956
366 941925 746575
367 350744 273266
368 463917 488834
369 126340 645912
370 876476 869386
371 166094 281260
372 320845 961852
373 848738 438434
374 37676 802789
375 99932 688559
376 936701 626783
377 391554 702147
378 714991 193229
379 162088 987473
380 12950 275993
381 370692 50206
382 671611 551475
383 269747 478121
384 748940 670384
385 179167 479222
386 639683 568755
387 126829 817910
388 388706 804679
389 409551 262077
390 633240 171949
391 268313 144483
392 79654 150630
393 72264 891719
394 74964 799268
395 3519 985796
396 739893 455956
397 466745 397254
398 229703 597339
399 154430 502935
400 573145 44058
401 28882 775598
402 169549 927982
403 420245 792217
404 547128 240923
405 629883 823271
406 118264 362819
407 983954 27153
408 536100 914736
409 583460 274357
410 321772 672407
411 323690 246005
412 97238 135108
413 450339 864084
414 399205 198846
415 397664 596488
416 257551 168627
417 632194 809968
418 53684 905494
419 160529 52500
420 614530 157528
421 308258 800606
422 477496 331111
423 662106 493888
424 358717 331636
425 946915 365618
426 198134 955584
427 105270 976657
428 786507 860255
429 143403 359581
430 874298 514751
431 631688 494628
432 626393 472354
433 515012 317658
434 885322 652843
435 365047 42211
436 556018 251823
437 327442 956153
438 474273 368106
439 140735 120581
440 348601 590083
441 720680 39624
442 324548 882913
443 964800 762923
444 542233 159839
445 294955 736026
446 20172 507686
447 687452 572318
448 601509 56434
449 473164 521343
450 856838 294000
451 353153 238136
452 983035 356831
453 644937 158509
454 631035 222356
455 11857 23584
456 318021 983564
457 64625 138271
458 494579 124002
459 807175 54075
460 870845 458577
461 844493 363978
462 796005 71047
463 689058 317881
464 268788 970610
465 311215 315763
466 737070 918378
467 108724 325017
468 272061 737116
469 974998 186277
470 388334 840798
471 955747 488158
472 288994 836378
473 891533 656193
474 711680 616405
475 883259 283627
476 787646 502553
477 210127 541074
478 556929 434774
479 129412 658018
480 84769 907820
481 183510 444758
482 834022 171059
483 67836 829863
484 694569 228247
485 246738 838385
486 412321 190769
487 170815 587217
488 670930 341939
489 153851 254931
490 514117 254284
491 188469 610769
492 885840 403394
493 132253 292311
494 84355 937665
495 257180 442198
496 42547 746751
497 939539 549948
498 428476 764977
499 317342 701777
500 165447 549593
