NAME : portgen-500-508
COMMENT : portgen N=500, seed=508
TYPE : TSP
DIMENSION : 500
EDGE_WEIGHT_TYPE : EUC_2D
NODE_COORD_SECTION
1 260825 962173
2 692533 534826
3 945064 12320
4 205110 272475
5 446847 616835
6 277434 683383
7 37631 952471
8 248713 640894
9 219733 174181
10 364268 127479
11 87546 414375
12 894266 55075
13 476871 334719
14 499709 298921
15 875362 883896
16 421134 660709
17 758819 480609
18 166227 782523
19 610478 176777
20 944676 79635
21 402103 387668
22 384538 593374
23 473480 137293
24 657386 527239
25 329262 912731
26 56578 981431
27 379143 36145
28 54308 600116
29 203353 211923
30 368598 162541
31 401841 28332
32 327799 367211
33 214731 889765
34 298845 444256
35 478990 111420
36 983507 692493
37 844918 451536
38 70901 106115
39 35232 858121
40 766 876755
41 131366 287785
42 930322 712821
43 482054 392801
44 332909 391608
45 265878 276462
46 483678 166221
47 697786 833255
48 96127 709610
49 542749 933001
50 522473 367365
51 102060 799265
52 526472 452507
53 781365 768792
54 51109 666321
55 554091 661507
56 267206 811744
57 946045 92136
58 678862 235620
59 330546 494543
60 271083 505120
61 347015 365844
62 921783 111625
63 9359 184242
64 166021 392411
65 670171 302108
66 55005 368910
67 304029 339259
68 609548 319621
69 341740 838186
70 33958 246433
71 62255 838365
72 120524 760757
73 929446 117834
74 244437 586160
75 823896 911885
76 543588 150338
77 262829 220364
78 312359 733150
79 495235 187213
80 842958 461744
81 427052 212923
82 632363 307657
83 599251 428841
84 691219 185288
85 162689 561028
86 991182 744385
87 670647 359198
88 961532 196677
89 103014 701419
90 799266 276208
91 689006 978808
92 549452 208426
93 875056 842082
94 736547 996371
95 740007 180706
96 628401 156451
97 675496 472929
98 255251 317869
99 167717 761326
100 799225 732769
101 14819 543018
102 786894 547687
103 222878 564780
104 600885 54403
105 345308 470276
106 996603 498864
107 447205 662251
108 833342 270600
109 537426 159433
110 52406 281382
111 261123 929893
112 386063 429920
113 546208 448163
114 957491 122960
115 136319 396751
116 595792 48611
117 356110 328990
118 279605 190142
119 531602 887200
120 375084 604455
121 304656 577113
122 943964 458625
123 919583 698507
124 770388 245575
125 926720 807087
126 360378 44757
127 625006 402473
128 136976 966208
129 186907 457904
130 268081 32736
131 33178 713684
132 679319 740852
133 165620 419489
134 554899 988580
135 742668 134835
136 500212 291850
137 232712 245319
138 921003 216365
139 304887 983589
140 292943 580000
141 261255 499587
142 854878 103583
143 363573 882108
144 369292 615258
145 163369 860115
146 635243 543022
147 144532 240248
148 104243 12805
149 344401 698645
150 537621 703217
151 393619 786798
152 952632 346720
153 545831 860790
154 189878 521422
155 38900 254868
156 596916 571649
157 294534 407966
158 397492 490155
159 569151 439070
160 636609 152814
161 75088 856253
162 450958 39450
163 741215 713414
164 339218 885991
165 699487 60213
166 26487 783465
167 944689 38074
168 983083 689606
169 205053 446912
170 706090 873417
171 312956 930221
172 978648 10555
173 785026 778989
174 92063 105081
175 499033 390829
176 673587 458409
177 999157 477408
178 676730 610154
179 842109 914557
180 363637 856225
181 655737 742966
182 815331 165483
183 941912 666694
184 593001 283979
185 622939 618502
186 398092 464070
187 940037 245780
188 479227 616679
189 857095 973550
190 362720 131060
191 871304 424660
192 522353 843262
193 404475 283520
194 968133 779205
195 96162 316388
196 96604 921073
197 823972 87587
198 475324 848886
199 990184 732867
200 531327 168347
201 921893 118513
202 742361 367972
203 519524 248926
204 936055 155895
205 72933 393210
206 642021 62904
207 818395 47249
208 759620 734664
209 918994 727743
210 690158 93026
211 676510 860133
212 752651 454592
213 696609 279579
214 721708 572064
215 726256 230301
216 680623 701200
217 900617 969509
218 489039 808400
219 606265 475104
220 83641 669811
221 364525 240389
222 89046 3135
223 639877 236471
224 168422 369379
225 390978 195745
226 127177 418119
227 6611 301026
228 487723 220692
229 217895 772851
230 878932 711123
231 642660 460951
232 72253 403122
233 28685 401631
234 973857 815259
235 407371 523149
236 566241 549615
237 336765 494413
238 965848 258390
239 853521 451625
240 966868 475916
241 61683 948857
242 693132 15132
243 587640 219672
244 628947 497495
245 940824 87407
246 834542 791005
247 67733 560492
248 103569 814909
249 903624 594632
250 37287 381487
251 382949 716796
252 402510 915062
253 134061 178320
254 724987 991479
255 713385 268051
256 591744 720400
257 832027 791524
258 876580 851654
259 393218 511760
260 299552 213775
261 498007 379224
262 777972 25884
263 140199 849445
264 147104 421702
265 360352 787528
266 533403 862042
267 738239 698817
268 884171 341283
269 116830 901607
270 138551 735985
271 826454 117187
272 197942 727048
273 589400 455317
274 13033 41848
275 420292 254124
276 667804 481922
277 234280 249758
278 848084 520907
279 978557 703693
280 30891 792777
281 61490 823380
282 852928 977400
283 441597 474557
284 522457 104978
285 202124 421263
286 838621 351369
287 91467 45428
288 545971 16085
289 144944 528213
290 177800 619292
291 870887 443411
292 390811 567574
293 726037 710022
294 9114 760838
295 257219 409613
296 818825 11851
297 699483 717288
298 897364 475084
299 25719 152514
300 181077 573315
301 310373 484820
302 864048 800999
303 383236 224392
304 91110 666705
305 523720 138061
306 511792 217718
307 446473 621277
308 973952 49638
309 123897 135639
310 80036 966512
311 448838 369943
312 923900 628808
313 110889 353800
314 487320 290468
315 662191 321578
316 924974 478239
317 4492 39738
318 107500 653169
319 996937 769533
320 593622 676399
321 586125 873474
322 680802 290707
323 960775 448882
324 87951 70674
325 606398 543563
326 987764 735251
327 490322 859499
328 648341 832133
329 480328 824310
330 693499 730067
331 227455 321577
332 73082 847321
333 551936 638318
334 536915 155766
335 660502 525069
336 961687 53222
337 529241 536472
338 978747 713587
339 879621 64401
340 980467 278756
341 873472 663009
342 596968 932124
343 94123 603397
344 405156 157170
345 487802 469182
346 116253 841171
347 109031 68552
348 714712 532902
349 344233 144329
350 311959 247188
351 569260 23549
352 90207 327642
353 670090 324754
354 138282 558197
355 765376 44944
356 426977 323157
357 336508 224317
358 613814 386283
359 212546 4530
360 132609 19033
361 294084 392585
362 843806 413314
363 955809 938137
364 963014 201598
365 866382 653993
366 575304 321424
367 299025 935522
368 851778 550315
369 326501 372651
370 318310 707839
371 390850 400626
372 24561 468768
373 175097 723667
374 997364 695716
375 112743 776574
376 569888 142634
377 277947 657966
378 671883 247836
379 724524 154684
380 475863 119774
381 998252 765631
382 239887 57536
383 654093 26351
384 298595 867739
385 49220 890146
386 388919 516829
387 891787 356034
388 449145 151450
389 114638 185840
390 741431 707973
391 213613 808329
392 725735 746607
393 655740 809673
394 81536 241488
395 281429 825426
396 251720 458762
397 323430 428163
398 318920 874020
399 508839 668527
400 19623 23646
401 609029 811524
402 954285 404770
403 562961 761558
404 416899 531340
405 2226 862209
406 166299 483035
407 873255 650436
408 868054 539490
409 442200 811723
410 738616 780072
411 517512 630068
412 848115 25573
413 281117 577395
414 562544 487016
415 793073 687586
416 734551 583297
417 183614 879221
418 541673 730577
419 935074 75298
420 878552 116249
421 367473 269813
422 502872 501356
423 307914 621651
424 610646 297857
425 147045 741525
426 311476 21822
427 875453 332036
428 289094 25731
429 627909 75063
430 863096 832383
431 826484 341600
432 652787 885976
433 494736 896486
434 980162 371899
435 342522 246402
436 928844 144343
437 664677 997090
438 468596 495690
439 754614 516079
440 736479 255386
441 949485 487480
442 623919 960689
443 861102 392950
444 930510 297637
445 384485 645187
446 750414 563174
447 732775 632149
448 187405 223130
449 605135 505781
450 32760 812224
451 867037 94567
452 561377 891659
453 792040 823995
454 397902 914763
455 470934 896144
456 95221 330272
457 690577 217909
458 81968 263309
459 608825 20637
460 698571 271605
461 291350 474381
462 339138 530298
463 379365 834276
464 582965 773017
465 205050 644600
466 97787 839851
467 45144 840334
468 160164 619212
469 796902 406010
470 878721 597792
471 784125 909872
472 599065 112879
473 353836 276033
474 224035 202477
475 252784 353128
476 640164 832117
477 300731 388160
478 714436 27186
479 49422 721043
480 731494 172827
481 27093 991892
482 36042 873141
483 112018 185349
484 731206 577698
485 864073 805935
486 39273 406347
487 767853 345443
488 631440 459233
489 173649 950978
490 815862 352179
491 784854 861922
492 41523 32223
493 617507 105895
494 803808 172003
495 728315 974815
496 888005 219204
497 541936 72786
498 558518 377777
499 142018 253622
500 481439 894602
