NAME : portgen-1200-1206
COMMENT : portgen N=1200, seed=1206
TYPE : TSP
DIMENSION : 1200
EDGE_WEIGHT_TYPE : EUC_2D
NODE_COORD_SECTION
1 187309 725587
2 341228 420166
3 963120 50131
4 845201 581043
5 939559 386726
6 96562 497849
7 56819 599184
8 170609 887379
9 392890 667962
10 961145 76493
11 192879 945180
12 299018 436343
13 21849 322824
14 382697 88517
15 381627 279423
16 818500 211258
17 500758 882085
18 166928 162451
19 770479 572007
20 315734 365879
21 723743 135984
22 613966 129235
23 192099 547573
24 921992 775444
25 552885 977728
26 460466 170475
27 402340 1623
28 985855 976050
29 224828 459142
30 253237 800669
31 279651 273193
32 265309 573679
33 662982 960578
34 883882 927584
35 407085 623035
36 965386 617446
37 115077 983417
38 616027 22404
39 542840 297394
40 450487 45799
41 97996 923554
42 835279 580957
43 999771 545306
44 945949 927079
45 219103 206350
46 278568 842895
47 164922 692698
48 400492 106297
49 20907 630549
50 513208 169695
51 4733 624597
52 324956 507085
53 879732 536912
54 335196 821382
55 1852 440549
56 30100 297748
57 240039 46887
58 522100 436756
59 108271 572610
60 173186 556685
61 939670 253332
62 414376 237389
63 618302 340789
64 292489 607991
65 103684 79114
66 687207 721458
67 295542 9938
68 15699 800247
69 683514 788392
70 58857 563015
71 437035 373339
72 753893 662418
73 266679 25235
74 428518 927533
75 74396 59703
76 813808 412915
77 526864 434093
78 482487 283275
79 329055 315018
80 491386 79484
81 853398 546804
82 762525 438836
83 3514 656761
84 543855 577621
85 780207 496864
86 8237 180737
87 498213 113482
88 742876 526754
89 726467 980282
90 754901 335026
91 11734 977470
92 116605 24199
93 225716 140403
94 958933 856705
95 6424 358937
96 256392 105892
97 8184 561992
98 554778 256297
99 875125 640410
100 919541 739924
101 298767 448236
102 172631 739370
103 47969 836337
104 296310 502665
105 208377 342084
106 324342 472349
107 308594 132448
108 823092 747506
109 538619 200532
110 884058 747216
111 781635 903444
112 658080 40283
113 198097 560000
114 8106 758843
115 65512 906539
116 230444 223802
117 771904 412817
118 10683 539384
119 668876 984157
120 201106 478209
121 601783 758400
122 972647 259207
123 577302 352947
124 447811 967901
125 363895 994777
126 248191 116281
127 574898 13001
128 509480 74965
129 676331 759813
130 728686 508584
131 167461 312153
132 301558 730167
133 740300 565942
134 499701 49387
135 555146 470145
136 299694 570718
137 836637 889281
138 499025 665354
139 328546 645079
140 530803 123132
141 883669 248292
142 30157 556928
143 739078 918291
144 922244 41737
145 672517 444741
146 39683 619488
147 429010 730961
148 178514 31065
149 921762 83365
150 760181 911947
151 24401 802731
152 437098 240763
153 111108 999898
154 86123 17970
155 273922 591188
156 152720 634594
157 87296 283944
158 468901 547972
159 883142 570596
160 551652 709234
161 644180 416335
162 289205 643198
163 445743 496963
164 133620 595874
165 778173 499126
166 579230 310576
167 371156 939614
168 970411 249074
169 160995 746212
170 88026 191106
171 35149 351648
172 490084 963282
173 800560 623347
174 330283 785811
175 285217 681551
176 897444 325887
177 305192 261054
178 332716 713825
179 431574 497483
180 270351 862033
181 838903 339910
182 929943 82816
183 556039 801071
184 144510 124013
185 483383 845554
186 217688 97330
187 285378 870101
188 811790 318293
189 111143 28150
190 310482 731918
191 65388 636137
192 325523 916139
193 660223 239320
194 380632 288340
195 383575 169339
196 104564 36981
197 262829 242472
198 973417 937818
199 66269 619983
200 151491 482267
201 512203 302132
202 475329 553298
203 616163 261307
204 363 389053
205 600831 93396
206 333192 143234
207 113908 101011
208 757469 801921
209 77081 687471
210 109398 618220
211 734802 524526
212 972521 1116
213 333350 915556
214 622001 732079
215 253937 550483
216 317929 722090
217 427319 217085
218 398726 922154
219 522228 224512
220 158669 858302
221 162238 693161
222 178942 765354
223 434537 580037
224 64459 261712
225 909121 57860
226 315817 334190
227 366045 601008
228 164338 790113
229 874812 258243
230 154572 694009
231 739078 775851
232 230383 742528
233 931157 640031
234 964292 348554
235 666473 177432
236 737461 815368
237 778349 51537
238 302403 400611
239 158481 371513
240 836778 543236
241 40744 363757
242 577506 559928
243 811405 542078
244 491707 684790
245 285927 758694
246 957861 173674
247 558038 981237
248 120841 346869
249 914811 127404
250 462950 33926
251 421556 692946
252 424934 365884
253 17116 952059
254 756683 806117
255 789602 622259
256 298406 190021
257 972316 395878
258 736147 565403
259 217812 249145
260 621687 584288
261 725220 836888
262 885603 632547
263 755876 44514
264 390434 412465
265 34421 350343
266 643928 352363
267 581910 214518
268 244830 850722
269 391441 181628
270 823780 246002
271 324266 242561
272 63103 701639
273 33474 120973
274 288071 925491
275 225361 76326
276 956435 502346
277 92983 112606
278 389997 69192
279 111035 210416
280 121054 166394
281 560618 575054
282 982336 543600
283 297993 55844
284 126918 270676
285 362403 615173
286 277332 292320
287 23784 545361
288 627852 222873
289 743905 772996
290 242549 686683
291 933478 180018
292 291411 868027
293 789724 68873
294 370026 38309
295 916524 188985
296 723804 120764
297 819224 208606
298 968670 31945
299 218777 517741
300 73786 810600
301 377068 515074
302 682942 538677
303 142847 776417
304 210935 224955
305 322881 321123
306 699165 72725
307 293891 932068
308 442590 439854
309 755829 773730
310 574930 266048
311 837067 609176
312 196889 551803
313 238105 762257
314 609378 485106
315 402513 851435
316 11938 518949
317 450115 921425
318 987518 860753
319 886126 359343
320 425436 349870
321 313043 596296
322 463379 650476
323 351918 114627
324 923874 267421
325 970501 206412
326 422567 733670
327 115227 222351
328 798661 858119
329 64959 761516
330 551159 282094
331 890290 851592
332 799519 973011
333 8079 102869
334 609346 643414
335 580149 327962
336 515979 488408
337 803228 368517
338 843480 103397
339 493948 974537
340 753141 379985
341 697298 847861
342 933947 120419
343 961144 160346
344 719429 477103
345 913345 884649
346 251406 242712
347 779193 97474
348 833891 824635
349 793068 94861
350 806995 248521
351 620678 949337
352 514279 590516
353 509113 574705
354 799722 994808
355 261207 638314
356 138689 587855
357 848170 666510
358 30687 647578
359 72398 702044
360 139119 183444
361 309801 514484
362 836418 331628
363 707284 566642
364 974128 212712
365 859403 268775
366 303674 499140
367 713330 114827
368 241295 109442
369 999691 267437
370 89732 313566
371 87948 17385
372 337983 729901
373 574847 736921
374 406293 447565
375 390190 267249
376 850507 580355
377 235457 538220
378 944846 121538
379 236006 399452
380 349220 399671
381 575013 532284
382 905076 947641
383 550366 121304
384 249871 118269
385 91662 293765
386 241284 624833
387 311854 871870
388 332937 729445
389 279027 298198
390 386781 585745
391 330635 574675
392 863491 459732
393 693761 771389
394 594064 765688
395 564460 119991
396 859571 881422
397 175775 795966
398 72281 463114
399 705530 466113
400 396964 845402
401 457894 108095
402 60783 804444
403 936614 275831
404 716864 775724
405 844458 173457
406 527473 470317
407 834992 229229
408 540099 693591
409 356509 109109
410 875359 87251
411 415774 783758
412 721304 246259
413 835870 133189
414 564050 507410
415 935256 57105
416 12580 503302
417 453740 213324
418 58272 860317
419 739683 634262
420 919633 169
421 414880 484954
422 890329 477208
423 704216 75812
424 160117 929516
425 960095 939092
426 899064 198119
427 530856 339859
428 832821 954592
429 654354 847459
430 746171 76296
431 536148 82602
432 856091 844288
433 758576 42518
434 579988 357783
435 525012 464286
436 533474 426992
437 149013 936267
438 188187 217654
439 252901 381445
440 413437 881278
441 478834 716591
442 761238 858959
443 520956 929978
444 647211 609451
445 454747 15753
446 280328 381899
447 109249 455346
448 466695 987887
449 335941 954062
450 289020 486562
451 822910 778671
452 516078 78817
453 460258 182473
454 436880 671896
455 818902 902843
456 307381 44903
457 392711 730418
458 795968 154249
459 973352 400745
460 377592 770689
461 706577 625926
462 68762 38450
463 641376 754802
464 910913 70196
465 476008 5714
466 780773 581005
467 562542 510594
468 573897 433931
469 323879 30820
470 62991 366706
471 956626 246465
472 231858 684058
473 309175 654402
474 313136 70799
475 813970 711892
476 76973 265744
477 478053 283306
478 705788 241905
479 216129 5484
480 504920 26327
481 858593 406060
482 608905 452195
483 946216 60915
484 813044 708652
485 421242 141565
486 841113 902552
487 586775 665700
488 693715 440833
489 147873 785456
490 332661 399470
491 538673 905429
492 565276 449681
493 147120 374713
494 972099 110346
495 564377 512981
496 620886 615226
497 609577 921425
498 525593 54073
499 659690 566158
500 990342 868342
501 506529 527680
502 738137 414499
503 173219 171544
504 700468 28371
505 136186 331074
506 269805 105782
507 441106 991938
508 405440 243366
509 796482 687479
510 926602 892142
511 401224 246885
512 718309 552900
513 635036 313432
514 164415 172275
515 492480 522171
516 740364 119501
517 649270 1586
518 129664 432891
519 464322 573337
520 44241 903753
521 578230 284620
522 183744 672235
523 111757 374001
524 896916 56676
525 286388 212160
526 889658 487415
527 73677 468171
528 127977 387027
529 878410 736550
530 284834 740328
531 707221 127130
532 984129 232432
533 752844 985185
534 922037 768871
535 880181 31438
536 346449 739806
537 401091 714441
538 2483 913809
539 173207 250138
540 424923 248009
541 435022 427864
542 887440 752152
543 814949 613234
544 135372 416837
545 248742 144479
546 510853 695450
547 693156 12802
548 557304 838424
549 883529 469303
550 669751 197947
551 200793 646778
552 631753 38378
553 777138 461794
554 599974 321524
555 653221 514742
556 251654 461572
557 487808 140355
558 229474 11771
559 433973 971326
560 675128 914419
561 101656 452734
562 99120 682233
563 830645 699671
564 108052 362712
565 937302 540689
566 313834 851683
567 596916 910180
568 996354 973450
569 940056 747084
570 522678 803177
571 179260 164045
572 741709 334322
573 42822 58118
574 596329 10922
575 182157 857632
576 730371 520816
577 532000 129062
578 884112 349110
579 49861 721573
580 42023 803688
581 521738 852889
582 798846 850044
583 335482 87609
584 719862 153485
585 97532 171355
586 415441 423050
587 789169 817495
588 184048 580839
589 920734 970058
590 798121 481535
591 649809 386479
592 320688 133614
593 18950 460945
594 52836 746872
595 574698 908745
596 253587 786570
597 649552 351322
598 387736 756209
599 374876 924214
600 150274 461983
601 137384 626271
602 212801 700621
603 207823 343892
604 200128 398385
605 110111 423167
606 296273 302989
607 146875 133277
608 550100 735168
609 203337 447524
610 462307 579272
611 712732 795648
612 3210 635549
613 33971 789170
614 210249 88547
615 609671 840156
616 380710 522349
617 859947 374953
618 185262 346819
619 239604 187410
620 583514 283782
621 257607 605312
622 284564 995425
623 196013 457939
624 783359 14003
625 317350 598565
626 545960 286328
627 314542 310118
628 81272 615035
629 766324 837847
630 515359 861003
631 104287 12718
632 814870 826328
633 165559 690960
634 18424 151449
635 937264 92160
636 951808 189334
637 130173 863742
638 33312 426404
639 481105 693092
640 554276 418936
641 22846 372401
642 573188 748668
643 735868 367992
644 707478 33618
645 209394 494301
646 328395 88154
647 250145 491353
648 331974 68273
649 475139 420822
650 962113 769608
651 976834 90266
652 459726 898414
653 575719 173558
654 713140 565874
655 574249 713280
656 907557 732705
657 628453 21057
658 532608 16132
659 762572 323517
660 494354 97285
661 215821 597602
662 189336 167655
663 115326 861541
664 729607 231758
665 288022 859753
666 713264 915230
667 118842 840996
668 511379 290140
669 743948 552130
670 216059 719735
671 605420 383960
672 539263 112109
673 278480 730792
674 898818 82489
675 376026 470432
676 338665 243380
677 132800 102359
678 56344 61603
679 971423 618730
680 387035 285579
681 429610 161009
682 349814 854513
683 107859 523596
684 193441 516344
685 742577 801815
686 117314 680082
687 947490 23921
688 758619 972440
689 464802 86976
690 111311 53723
691 890117 110877
692 844723 2443
693 430142 552254
694 565415 264329
695 733136 987782
696 96698 227604
697 809553 414243
698 602421 925337
699 436470 515342
700 353489 306040
701 265990 811841
702 971178 322303
703 580315 227788
704 398657 130357
705 672216 504090
706 496187 707094
707 885593 399252
708 188880 202006
709 351456 935570
710 252092 182521
711 87126 678099
712 162854 436537
713 535825 305473
714 708903 625186
715 443606 530831
716 573783 334445
717 414759 607220
718 557535 183022
719 225284 445471
720 813562 228136
721 200797 629844
722 12236 550614
723 900656 418598
724 64749 373015
725 878418 296948
726 216434 811283
727 71735 822657
728 732256 931544
729 397081 363958
730 764768 397292
731 2503 953185
732 316794 444080
733 303292 866342
734 694858 334978
735 498595 770282
736 137256 978440
737 57152 955144
738 966087 275842
739 606364 340197
740 704280 604280
741 908391 344945
742 860418 46314
743 528328 620597
744 17650 970679
745 303928 691192
746 488164 890306
747 946876 43279
748 90880 222357
749 572692 57091
750 584527 624814
751 812233 724552
752 668735 274137
753 388556 871489
754 950864 25420
755 294329 111659
756 913894 426401
757 60030 73575
758 909128 112197
759 6309 273515
760 353200 80935
761 293650 637766
762 750450 873780
763 958048 412704
764 309705 783014
765 566588 94597
766 324977 580943
767 45867 592620
768 690385 481989
769 284915 786843
770 137186 416130
771 614288 744135
772 617479 222992
773 397542 850397
774 139855 73095
775 85231 678175
776 912652 789677
777 490503 489929
778 299836 231290
779 678684 76114
780 583751 906566
781 586574 164021
782 888234 878198
783 497371 169759
784 808922 837037
785 676032 58730
786 972342 933213
787 188284 675024
788 168283 503972
789 147262 260520
790 573944 726758
791 734019 233590
792 199263 660021
793 508023 160956
794 692709 167668
795 95249 520626
796 673067 447877
797 110810 78456
798 443788 681074
799 555850 942454
800 54709 893569
801 703134 879334
802 499151 358472
803 944155 679061
804 590414 830481
805 981906 138880
806 538580 511015
807 980864 63125
808 233498 138696
809 53210 809778
810 434410 816296
811 613908 866467
812 782327 782463
813 355595 93007
814 434062 829811
815 730868 489221
816 913558 316781
817 278614 435063
818 188177 223004
819 252725 136137
820 426523 369326
821 107745 882930
822 733258 278953
823 906717 806600
824 665549 328347
825 722860 350781
826 247011 726039
827 211586 565487
828 980010 386353
829 600720 64087
830 170295 721151
831 426336 454276
832 403958 612579
833 31134 655649
834 777756 701911
835 156407 426898
836 473146 724863
837 86917 83629
838 569285 887868
839 654881 216839
840 802452 969241
841 492286 369974
842 659515 9717
843 62885 459282
844 912822 666034
845 403928 532527
846 445247 550813
847 979730 999624
848 896179 382881
849 796013 649629
850 709668 18848
851 151719 448709
852 525894 753619
853 858494 877036
854 66523 201868
855 502602 520728
856 473531 934686
857 660158 637767
858 275903 875522
859 474546 404333
860 716399 648253
861 859636 128127
862 992243 137558
863 275179 24437
864 198969 333298
865 225134 692248
866 821345 453013
867 714236 281724
868 495709 557600
869 709816 21748
870 733814 187362
871 984736 508488
872 949634 755675
873 672890 317120
874 558569 842171
875 724445 871742
876 183912 462715
877 424494 17419
878 197503 698706
879 734472 244170
880 257909 300893
881 167220 44775
882 468053 315240
883 535991 965042
884 985051 904483
885 964877 958783
886 316953 632374
887 679887 844656
888 464341 396921
889 703632 974824
890 940055 576472
891 289964 954798
892 75388 924240
893 525027 776569
894 984959 398996
895 745732 530667
896 572549 805332
897 56871 775031
898 870408 352361
899 828601 104978
900 291334 275969
901 613487 583745
902 902116 147972
903 581778 229113
904 387326 500253
905 492392 420934
906 713746 335476
907 498438 727242
908 728344 361887
909 987904 693022
910 444831 183630
911 136441 880073
912 613149 688908
913 345295 733207
914 730258 531914
915 262878 235227
916 9594 203379
917 482431 519120
918 862725 954487
919 456360 348145
920 195896 163139
921 788664 291936
922 954164 562102
923 394225 692476
924 192183 367962
925 429735 137201
926 622103 296686
927 842099 56106
928 266374 410107
929 101313 382995
930 285246 627290
931 772752 39181
932 304357 329252
933 632269 421810
934 381312 936336
935 333017 35867
936 169704 619941
937 263287 307630
938 561526 839755
939 37973 557042
940 422534 935187
941 631893 347262
942 246667 635587
943 462474 970413
944 899022 153179
945 886851 440915
946 573175 520024
947 15128 160028
948 993435 168723
949 28649 646533
950 575 554470
951 654503 635141
952 945428 494547
953 505307 274841
954 50018 206512
955 593632 295960
956 511085 948134
957 496144 844331
958 54115 252728
959 24052 144328
960 335817 463546
961 393160 734778
962 935760 778547
963 381364 534563
964 674512 768739
965 802322 286685
966 789736 831460
967 963410 126574
968 424102 683758
969 851118 402336
970 581471 209746
971 946361 754693
972 817361 423305
973 47755 838396
974 584264 236581
975 778663 458871
976 494210 259910
977 844210 713890
978 764733 823042
979 671730 818854
980 70445 821548
981 423723 647681
982 625040 383885
983 349598 756392
984 130773 72838
985 796576 215718
986 668463 787471
987 365664 876945
988 969335 133250
989 890567 221869
990 13813 558322
991 862832 855658
992 698294 980774
993 862961 142054
994 206419 579524
995 776975 667710
996 552985 778279
997 605760 365752
998 541282 158890
999 389029 940416
1000 453969 914504
1001 947828 362394
1002 222767 220341
1003 596039 638552
1004 561615 863436
1005 850928 622678
1006 616622 92205
1007 41879 402735
1008 268563 645443
1009 41921 259288
1010 842602 190708
1011 367362 190357
1012 618869 882071
1013 267889 306069
1014 564703 145323
1015 280905 330783
1016 571634 27131
1017 370941 391135
1018 941700 770626
1019 813778 295558
1020 712210 217517
1021 100133 947131
1022 736922 586267
1023 300347 362628
1024 159409 723689
1025 97862 235213
1026 594187 243705
1027 659510 123185
1028 342870 920697
1029 991453 831632
1030 278641 825412
1031 824773 266057
1032 151226 633410
1033 522544 669490
1034 355283 455612
1035 102388 905935
1036 486033 318231
1037 161425 607389
1038 596521 123657
1039 530847 495683
1040 539200 347191
1041 314616 733070
1042 866682 455493
1043 506009 305577
1044 875904 737530
1045 868590 272209
1046 415342 358166
1047 193170 806275
1048 731484 781901
1049 785706 129532
1050 989746 176689
1051 831780 663726
1052 184488 750670
1053 920597 861116
1054 377023 204016
1055 617175 37292
1056 44793 253923
1057 963042 6431
1058 410069 466607
1059 72886 344950
1060 901926 740643
1061 883784 225751
1062 465866 925698
1063 74154 822307
1064 133743 410754
1065 686792 735404
1066 746633 326830
1067 878507 501908
1068 302398 60693
1069 770028 860250
1070 45423 39402
1071 232691 530954
1072 835603 127947
1073 388425 189591
1074 892300 267472
1075 732120 909176
1076 648158 374951
1077 442739 254341
1078 430055 504950
1079 785218 682580
1080 448271 859903
1081 91088 516773
1082 158593 577773
1083 804601 513838
1084 418319 835095
1085 618006 220478
1086 574306 805413
1087 612829 992750
1088 92484 508832
1089 783011 211524
1090 495642 569203
1091 37088 451163
1092 962482 826888
1093 644315 229860
1094 168236 300734
1095 697306 788560
1096 642373 934932
1097 242243 824945
1098 465095 427277
1099 918124 842853
1100 35462 879592
1101 406580 680775
1102 771829 162917
1103 872088 196994
1104 412469 615851
1105 610025 200194
1106 336713 484484
1107 985273 659711
1108 217530 156155
1109 274529 333648
1110 112677 377323
1111 595714 575466
1112 799632 738413
1113 813897 893531
1114 33583 449912
1115 120661 895490
1116 96363 167160
1117 601498 295447
1118 232490 552604
1119 465890 302770
1120 609358 488160
1121 955331 834588
1122 188057 319983
1123 192845 66907
1124 135300 503829
1125 11047 571564
1126 393693 468211
1127 722191 139972
1128 783229 239419
1129 79276 476382
1130 930426 319483
1131 731104 109698
1132 6493 121865
1133 244863 502125
1134 296426 665290
1135 466866 150623
1136 20855 770699
1137 322601 541112
1138 983629 127503
1139 853274 659660
1140 955184 574477
1141 814254 557201
1142 519485 801178
1143 164385 986665
1144 160667 479633
1145 50583 730364
1146 256177 800599
1147 835904 458735
1148 467305 184631
1149 511987 646944
1150 336353 65341
1151 213632 475639
1152 548645 436569
1153 757310 836492
1154 948725 921013
1155 975586 796564
1156 78752 599642
1157 425798 200062
1158 63306 930504
1159 273793 547757
1160 654560 60231
1161 990137 649481
1162 328937 401524
1163 936990 545215
1164 222054 886031
1165 783802 147137
1166 178778 932261
1167 684073 158620
1168 495725 214611
1169 131402 319423
1170 737871 233880
1171 712871 612909
1172 825073 990352
1173 740227 606695
1174 471662 434380
1175 521744 922089
1176 962577 625955
1177 863142 189215
1178 886563 281371
1179 791566 390025
1180 940844 542698
1181 705089 629301
1182 183141 741706
1183 83692 465843
1184 774569 435446
1185 459835 456610
1186 458842 839413
1187 26013 732470
1188 97654 364182
1189 786339 139721
1190 514960 655618
1191 753649 832029
1192 945187 241103
1193 442047 549476
1194 749119 942367
1195 74927 29881
1196 440042 695956
1197 859588 281261
1198 775038 873457
1199 586895 92603
1200 892697 376044
