NAME : portgen-1400-1403
COMMENT : portgen N=1400, seed=1403
TYPE : TSP
DIMENSION : 1400
EDGE_WEIGHT_TYPE : EUC_2D
NODE_COORD_SECTION
1 358537 726150
2 9986 857718
3 19792 924699
4 31588 75008
5 580052 889116
6 529755 991330
7 3496 228701
8 174353 832303
9 487607 545146
10 467713 433163
11 295674 519060
12 792909 191514
13 460762 371043
14 750818 261225
15 742278 519994
16 19475 293577
17 440819 939522
18 485177 968820
19 324233 301034
20 653984 991080
21 585295 947472
22 688748 591362
23 599790 693455
24 536787 491628
25 628893 660829
26 214859 726696
27 964760 23399
28 489458 64959
29 285330 70464
30 372541 50972
31 600466 730554
32 421024 588971
33 303821 582283
34 302582 412134
35 628911 480898
36 295515 995978
37 916253 806884
38 218304 568978
39 554299 769510
40 702056 395802
41 85712 680353
42 888684 691305
43 919528 288921
44 872552 851847
45 635700 902894
46 666238 912099
47 672123 173085
48 695564 589316
49 31218 881863
50 373057 30811
51 139155 767277
52 789572 233091
53 575116 534505
54 838011 273455
55 103870 200536
56 192407 433483
57 434763 469646
58 384733 688366
59 58431 247938
60 893407 714504
61 551064 420718
62 39076 598099
63 341742 528238
64 206406 683162
65 231768 683799
66 730966 280844
67 665640 501519
68 203394 652229
69 245590 419037
70 306571 231162
71 230490 624614
72 958440 921196
73 351829 245519
74 873023 74023
75 831342 167325
76 382910 348055
77 650095 689258
78 299845 858310
79 101637 288052
80 29696 922887
81 288914 418973
82 966883 872708
83 970046 567793
84 475043 513567
85 117816 139214
86 815343 984407
87 416595 726081
88 331594 203008
89 770623 349818
90 298254 483431
91 426601 918354
92 653466 308880
93 394885 311992
94 313961 792932
95 531472 635601
96 177185 732023
97 301220 167357
98 415819 246082
99 208018 232358
100 589601 148821
101 474896 523204
102 775769 347910
103 740724 464555
104 694589 341214
105 294372 987852
106 544349 308705
107 756579 394094
108 745701 556890
109 117753 799525
110 456888 723963
111 359774 242684
112 923965 968995
113 664317 292138
114 208637 68684
115 985356 867038
116 508419 429408
117 55445 310402
118 939082 117896
119 161774 259372
120 563179 837994
121 194239 514436
122 336043 807509
123 275827 934501
124 808058 332224
125 503040 123681
126 37444 139333
127 247002 722562
128 640401 45487
129 467759 465367
130 408828 622828
131 302781 435216
132 778035 456378
133 793612 29912
134 972661 949070
135 118266 811199
136 748832 785528
137 296485 333207
138 686518 220441
139 995681 201402
140 328594 618829
141 824378 743270
142 659856 362528
143 564257 73202
144 651373 599067
145 516789 909170
146 145234 212703
147 141105 751979
148 89161 408711
149 217951 2835
150 120990 55385
151 938819 606655
152 3630 884210
153 299302 294174
154 479476 884474
155 158305 567198
156 394114 868692
157 948577 499657
158 477594 90077
159 294111 26055
160 367216 384900
161 811961 969826
162 828080 62881
163 872380 142176
164 781897 412274
165 33905 392344
166 740965 111207
167 43096 761395
168 224715 955686
169 794693 160199
170 884933 474179
171 779091 625317
172 231850 131889
173 97208 175407
174 384623 78224
175 879599 946984
176 626813 805676
177 968930 728645
178 314420 827611
179 563558 242234
180 659495 343615
181 499481 319277
182 999540 684126
183 788106 768797
184 636841 816688
185 402449 302186
186 705454 215887
187 146456 420231
188 758087 6284
189 895 99434
190 748460 44768
191 578618 539662
192 752779 690289
193 892863 421687
194 111667 358970
195 973289 455918
196 318844 978004
197 757750 582747
198 768724 563204
199 478861 811619
200 373801 90924
201 174511 285188
202 329763 834831
203 368366 87150
204 52897 278640
205 835782 892732
206 715944 204588
207 268945 203577
208 24770 521476
209 561527 416792
210 915401 224901
211 289935 825222
212 442886 311524
213 127674 420266
214 886123 311625
215 51864 670936
216 953387 722255
217 263652 855728
218 328823 374030
219 270717 549201
220 665518 371386
221 860160 694874
222 443568 748387
223 165982 493622
224 535118 446225
225 455073 348457
226 677080 167235
227 759754 702865
228 137537 452256
229 21535 474035
230 506007 994336
231 816433 503695
232 613121 464395
233 32572 21069
234 761019 520558
235 37595 531148
236 986358 115301
237 961719 566943
238 547821 122700
239 65468 740020
240 173987 675417
241 398731 412088
242 805618 57528
243 854502 449691
244 109133 799256
245 823156 307754
246 613010 750158
247 511606 134370
248 385028 744858
249 733154 876624
250 200566 43282
251 428154 795097
252 272237 779655
253 949726 264992
254 361617 702226
255 848363 687845
256 343123 222278
257 650879 198253
258 381326 66274
259 992088 478751
260 79367 287713
261 287914 884394
262 319992 994313
263 102994 191260
264 843064 182064
265 617217 282828
266 761082 363242
267 891657 486141
268 332294 176452
269 761209 607365
270 676202 788227
271 457602 630382
272 719889 535442
273 19839 728615
274 430166 517293
275 31376 193767
276 901794 551090
277 259407 917737
278 282199 64911
279 903440 786095
280 447360 773274
281 503782 754252
282 26023 60135
283 230243 712740
284 502389 115436
285 178413 652710
286 636108 474795
287 447375 885600
288 385919 736824
289 624986 402255
290 712113 38082
291 287820 56968
292 734703 843942
293 779046 6830
294 337218 831521
295 255898 619553
296 674062 645772
297 428951 23491
298 152119 982807
299 183007 834288
300 149522 283014
301 103628 27910
302 805179 993294
303 905946 844825
304 816386 415465
305 138690 275369
306 727693 71918
307 530196 827806
308 99211 858009
309 325300 2532
310 908016 247435
311 529733 668100
312 965913 895399
313 549081 608197
314 669615 454080
315 979653 541093
316 920437 209521
317 263564 436744
318 310388 215902
319 526771 906896
320 744731 921036
321 681529 334686
322 923505 8463
323 89819 5962
324 679859 533552
325 474410 543921
326 313191 728926
327 854635 608429
328 362577 894107
329 764346 368435
330 682905 690044
331 318053 909490
332 670733 217654
333 593839 393007
334 148413 521733
335 737987 93249
336 178150 791748
337 528121 364095
338 934243 800807
339 813465 357484
340 532822 654974
341 843851 301179
342 771175 289608
343 223040 10947
344 538788 45910
345 842904 917381
346 67488 5038
347 168909 651482
348 742886 889780
349 806564 559409
350 74219 289012
351 192497 322374
352 730 819436
353 700070 12012
354 957750 565026
355 385389 351629
356 355319 718436
357 525530 765524
358 622555 313015
359 740580 19251
360 474768 704058
361 586442 589003
362 447513 448974
363 900751 855775
364 791018 708685
365 664024 922231
366 843056 248438
367 972095 181192
368 299655 125414
369 775648 5651
370 667053 910024
371 270366 519536
372 571141 138845
373 330938 478485
374 557524 719934
375 750730 887110
376 98762 97879
377 895385 151987
378 445955 944058
379 350279 819537
380 519781 574656
381 236363 952099
382 897973 475364
383 81262 835782
384 147294 386685
385 434586 144070
386 755490 20645
387 268521 587658
388 605296 488563
389 693618 295525
390 3019 956693
391 505496 971480
392 188904 89368
393 685868 890957
394 350465 496731
395 99929 463872
396 978119 388963
397 571064 522982
398 154534 249721
399 251014 983483
400 533549 842374
401 784866 261998
402 716915 794036
403 381613 127281
404 908974 806016
405 466119 554998
406 593593 853548
407 719608 55908
408 596536 847399
409 381034 374990
410 320830 831541
411 584767 163811
412 853136 592212
413 359203 493492
414 303730 474484
415 206044 478015
416 579589 887601
417 829406 448021
418 363100 651948
419 251872 132995
420 492832 838468
421 509922 975474
422 175900 268387
423 879104 814308
424 535827 978852
425 163778 661041
426 945991 776530
427 777438 55534
428 262785 897265
429 432592 268894
430 430936 729664
431 875409 775979
432 313184 627651
433 45076 618118
434 677647 451221
435 176804 782228
436 311572 402182
437 211211 659788
438 885550 808237
439 386372 797601
440 329426 461938
441 60899 34835
442 43548 476379
443 602605 803610
444 574417 201754
445 402944 744981
446 974301 800651
447 956191 710603
448 526896 107740
449 764262 516112
450 382836 70866
451 427935 738225
452 649425 701840
453 600142 911155
454 732982 301058
455 452928 459174
456 322847 230837
457 865949 685954
458 755363 74758
459 819787 602580
460 100755 937335
461 853855 161534
462 68384 105937
463 354293 573346
464 752756 509371
465 59646 974395
466 75255 85313
467 344673 870251
468 139090 830062
469 168886 357593
470 721016 527847
471 983822 971836
472 100999 465608
473 891126 812767
474 732266 850254
475 356310 953549
476 354983 254891
477 456466 408441
478 995611 342621
479 393552 779173
480 562749 770079
481 742269 375388
482 580042 925081
483 475352 351010
484 129837 400340
485 794828 942596
486 342491 969533
487 246270 147205
488 582352 598963
489 705067 659943
490 110325 11671
491 179794 973582
492 946622 289566
493 232126 699866
494 505270 419592
495 394899 788080
496 700224 768545
497 562765 778419
498 185355 14289
499 725566 953794
500 883256 292162
501 107699 72323
502 739928 344638
503 773755 381401
504 308269 166900
505 176315 295744
506 837350 973959
507 384274 774669
508 69855 973723
509 812623 801622
510 739725 461063
511 625444 176043
512 517083 502665
513 834897 270168
514 229604 901631
515 373449 200950
516 290694 538167
517 483628 814581
518 174320 205834
519 589308 171952
520 219711 258402
521 887243 703648
522 679867 933836
523 162636 524180
524 251461 60100
525 943522 915187
526 784684 823935
527 580344 682306
528 1468 569531
529 588695 925346
530 170318 567920
531 792093 136316
532 947188 917912
533 408500 133702
534 294092 450437
535 612033 545674
536 722261 752522
537 858100 824538
538 676378 801508
539 595699 834777
540 501196 265366
541 681473 304257
542 731312 805529
543 408857 154377
544 590978 565715
545 406080 40618
546 911742 138870
547 559919 674036
548 536140 134720
549 845547 855328
550 257457 361127
551 928481 416684
552 558903 678155
553 233713 480426
554 92622 774814
555 273449 847090
556 978552 22979
557 519266 129700
558 656178 653223
559 576396 273152
560 381772 273779
561 288155 438764
562 192980 250905
563 617193 305577
564 193619 179944
565 590825 195951
566 708886 820884
567 561327 654106
568 286814 658493
569 784991 601612
570 149351 755633
571 577981 317826
572 183943 132300
573 752462 472978
574 945890 309014
575 56843 230563
576 941101 665602
577 264503 61505
578 652241 107597
579 855357 904797
580 391341 575219
581 695434 491009
582 625463 517815
583 269109 660725
584 839036 386965
585 377237 183199
586 707333 267382
587 216309 151208
588 332678 622552
589 174260 131474
590 598664 509595
591 450219 288822
592 788602 15605
593 500516 217876
594 195420 43511
595 384996 626088
596 819457 398026
597 224375 966151
598 48300 310598
599 101516 32734
600 799622 129910
601 298717 814415
602 710349 547247
603 780343 652279
604 876999 248897
605 560989 434364
606 912176 811845
607 519801 765253
608 755761 297408
609 266633 659311
610 469515 958511
611 559208 806302
612 587342 247327
613 884481 892917
614 557033 669061
615 370865 680399
616 745552 925362
617 570485 164299
618 597419 638374
619 769021 23349
620 259843 203108
621 951242 536108
622 573996 426485
623 66879 13155
624 810684 977048
625 81669 155382
626 753565 432455
627 661868 119222
628 384357 373355
629 243930 546049
630 949828 141968
631 883258 853650
632 989054 357880
633 483121 376067
634 237848 93315
635 698373 742606
636 486724 289585
637 577642 314132
638 204946 126753
639 144433 468119
640 862969 511126
641 648986 10983
642 719233 228897
643 797141 891902
644 936308 212604
645 681178 221351
646 400526 675705
647 324975 517237
648 716384 661657
649 958466 259864
650 221539 940125
651 868721 342564
652 114078 570543
653 506396 742581
654 713221 432971
655 322081 492454
656 437047 31326
657 864871 728476
658 741442 207553
659 528674 471817
660 641495 821464
661 417600 977984
662 871776 758248
663 873884 144159
664 175506 7099
665 807735 462364
666 413532 711462
667 146037 370515
668 74079 617660
669 146111 990757
670 487454 589587
671 363228 464491
672 571108 859713
673 803750 422541
674 803928 566727
675 643352 572224
676 486150 951367
677 452128 759174
678 526592 157259
679 196526 743563
680 496463 888736
681 596469 722463
682 945516 732493
683 129226 972556
684 460217 5157
685 924725 318900
686 403624 961946
687 828464 69271
688 335313 466233
689 525856 112602
690 231655 716624
691 947633 431943
692 510635 918999
693 865894 691069
694 765945 413543
695 241288 101523
696 157442 140953
697 66032 168553
698 185963 401281
699 636026 501837
700 524400 337517
701 896685 691326
702 335072 926728
703 624591 54207
704 440732 533128
705 893280 835523
706 391314 782982
707 502274 394940
708 731293 455516
709 656431 776963
710 546530 727944
711 336529 958379
712 480757 587208
713 422215 712298
714 626874 901736
715 444679 281105
716 25501 992727
717 219321 396131
718 325310 164650
719 929668 115695
720 187706 410378
721 34638 988982
722 867012 513344
723 764994 199063
724 660195 478824
725 746337 473664
726 774407 734290
727 57157 243294
728 312016 903957
729 472004 938940
730 601417 459940
731 124539 325037
732 345421 482902
733 800885 402331
734 915969 988930
735 629946 532229
736 795320 177607
737 30625 72866
738 953537 602238
739 901221 237463
740 275191 518258
741 240294 687933
742 300318 984739
743 156566 700464
744 647306 736419
745 595245 922978
746 248681 940738
747 485748 655476
748 615057 857030
749 958357 794146
750 559806 162755
751 297841 422732
752 203632 228079
753 233369 86473
754 433972 72418
755 86727 611552
756 256651 735584
757 343695 678438
758 211259 183800
759 839288 689944
760 867844 943854
761 443974 121823
762 429123 467190
763 234388 372588
764 973974 802545
765 839497 867063
766 168266 828803
767 150736 663639
768 261607 504710
769 344238 621879
770 773479 972766
771 861175 957361
772 868575 651390
773 479003 126857
774 511614 18558
775 421088 242469
776 883055 155811
777 954648 692742
778 994489 469038
779 271995 539992
780 966471 728659
781 742235 812092
782 298938 113961
783 750376 299289
784 867008 692304
785 199435 84401
786 672186 820729
787 268856 625374
788 60799 288163
789 167174 736381
790 472701 765350
791 100592 433982
792 836074 110838
793 124828 356174
794 529864 36775
795 913263 962317
796 637701 651933
797 422444 689078
798 300579 40446
799 688504 243201
800 590591 190839
801 959682 775233
802 545857 655738
803 141877 449073
804 319736 843810
805 567914 638315
806 939173 235220
807 626729 4154
808 90957 90301
809 389647 609860
810 813381 709930
811 610785 623807
812 101712 8595
813 124718 896953
814 274872 613118
815 483496 611725
816 968426 323364
817 168466 834385
818 826176 865371
819 807253 831919
820 19880 34526
821 966526 920004
822 223394 203332
823 351532 13893
824 550221 413848
825 564359 403626
826 765573 75386
827 759704 978866
828 222412 636318
829 606766 711471
830 829561 276505
831 641820 487817
832 823929 533388
833 671788 19168
834 11826 423396
835 652621 77064
836 540079 975799
837 45500 409754
838 944356 535398
839 864103 122845
840 786182 488400
841 290186 563400
842 783557 206991
843 969905 480609
844 499434 635078
845 162597 807008
846 853545 383856
847 179298 942816
848 494446 990727
849 874503 813639
850 258976 816133
851 149789 427375
852 627665 75959
853 113439 202173
854 291828 552713
855 8961 741802
856 136883 971687
857 548874 22552
858 422960 257963
859 308518 881113
860 38941 681061
861 144664 198186
862 164420 836487
863 927274 112704
864 348133 969541
865 296314 742183
866 243569 311390
867 113884 44380
868 351516 318499
869 14526 761004
870 784030 711941
871 172091 618321
872 596137 481535
873 662343 655358
874 219436 342810
875 15542 381742
876 642594 904962
877 517324 516793
878 572563 838399
879 313490 583285
880 724442 794940
881 187647 530824
882 768682 297019
883 569711 518561
884 375550 67339
885 360209 767601
886 38527 965707
887 865570 657199
888 38467 239702
889 680862 647627
890 263923 88874
891 799213 764847
892 245099 501374
893 554536 712745
894 542708 816865
895 474668 832955
896 942948 947186
897 400795 16429
898 673414 206383
899 752750 938938
900 443067 422640
901 974496 571809
902 78887 926667
903 582529 877746
904 659862 15950
905 962257 859818
906 295690 496625
907 108617 891487
908 851991 240460
909 130028 752253
910 623604 363327
911 765811 436612
912 624271 937568
913 793105 466717
914 886820 938903
915 74669 160720
916 579839 664911
917 685369 404105
918 793184 302587
919 656230 353612
920 649382 314075
921 582716 790455
922 193260 111340
923 67144 506336
924 322915 463226
925 223323 206696
926 319562 813847
927 864268 282347
928 842801 309584
929 886439 674781
930 133483 279941
931 221516 306250
932 366567 648181
933 277101 505235
934 303364 997276
935 824343 345655
936 917544 666802
937 528929 416908
938 43765 951963
939 572343 341923
940 94767 483520
941 580278 212039
942 805420 794728
943 939203 273588
944 298343 37188
945 127004 287948
946 999222 658953
947 529269 303727
948 396531 915914
949 261525 776352
950 67575 115180
951 933992 980991
952 368459 739802
953 626418 107523
954 8427 69540
955 343143 569212
956 11241 849250
957 547776 845534
958 280718 562562
959 776981 62840
960 251650 361186
961 243709 527012
962 929700 709162
963 411662 936552
964 298343 789127
965 790489 936241
966 943536 502803
967 998780 525554
968 472279 731027
969 664262 959885
970 514009 376641
971 496607 235503
972 785538 765817
973 44239 472210
974 729252 820106
975 892065 459978
976 617571 472398
977 985863 131333
978 171643 431188
979 982211 842904
980 267522 895391
981 443260 48541
982 555531 966502
983 72605 775737
984 63712 781959
985 801295 808508
986 833310 956875
987 170775 791672
988 743615 771310
989 541148 798367
990 537518 980473
991 954341 455438
992 521604 895097
993 492981 894995
994 947272 32278
995 452949 696542
996 667314 882303
997 158590 705500
998 543330 539731
999 64727 993866
1000 22202 272928
1001 931061 930885
1002 282587 911591
1003 505636 162132
1004 950794 90765
1005 638352 276648
1006 483916 949932
1007 389954 570980
1008 228077 560957
1009 889950 850030
1010 423171 532873
1011 711010 69846
1012 759757 528366
1013 877446 902424
1014 674288 259183
1015 286035 581483
1016 820516 450383
1017 160015 260870
1018 496557 4408
1019 65484 950624
1020 667020 932024
1021 5044 97241
1022 609107 920076
1023 985532 597467
1024 122546 630223
1025 828053 640906
1026 865443 805543
1027 707830 440718
1028 452411 480678
1029 770870 21716
1030 415034 501227
1031 96648 170
1032 423745 706327
1033 271603 386674
1034 340825 469878
1035 585448 630609
1036 438410 259727
1037 21977 782264
1038 667429 905466
1039 362015 319038
1040 75955 396768
1041 131553 652571
1042 844149 784807
1043 484835 820346
1044 26637 453687
1045 989266 109882
1046 663582 595605
1047 365175 36410
1048 493613 745317
1049 75264 826842
1050 252646 80065
1051 235451 803508
1052 554268 431285
1053 509352 212872
1054 961394 923023
1055 955883 632065
1056 454041 317183
1057 32450 305152
1058 837644 501042
1059 634994 387335
1060 212714 526286
1061 311410 513983
1062 217232 505382
1063 395157 634902
1064 705459 590691
1065 272912 454557
1066 944072 438992
1067 363154 443889
1068 942727 814370
1069 620121 538997
1070 947162 983792
1071 185351 639302
1072 240972 462979
1073 798471 149599
1074 378373 859792
1075 641252 858710
1076 39858 484572
1077 553929 798088
1078 135993 796459
1079 440353 110378
1080 488558 694982
1081 592751 422396
1082 975860 972091
1083 446713 814738
1084 76211 569470
1085 506680 688045
1086 122669 775201
1087 746082 354003
1088 486428 826837
1089 960054 419143
1090 369389 598698
1091 194549 595080
1092 102133 577930
1093 861805 521675
1094 463132 391063
1095 997176 127988
1096 738159 50650
1097 32317 259116
1098 861123 410150
1099 893220 886968
1100 976550 971634
1101 189545 959229
1102 490403 42553
1103 664161 444777
1104 382439 975999
1105 936283 614318
1106 333326 49290
1107 113202 360569
1108 956822 542100
1109 390079 716743
1110 110967 36563
1111 921518 189242
1112 592919 535046
1113 498500 163439
1114 284798 703528
1115 689842 41651
1116 444398 984054
1117 482860 755070
1118 265371 145259
1119 481878 741563
1120 621107 319704
1121 131595 746388
1122 280095 960612
1123 206469 548916
1124 457730 497270
1125 760616 697684
1126 125351 189691
1127 197126 934899
1128 527235 205490
1129 476369 735333
1130 777182 518902
1131 962898 640875
1132 354891 616578
1133 482723 586938
1134 769194 152589
1135 154100 407905
1136 84370 892808
1137 956127 413283
1138 911211 731826
1139 992116 658020
1140 7810 293010
1141 687069 549464
1142 926346 170940
1143 78752 803523
1144 629163 866282
1145 272347 678433
1146 376064 329289
1147 587463 213201
1148 235334 238786
1149 790261 866812
1150 49401 474642
1151 556800 799710
1152 489460 467605
1153 10614 575887
1154 263345 26185
1155 856147 723712
1156 576327 610087
1157 462985 98748
1158 142837 633609
1159 53411 141690
1160 381243 243936
1161 796676 902382
1162 103187 679457
1163 851105 284659
1164 403348 488521
1165 402668 335324
1166 468481 965930
1167 801872 284097
1168 716683 76982
1169 86479 827597
1170 28102 445143
1171 750112 487473
1172 485038 28410
1173 881756 473681
1174 226102 908006
1175 362096 950675
1176 835438 301739
1177 464143 714077
1178 6161 590870
1179 997838 205362
1180 750922 933632
1181 489407 435747
1182 998083 411003
1183 973600 88854
1184 125048 434575
1185 216991 669155
1186 407507 145404
1187 779593 430567
1188 408498 494937
1189 438238 389110
1190 673296 260235
1191 286821 197985
1192 737598 469036
1193 845916 32733
1194 967846 390869
1195 310497 627829
1196 951933 651903
1197 610606 358946
1198 37635 604707
1199 707879 54471
1200 619911 386819
1201 35443 836991
1202 234710 101861
1203 663854 637452
1204 564140 995107
1205 868160 973427
1206 623023 606968
1207 894864 123093
1208 981698 837504
1209 825141 639137
1210 373367 368893
1211 380974 70577
1212 814663 830172
1213 633712 570515
1214 910694 677732
1215 766713 771046
1216 930796 443131
1217 520949 699868
1218 637211 679852
1219 303120 614505
1220 487337 8412
1221 207592 328709
1222 17501 941604
1223 246854 881356
1224 837239 780433
1225 725233 467120
1226 694012 30146
1227 287758 848864
1228 456023 592311
1229 316041 534841
1230 464649 984002
1231 334331 949635
1232 507769 859747
1233 765835 294314
1234 589467 953260
1235 876238 100341
1236 264 44707
1237 913903 906247
1238 674880 350828
1239 782819 965799
1240 374149 41401
1241 254473 375852
1242 213082 782710
1243 436714 981160
1244 935362 661201
1245 934033 342897
1246 90384 349860
1247 738266 386996
1248 8148 162884
1249 414805 111253
1250 266724 896026
1251 98537 871440
1252 406284 683832
1253 212646 318159
1254 817063 505047
1255 412150 474862
1256 656949 654839
1257 600808 121752
1258 893618 984471
1259 211368 120773
1260 851599 602950
1261 879509 478214
1262 686536 980212
1263 1804 128823
1264 638422 230071
1265 693600 356720
1266 533764 277771
1267 553648 899286
1268 384452 599633
1269 775044 91330
1270 889092 452243
1271 769791 814589
1272 809602 331082
1273 463388 612170
1274 663324 758053
1275 385191 879324
1276 524461 184733
1277 417652 910003
1278 362261 820766
1279 317791 506998
1280 299380 613012
1281 543114 725733
1282 615955 959906
1283 705070 842359
1284 845237 269725
1285 658364 281447
1286 321146 453314
1287 735581 972275
1288 78489 694775
1289 60561 776532
1290 617950 181038
1291 811031 131424
1292 930691 80588
1293 813606 808031
1294 661816 593742
1295 194215 542092
1296 754396 505318
1297 432966 607644
1298 131096 316476
1299 79008 837327
1300 252592 768612
1301 551608 886791
1302 140103 204153
1303 68292 393036
1304 254042 337064
1305 96397 554230
1306 158949 724049
1307 312782 757288
1308 858616 37796
1309 292766 8310
1310 828810 388593
1311 763351 7910
1312 17132 889751
1313 729839 434355
1314 313211 531427
1315 903982 685452
1316 440732 723497
1317 680135 63720
1318 22088 86982
1319 818642 173403
1320 221971 775809
1321 515264 653505
1322 764932 805622
1323 778740 746485
1324 488185 543214
1325 877805 696741
1326 3265 547580
1327 933344 567140
1328 327879 828111
1329 206655 76382
1330 182065 981310
1331 574394 80639
1332 115092 320587
1333 38965 505443
1334 959117 507160
1335 978547 112131
1336 549610 749552
1337 130505 132069
1338 385328 215770
1339 74565 449992
1340 561871 901728
1341 227699 236829
1342 349361 922671
1343 111058 360093
1344 608404 359548
1345 24754 516644
1346 127865 311481
1347 194855 109840
1348 226199 765712
1349 523000 632863
1350 420293 562969
1351 671919 38193
1352 981343 976076
1353 469041 766436
1354 198219 10673
1355 456081 967786
1356 219706 847107
1357 51628 665420
1358 853445 262912
1359 885783 5252
1360 94387 273253
1361 982443 326253
1362 86866 415577
1363 440211 511416
1364 768209 154428
1365 663027 618892
1366 17551 63892
1367 993910 594085
1368 682021 380591
1369 185200 683941
1370 69226 848145
1371 474310 603151
1372 265160 751500
1373 534201 801611
1374 224614 779278
1375 669628 714783
1376 997502 368572
1377 969835 801400
1378 545418 608027
1379 44282 387257
1380 294055 88449
1381 581235 514277
1382 941446 607936
1383 493476 616554
1384 581946 300127
1385 131219 51834
1386 38298 106505
1387 335623 379604
1388 275750 613871
1389 356418 285465
1390 870159 832184
1391 467134 380951
1392 860372 574577
1393 37657 503273
1394 122445 385974
1395 100609 65466
1396 798645 885073
1397 552721 17392
1398 809847 367804
1399 267528 885556
1400 475749 920329
