NAME : portgen-700-706
COMMENT : portgen N=700, seed=706
TYPE : TSP
DIMENSION : 700
EDGE_WEIGHT_TYPE : EUC_2D
NODE_COORD_SECTION
1 529369 287611
2 750472 837544
3 804054 825338
4 37113 540522
5 999221 944110
6 687444 834191
7 126168 869447
8 653492 813966
9 472290 807087
10 908941 978346
11 160406 696752
12 350056 661796
13 740346 185213
14 996603 81643
15 735305 130764
16 115516 773902
17 399083 502804
18 765280 242732
19 131510 122702
20 304947 951664
21 476150 482463
22 337871 281197
23 680194 918432
24 285455 683607
25 106164 381025
26 606678 860272
27 477414 103716
28 636610 755467
29 888527 247667
30 72264 561322
31 693828 914410
32 235574 47556
33 467960 204981
34 496319 844971
35 189252 735059
36 528510 788683
37 700923 527915
38 371667 300134
39 219338 246339
40 25186 984879
41 296685 748935
42 9379 173983
43 436936 201105
44 538327 351527
45 34844 560298
46 746412 286538
47 933449 569888
48 423153 687466
49 781539 809956
50 909529 380060
51 699094 39116
52 658420 121284
53 84340 857743
54 850893 303430
55 666780 435504
56 217139 537000
57 212823 511965
58 814910 407289
59 980961 665685
60 624402 780493
61 423442 686363
62 935441 809191
63 35965 489394
64 130262 579639
65 443574 513924
66 449240 915908
67 579559 589681
68 767740 759684
69 536111 497413
70 359073 29647
71 220144 872641
72 727124 254351
73 136856 60048
74 351096 124257
75 533923 933759
76 557204 201900
77 366381 395605
78 930819 783186
79 459557 68739
80 353544 324656
81 321631 353479
82 944357 637132
83 215360 344497
84 809875 958471
85 375108 754861
86 56192 856703
87 131762 690642
88 223288 221541
89 319982 539835
90 878372 252778
91 29837 61523
92 226094 118918
93 192292 95761
94 971550 942426
95 374320 423242
96 949808 577639
97 122304 604211
98 973455 363440
99 740879 36481
100 31062 915314
101 740065 811261
102 245885 281144
103 903921 495680
104 975805 247463
105 203313 835058
106 811635 517130
107 694419 930301
108 374847 743992
109 231174 340146
110 663677 851919
111 603618 773393
112 927409 459794
113 14796 244931
114 610817 850617
115 786721 727608
116 245736 72519
117 336522 43313
118 441143 512706
119 367104 295793
120 744070 448299
121 864586 631404
122 278748 522400
123 819624 176414
124 650230 662510
125 589415 728523
126 752623 890261
127 249760 303454
128 669578 667546
129 474738 202571
130 840001 391214
131 128576 680012
132 503392 755013
133 970472 180231
134 238381 172018
135 110677 198433
136 93761 568664
137 750731 935153
138 99296 713356
139 523633 623955
140 790216 347249
141 770192 408245
142 10616 395506
143 599031 565724
144 569126 581508
145 72841 260911
146 274325 195085
147 185115 545637
148 354537 295922
149 880672 343594
150 423104 106267
151 652781 26275
152 872294 242165
153 958331 344377
154 879644 854254
155 704422 103853
156 98419 893230
157 129730 579089
158 116889 933490
159 494896 957755
160 400475 674549
161 299558 894786
162 748914 4410
163 545651 67486
164 696369 508565
165 976822 754919
166 833712 669379
167 919532 686362
168 248829 876962
169 278515 431527
170 278617 665541
171 70827 611371
172 181032 398291
173 961352 379538
174 446171 180704
175 999985 287051
176 599552 372106
177 366772 668184
178 272554 983402
179 106742 185931
180 993335 81368
181 65862 448117
182 575637 38881
183 33025 487048
184 712197 731438
185 617736 737351
186 487318 314192
187 957770 113424
188 74997 927452
189 528014 80729
190 731856 562249
191 960743 510437
192 515230 895454
193 689057 385595
194 93742 880650
195 653336 761781
196 164765 547076
197 813791 541265
198 178222 756634
199 653601 67608
200 323293 33900
201 851523 365442
202 448848 437735
203 326307 89114
204 856876 471318
205 979127 886959
206 889660 226092
207 532595 231554
208 916603 518785
209 634326 34371
210 860659 276390
211 833447 644588
212 408144 583835
213 885828 121876
214 865344 520034
215 787117 985883
216 70575 56696
217 101601 844896
218 672589 734651
219 977842 283675
220 978850 170271
221 751269 59370
222 19991 376945
223 928334 520176
224 138931 229955
225 655437 56345
226 891290 133566
227 280491 337410
228 963325 794826
229 263840 603951
230 765145 591655
231 111272 573200
232 492467 808856
233 135690 830289
234 206101 155649
235 303219 396427
236 379854 404370
237 378933 804314
238 385100 699880
239 364097 70734
240 620510 91001
241 858036 261393
242 754888 195461
243 874610 497374
244 564229 292745
245 709206 842300
246 528550 822192
247 980455 582423
248 790417 346898
249 680436 215676
250 991844 228454
251 156078 68197
252 609444 564436
253 198309 629896
254 378677 85030
255 462799 465950
256 230597 971095
257 894745 922845
258 63105 289079
259 592744 910044
260 18439 788792
261 149852 990424
262 163804 74765
263 240348 311656
264 794926 814497
265 606005 755203
266 321202 279067
267 607934 154560
268 860404 886940
269 366648 832043
270 132355 585531
271 904630 654184
272 274306 920414
273 692447 538125
274 658388 905690
275 342074 478760
276 551972 865939
277 609671 236641
278 907251 877010
279 460263 454884
280 704032 311368
281 263248 546634
282 952674 877268
283 561320 576412
284 696788 974331
285 230398 524979
286 630691 687054
287 567970 539678
288 236820 283913
289 380753 927163
290 167514 363337
291 851393 340042
292 110465 294637
293 491954 774567
294 326393 730665
295 593240 283991
296 190152 392317
297 601644 607375
298 954840 217575
299 86214 734627
300 683593 408533
301 157372 731224
302 738176 978736
303 627366 211930
304 755473 315034
305 744686 132683
306 550617 729597
307 861643 420040
308 121216 870931
309 944989 345298
310 922427 343744
311 490198 962161
312 290737 821864
313 367607 899466
314 948878 589233
315 912311 24890
316 528439 65718
317 182477 34830
318 812720 121796
319 478398 690425
320 173420 621023
321 829577 981094
322 808238 249495
323 793792 227990
324 101579 779780
325 239768 55374
326 268697 496980
327 822315 658703
328 880094 91654
329 548747 703345
330 166016 505570
331 733531 65048
332 141613 123663
333 303105 569523
334 921358 612147
335 626247 893225
336 769351 165209
337 105529 867052
338 75047 993218
339 139846 632033
340 941770 275952
341 350718 245532
342 423217 406741
343 291358 463391
344 924104 58813
345 731724 243197
346 200437 866250
347 64177 280195
348 851671 664368
349 875564 941185
350 174448 800574
351 88144 469546
352 838010 963815
353 704655 23164
354 73762 415574
355 367345 416702
356 167549 489934
357 971621 922819
358 305133 867281
359 871 861418
360 271991 638737
361 693958 980173
362 437699 825672
363 805081 299805
364 327198 141714
365 162396 51882
366 919455 724272
367 264687 525067
368 108403 860784
369 273910 500398
370 101607 424077
371 462520 62686
372 786821 92986
373 549238 220263
374 428550 238504
375 475113 551866
376 337169 733850
377 778788 122565
378 881119 363872
379 204858 312942
380 855412 843871
381 749253 573363
382 313966 943268
383 954182 104862
384 703112 878634
385 373580 84869
386 438730 762366
387 386304 720125
388 301567 960108
389 201384 315134
390 944553 441209
391 94946 14255
392 286302 318525
393 302628 346091
394 410305 321419
395 570885 3541
396 157672 395276
397 126818 16738
398 985346 700153
399 676381 66696
400 791419 589130
401 18879 113416
402 293951 33904
403 456920 322913
404 447548 460263
405 819936 535027
406 953566 883439
407 742057 851870
408 686199 353977
409 446545 297228
410 957921 254028
411 428480 636416
412 87215 784450
413 65990 325313
414 468415 352400
415 263205 978653
416 512559 741121
417 495197 409525
418 487642 211506
419 272198 434431
420 632326 948650
421 899545 113076
422 363497 316856
423 575060 521256
424 308060 342367
425 950747 660032
426 231737 323981
427 803490 812765
428 76570 277757
429 618219 884425
430 546261 245413
431 50715 13117
432 827936 871285
433 635481 840489
434 519941 425201
435 276810 164942
436 45916 104177
437 346480 297888
438 22291 104499
439 832925 274449
440 707879 788232
441 707094 583990
442 806139 17792
443 927937 499442
444 913184 623911
445 774044 647152
446 691565 846996
447 157620 467383
448 902733 795367
449 766596 65609
450 294564 470560
451 688330 33611
452 634487 162515
453 952938 647747
454 517841 785698
455 884827 577127
456 364573 994308
457 110380 899108
458 553848 203719
459 855496 360553
460 968551 840113
461 73893 454332
462 130636 806249
463 476612 12305
464 469689 183965
465 344949 374543
466 586657 47227
467 389621 130752
468 423659 712786
469 473609 907030
470 463944 724218
471 643946 552630
472 655359 933930
473 573259 237232
474 716359 351371
475 990771 890428
476 325677 582630
477 720659 920021
478 883902 641103
479 643989 503735
480 738856 240152
481 174137 610810
482 321754 160609
483 933180 811942
484 338948 176450
485 325849 316615
486 487360 504125
487 369782 78123
488 514435 491263
489 733673 210615
490 922346 835508
491 368316 965954
492 445109 104797
493 200406 975847
494 725472 229012
495 197571 611716
496 373837 297159
497 581181 147328
498 236858 139821
499 182848 577235
500 419494 81995
501 503559 505743
502 429024 155262
503 522112 359723
504 137521 615861
505 719615 908055
506 915630 414977
507 306164 127139
508 866315 876978
509 29629 174425
510 923751 793359
511 629094 761713
512 756955 243853
513 813055 981616
514 75101 214520
515 556011 154711
516 353741 117811
517 491000 14290
518 919877 953338
519 659789 317969
520 238482 323427
521 946217 551047
522 305261 404211
523 982622 612124
524 540203 337327
525 334272 255241
526 64720 968328
527 21224 264782
528 728253 385748
529 14743 414733
530 235384 568773
531 699933 819551
532 377379 396187
533 961838 364583
534 109716 901952
535 144516 254190
536 336774 692301
537 840153 668509
538 728639 660766
539 740488 492172
540 515599 427307
541 966873 660367
542 979135 987237
543 454777 534190
544 740431 94813
545 52452 555294
546 843622 757836
547 173453 984291
548 986653 253915
549 710894 636751
550 675572 321856
551 871635 48031
552 821727 906964
553 288368 404352
554 989193 33986
555 810004 194063
556 645316 919929
557 362280 680090
558 725151 942097
559 646098 393088
560 409533 707922
561 653689 472964
562 226380 822660
563 382555 288742
564 870573 933188
565 380140 324286
566 671572 706502
567 682167 321536
568 781991 46943
569 298087 299044
570 262086 512680
571 888092 347343
572 685279 344530
573 901604 370657
574 531456 350792
575 601735 697910
576 383342 777705
577 256611 351285
578 650283 165132
579 365863 500191
580 124973 241425
581 106265 690148
582 771899 297324
583 305971 297972
584 234650 17750
585 778485 354493
586 410640 295305
587 791352 711622
588 324580 875983
589 216353 875095
590 172376 217423
591 922878 370382
592 808214 138714
593 218021 981424
594 934603 384843
595 15565 484018
596 812293 280336
597 520558 907593
598 102040 592786
599 555991 973657
600 19949 25621
601 154304 656361
602 178416 384312
603 775031 12960
604 969491 117896
605 133264 668859
606 230529 981020
607 484626 640954
608 429132 825929
609 169589 864306
610 195283 713184
611 741981 260993
612 997800 752864
613 200189 754279
614 116889 407039
615 936590 311620
616 906492 98457
617 741830 503517
618 986893 941858
619 885755 167260
620 709582 392092
621 811834 70297
622 189559 302380
623 742037 551300
624 282536 767694
625 707404 347760
626 475897 148951
627 37066 708329
628 119129 55847
629 914530 674898
630 397418 833173
631 127204 802230
632 408313 741172
633 857024 160232
634 791460 182246
635 898916 877832
636 543392 401895
637 156901 847523
638 237287 593029
639 223926 289470
640 633734 144341
641 839748 441990
642 9620 103417
643 184415 104261
644 690143 658
645 646492 826661
646 150397 703509
647 268343 831750
648 848699 409939
649 913395 342036
650 65093 149007
651 327373 993065
652 133959 563062
653 508012 33906
654 139330 933649
655 523914 14867
656 365704 913872
657 28406 570757
658 682775 423695
659 533886 576563
660 892473 447085
661 246836 449424
662 117153 749908
663 550459 550327
664 267935 593839
665 339510 203380
666 453699 290277
667 765556 618867
668 778637 925876
669 413584 438863
670 420641 760720
671 570374 113579
672 108185 199407
673 579825 700973
674 586356 518434
675 281290 298371
676 142003 319556
677 2525 861712
678 695308 37095
679 227508 515092
680 784424 582135
681 620322 700467
682 513007 763193
683 444492 252124
684 805686 828999
685 990932 981802
686 837339 15451
687 295273 594101
688 305082 927280
689 446898 255440
690 54600 513363
691 322818 752843
692 809414 757375
693 583057 753231
694 777269 2362
695 174374 526512
696 120189 584585
697 447931 438838
698 923381 554922
699 818306 514084
700 894324 652544
