NAME : portgen-1500-1502
COMMENT : portgen N=1500, seed=1502
TYPE : TSP
DIMENSION : 1500
EDGE_WEIGHT_TYPE : EUC_2D
NODE_COORD_SECTION
1 992809 888869
2 538956 509077
3 449287 831208
4 947590 709031
5 856239 552754
6 234760 66734
7 47765 687189
8 876743 418839
9 113886 361600
10 240050 358596
11 332104 660249
12 20804 494875
13 92499 796290
14 499264 652586
15 172249 143429
16 866666 350173
17 760950 450619
18 284703 698924
19 84749 773996
20 834119 427095
21 622318 994869
22 665414 935273
23 703147 584025
24 850822 69812
25 17343 394976
26 989909 666116
27 13896 557184
28 280609 642635
29 127918 88336
30 224374 750362
31 746459 173593
32 874911 429144
33 930435 239891
34 401319 112491
35 984041 292717
36 568017 44073
37 344256 845073
38 368687 665987
39 646353 463619
40 214266 449864
41 668372 410928
42 428212 421886
43 396970 693073
44 475261 331806
45 520184 44812
46 297605 972258
47 789954 541402
48 859077 578245
49 650613 820340
50 566586 37159
51 937672 387202
52 855546 567479
53 726604 578980
54 237903 592009
55 160214 587535
56 167373 796111
57 568152 179561
58 452757 774200
59 383638 333509
60 570066 352190
61 589277 580978
62 545905 946882
63 355045 180814
64 188527 776776
65 118469 789707
66 428084 54343
67 303404 626730
68 282490 872260
69 842776 248651
70 969129 622769
71 309434 141752
72 761740 167993
73 455534 716626
74 426352 843072
75 186356 678262
76 389717 873836
77 701871 776878
78 609075 883328
79 83797 228815
80 284988 854343
81 736204 989252
82 622880 537445
83 278101 25621
84 34371 400158
85 724026 736130
86 347848 540566
87 147153 891803
88 962473 715440
89 879107 769026
90 337807 471716
91 97016 959711
92 491787 264126
93 53503 438832
94 431463 765959
95 348629 256869
96 837889 442617
97 524624 232998
98 274921 768868
99 994598 869936
100 205520 740093
101 837519 657326
102 505265 714639
103 581246 430005
104 382049 437744
105 723375 170243
106 451865 317838
107 880186 28119
108 16453 293586
109 464627 389881
110 262524 509232
111 31022 164434
112 194638 983932
113 898611 690521
114 35301 432513
115 310557 532467
116 333391 441362
117 45651 167563
118 19851 779178
119 79525 463668
120 247672 759916
121 974204 41581
122 503435 839396
123 225847 673455
124 247979 540692
125 334387 584399
126 733567 562085
127 559379 673053
128 406702 396156
129 611674 337701
130 694787 802067
131 350480 918380
132 190072 963458
133 196038 410283
134 814403 40789
135 802271 342998
136 45607 923935
137 55494 678124
138 775665 468937
139 605054 521585
140 577230 502454
141 78847 697599
142 737726 508489
143 181986 415011
144 251290 82192
145 971525 609568
146 964775 38735
147 661396 904673
148 714309 50269
149 986087 825310
150 63731 756910
151 68400 726393
152 963461 831932
153 505552 35967
154 824359 50889
155 491066 991690
156 144866 529482
157 366175 85219
158 837292 311745
159 256983 285398
160 249149 145768
161 424196 989092
162 977058 45361
163 274598 319213
164 960473 223561
165 172572 739697
166 644577 554164
167 30518 585539
168 357588 549364
169 331424 652506
170 671196 870241
171 158027 965892
172 833042 825757
173 185372 975682
174 61677 616035
175 630075 395096
176 89796 762525
177 652737 324033
178 112332 514235
179 695875 377921
180 474344 956187
181 704543 171852
182 379693 620825
183 833663 178973
184 696439 540418
185 899847 861610
186 250068 640948
187 655322 854053
188 55972 661671
189 336355 653024
190 933028 760362
191 623337 582551
192 749217 216385
193 35154 472725
194 174471 409693
195 751876 178614
196 852925 791005
197 752659 809586
198 620173 517079
199 310569 978989
200 769785 523700
201 639326 408652
202 683006 869712
203 771758 507245
204 13307 436352
205 288879 639607
206 339763 286182
207 626045 295729
208 103262 913537
209 419192 570106
210 652 316584
211 868404 717450
212 770633 376146
213 222283 841415
214 957941 785610
215 82295 548727
216 648363 900003
217 364144 293421
218 420598 337155
219 956505 453487
220 113123 121616
221 53532 604365
222 409041 435292
223 310210 135474
224 20372 376513
225 587302 778757
226 559137 524959
227 896694 221058
228 875337 739323
229 44507 389585
230 449113 434602
231 550739 559820
232 323229 167262
233 586074 735398
234 877141 190753
235 985519 967787
236 893164 42679
237 982804 221894
238 757447 343444
239 820756 549574
240 500808 482960
241 796907 568356
242 336496 647692
243 997987 88542
244 576774 196881
245 707346 685200
246 460014 765752
247 467968 145335
248 228452 10852
249 621561 187146
250 677844 966765
251 314718 470797
252 875704 104342
253 981850 990780
254 188462 249001
255 223070 786794
256 162549 847626
257 682238 763913
258 974588 784987
259 91852 177893
260 938810 575221
261 113837 689994
262 512908 18753
263 653068 422366
264 166974 878461
265 240043 766666
266 154982 571754
267 326504 714013
268 320411 949281
269 886118 572583
270 673104 213000
271 996690 398880
272 258071 132125
273 571362 770019
274 252843 449214
275 492267 806085
276 843877 743099
277 947103 911178
278 811783 742963
279 144293 161691
280 783931 32569
281 104661 615879
282 575897 10069
283 790104 763668
284 589555 550113
285 192550 204568
286 532143 642637
287 685626 132725
288 731343 370738
289 742891 601730
290 206970 910104
291 278073 5283
292 94530 207473
293 662004 539102
294 995857 316435
295 923909 556742
296 359725 336005
297 380032 468535
298 680857 354052
299 713254 125345
300 400781 200623
301 27128 651113
302 242243 582162
303 528011 838594
304 648568 739629
305 249173 272680
306 747106 827857
307 237781 227188
308 672843 768656
309 235847 107361
310 329212 436051
311 50413 464209
312 149331 991927
313 177439 881030
314 400394 103463
315 604713 892749
316 722170 3261
317 352556 934290
318 162998 450215
319 767502 867342
320 534630 893348
321 303255 888496
322 987223 487857
323 506328 895516
324 186673 388105
325 291095 799826
326 953658 609790
327 520632 508031
328 478453 23867
329 298556 307953
330 419163 77796
331 71091 781225
332 204999 355825
333 969424 858609
334 840634 749924
335 720859 777327
336 581982 847742
337 816265 529385
338 482393 440623
339 943577 641300
340 513473 153572
341 582473 92440
342 684299 526917
343 821657 940944
344 798262 996731
345 964865 304388
346 609580 17577
347 146482 757303
348 311365 455513
349 72230 457837
350 5463 65705
351 951939 545373
352 874631 137522
353 217353 861217
354 925490 993714
355 686373 537508
356 225604 301825
357 343087 114775
358 468215 53514
359 634742 447695
360 44459 513910
361 786379 382797
362 744460 655153
363 825387 36609
364 973110 678743
365 312032 621176
366 515132 949862
367 954926 975964
368 927967 280648
369 749353 569524
370 58701 768143
371 306201 350566
372 952271 450954
373 518008 226783
374 273117 491328
375 931915 274755
376 482403 393487
377 145805 384287
378 550573 2076
379 590446 898666
380 209555 936704
381 111863 355966
382 935012 918230
383 231307 875038
384 349553 892132
385 596766 241432
386 780396 143414
387 515780 769703
388 31507 392892
389 236991 360172
390 104580 823311
391 446163 74443
392 469187 375327
393 509312 159166
394 14849 36696
395 744657 52929
396 931095 857220
397 972758 817269
398 987747 162787
399 834786 182568
400 419447 125116
401 989791 912944
402 386748 108603
403 828592 407959
404 924299 770477
405 874975 391407
406 987226 553750
407 154009 156625
408 5608 254643
409 383207 117743
410 930482 68519
411 40251 166985
412 472685 471650
413 251640 867451
414 756665 407176
415 941110 623548
416 468593 466513
417 485197 713173
418 836084 892413
419 920434 312562
420 369718 254669
421 775958 897106
422 106213 676137
423 12677 764110
424 384534 501108
425 565629 120295
426 406121 427609
427 241457 795898
428 656522 523278
429 427747 673575
430 272518 936179
431 487525 611737
432 400758 620305
433 615448 90120
434 447536 477872
435 143948 241498
436 870108 882099
437 552113 810187
438 662398 612642
439 925528 676787
440 815127 728361
441 439704 83090
442 134657 4930
443 136023 856856
444 65754 864891
445 97724 745964
446 444876 442561
447 168614 128220
448 384560 893859
449 344993 296026
450 13738 400035
451 838582 707747
452 685980 837268
453 680591 323031
454 292951 236526
455 659875 799666
456 457523 562855
457 575851 526554
458 491303 44963
459 443123 272538
460 235745 721589
461 745126 151510
462 464133 743912
463 402916 162360
464 196118 714845
465 129595 339367
466 319690 689001
467 16911 15460
468 270838 876848
469 507239 608103
470 513627 91060
471 413733 793216
472 629146 376134
473 838 293366
474 978428 424701
475 725303 222199
476 697740 630148
477 166430 674371
478 80344 149580
479 690835 670520
480 566430 803742
481 815791 684848
482 722898 568815
483 385933 664307
484 933708 199716
485 525715 197936
486 66534 18421
487 547234 13545
488 23849 114978
489 985079 789761
490 663568 253335
491 471525 525598
492 148415 325853
493 523575 634842
494 966103 448096
495 629527 606530
496 943140 307522
497 82387 315690
498 24525 395311
499 245981 615601
500 352284 885859
501 308287 188666
502 761132 471967
503 750674 172141
504 481732 840576
505 150796 445502
506 183477 242738
507 40992 959899
508 860602 508268
509 602460 407207
510 544290 990622
511 418325 318107
512 847431 639856
513 889649 877868
514 257288 75266
515 262870 851707
516 633245 144502
517 638965 218066
518 69858 228786
519 484605 188515
520 465251 15306
521 32382 558895
522 903806 638905
523 188204 625032
524 460091 442531
525 426041 146656
526 138022 170714
527 352730 500577
528 252613 163784
529 549701 543066
530 402109 521888
531 687536 293217
532 375325 135489
533 413119 624581
534 338932 402087
535 771694 235569
536 48177 159928
537 981166 397633
538 852599 247611
539 965377 346854
540 387242 725865
541 328167 714222
542 673157 740982
543 164170 340028
544 769177 503476
545 804946 445276
546 889854 82517
547 416821 229681
548 967129 872453
549 577729 506173
550 786305 940593
551 659654 113236
552 55288 700175
553 818489 423800
554 497557 611747
555 336406 912585
556 394607 46224
557 738120 956832
558 632034 605018
559 876396 145643
560 168360 540666
561 46852 832758
562 615782 831101
563 575914 934940
564 104640 280990
565 579143 428799
566 750054 353630
567 10447 474657
568 331258 281942
569 976101 716324
570 108948 559152
571 463632 623533
572 335116 264279
573 398423 57095
574 466734 585719
575 653766 32188
576 767813 296738
577 927030 357505
578 190539 306024
579 102788 580630
580 368917 536547
581 447698 781232
582 502799 777254
583 448952 771073
584 711108 473840
585 558408 574938
586 138283 290676
587 491877 136171
588 772853 750114
589 905727 258276
590 640561 269890
591 832152 524009
592 912072 42595
593 981100 968821
594 850831 233193
595 25704 560184
596 570833 502261
597 157916 534009
598 420868 172956
599 131656 198944
600 491426 648309
601 151367 208458
602 945157 383876
603 200036 243803
604 384665 884434
605 376404 221717
606 455193 869595
607 554926 808733
608 965713 945437
609 623315 968789
610 356386 275996
611 639417 512163
612 982413 910098
613 423570 929825
614 345518 108000
615 936135 529049
616 365448 21293
617 881872 418844
618 814696 962557
619 969083 103339
620 76882 35663
621 345505 882041
622 876807 749708
623 920766 58670
624 519847 247817
625 110439 491042
626 827437 23655
627 262808 962377
628 282861 130074
629 326585 526313
630 569180 237478
631 274720 281326
632 807552 340741
633 876211 573151
634 992787 805218
635 887966 907043
636 425590 375498
637 858349 865343
638 448559 615761
639 249354 20036
640 627237 293496
641 603239 819204
642 538820 698656
643 254328 84121
644 213740 541130
645 542632 241544
646 969769 163864
647 215372 169838
648 610072 970007
649 23691 11463
650 301148 305004
651 809315 499810
652 620580 816942
653 887802 8232
654 484835 564152
655 708048 198740
656 916334 785455
657 983680 327635
658 267709 110855
659 65954 637713
660 730668 906204
661 549459 981323
662 504069 582962
663 97728 925780
664 754917 41407
665 977541 440326
666 130926 685202
667 311988 428496
668 377162 817784
669 835523 211184
670 430947 143473
671 18167 576026
672 810462 636428
673 692084 988445
674 659795 632410
675 72110 684292
676 215090 982284
677 33922 860822
678 174078 124112
679 187821 192083
680 439780 70017
681 172708 273650
682 133204 564575
683 180572 340307
684 974992 347252
685 635551 279263
686 451060 433543
687 565603 46375
688 691113 567175
689 947401 643246
690 408883 973615
691 737958 562833
692 601626 907523
693 267617 857275
694 551998 747413
695 247923 36854
696 842791 488271
697 575633 151683
698 692412 584623
699 10423 764086
700 945314 124909
701 41044 16549
702 223526 98494
703 946334 652256
704 380658 126399
705 593205 316802
706 572113 440408
707 944159 402925
708 227226 684437
709 698017 981520
710 872162 595949
711 329884 210906
712 401937 510641
713 238218 434510
714 210017 467108
715 100041 38857
716 186516 821001
717 50040 92081
718 401502 297550
719 618673 198700
720 680297 583179
721 159258 570477
722 875250 651974
723 706970 631885
724 86333 64991
725 913464 257902
726 374606 543314
727 664045 906456
728 938392 220042
729 966508 131444
730 696992 648783
731 33582 181957
732 446102 10025
733 157544 1636
734 565157 292185
735 695954 595340
736 598103 633025
737 68055 614260
738 221342 786569
739 546860 495480
740 572248 18176
741 468002 78572
742 770116 451257
743 5275 4559
744 374899 40014
745 934537 399865
746 732392 326488
747 502745 84956
748 985076 526232
749 502421 260990
750 430631 920401
751 85024 590853
752 492742 895288
753 789899 296034
754 773198 212787
755 901181 933833
756 845142 926493
757 196907 297126
758 916391 707093
759 679211 361145
760 24949 631311
761 499214 304166
762 861553 775553
763 510315 7250
764 140283 172767
765 824360 925308
766 13370 334072
767 594299 638415
768 173033 541508
769 881664 472989
770 534866 298182
771 325347 13754
772 15065 303225
773 900651 428225
774 464934 727192
775 574640 977825
776 385949 329654
777 436630 505323
778 907030 750952
779 996553 854327
780 722255 248390
781 414370 300209
782 677921 602999
783 608485 831388
784 911428 893681
785 396475 488165
786 242158 952019
787 786504 47123
788 245362 169559
789 867536 356230
790 868523 759363
791 10697 285956
792 450512 575969
793 510938 713161
794 656151 991300
795 29929 341644
796 630080 987982
797 76514 46700
798 56023 373328
799 227249 967941
800 57862 731092
801 560689 108704
802 858669 815277
803 967128 99992
804 879142 860660
805 994385 193868
806 94801 5252
807 824397 380610
808 618310 426387
809 223694 631221
810 546975 235157
811 604139 943486
812 835819 665382
813 927476 133453
814 93350 971227
815 79995 145369
816 290416 6875
817 361844 674654
818 664562 5444
819 461558 69901
820 957659 84550
821 489466 24929
822 444325 794772
823 737505 686594
824 152163 411131
825 119224 922569
826 279978 256022
827 887946 912493
828 440675 553813
829 746860 184014
830 150714 961683
831 638434 809241
832 903001 909834
833 704401 69871
834 560927 29624
835 643104 931716
836 274223 812563
837 511996 624406
838 955179 348116
839 55540 923326
840 224707 373663
841 386593 909335
842 820512 118311
843 506935 481175
844 103874 452009
845 970252 594691
846 444517 431934
847 426797 25943
848 810326 676903
849 512933 819918
850 839593 389388
851 631053 228837
852 186424 745561
853 535975 370642
854 435510 769634
855 405557 959500
856 449938 294850
857 213762 556023
858 517166 206499
859 382443 877058
860 99508 27498
861 556937 741008
862 190031 253715
863 300662 45386
864 626139 766435
865 88430 584536
866 912606 285905
867 517768 265207
868 923724 91742
869 695573 264488
870 601144 300435
871 98731 226816
872 352501 942754
873 37753 703508
874 241902 173081
875 725281 764940
876 50764 746497
877 731488 255056
878 476781 345148
879 711068 921216
880 821836 444233
881 675069 171021
882 168490 105121
883 860768 223122
884 942349 271007
885 518269 813657
886 964597 209362
887 151777 334568
888 976734 810440
889 9520 934974
890 776933 955513
891 334317 704922
892 944598 644197
893 909466 741585
894 117415 412647
895 404438 700602
896 149393 424565
897 746219 787486
898 335838 889369
899 75039 17933
900 966020 227313
901 693988 306927
902 396147 769767
903 430622 345841
904 801898 87290
905 345590 735196
906 227733 298421
907 516778 121234
908 294839 250504
909 424802 381003
910 769282 971399
911 148082 924416
912 304987 290956
913 119669 657669
914 813215 382009
915 903945 630892
916 8541 922229
917 589384 41737
918 727779 35896
919 188144 823364
920 349357 658962
921 316783 736411
922 643364 433039
923 552519 224976
924 119578 455262
925 667816 678169
926 76153 693029
927 113987 335128
928 218772 771758
929 717543 354409
930 41987 394725
931 157697 978534
932 737932 686627
933 418412 491322
934 655056 83738
935 568715 69862
936 130926 969539
937 713186 91113
938 895245 455053
939 810428 969859
940 72184 347911
941 940126 458805
942 340021 509220
943 473194 30006
944 184297 902756
945 623324 236457
946 380840 104405
947 254649 279494
948 528036 347244
949 23225 552251
950 537793 97466
951 414548 149718
952 383078 319905
953 738043 617348
954 353008 604767
955 861933 188765
956 587461 814786
957 731084 805530
958 13885 53292
959 723885 458437
960 158591 71168
961 468097 102804
962 545945 471248
963 655314 981207
964 586460 393281
965 353070 277897
966 102045 205661
967 107926 883418
968 760450 125339
969 727721 534491
970 495334 419902
971 306121 725859
972 744165 552156
973 768360 278035
974 558460 783400
975 624180 546828
976 760783 629943
977 199181 259896
978 995421 208886
979 41792 499660
980 559454 612703
981 889627 818516
982 109432 442030
983 882644 861601
984 70621 178928
985 37169 735849
986 494831 940484
987 834257 611763
988 310385 838153
989 903623 286048
990 475827 446427
991 939414 86800
992 833826 740366
993 388270 283528
994 96228 665895
995 774 898848
996 54718 548792
997 497322 759485
998 925070 365636
999 891601 132401
1000 241770 930207
1001 374412 272411
1002 307572 177752
1003 607413 673982
1004 796117 458814
1005 871625 711892
1006 112658 375897
1007 498885 660606
1008 557985 340834
1009 321194 349947
1010 516959 517007
1011 970000 938219
1012 937157 106962
1013 361437 222420
1014 632911 656504
1015 4349 636403
1016 42036 444809
1017 414422 763935
1018 333769 563517
1019 587914 173220
1020 182381 47436
1021 962334 746281
1022 148936 483766
1023 928848 116498
1024 611635 390359
1025 398048 702650
1026 732724 235096
1027 128052 605367
1028 888171 929602
1029 857988 543637
1030 843983 43896
1031 86067 622897
1032 276433 824189
1033 749557 366376
1034 226961 15119
1035 731757 441486
1036 729199 930834
1037 951899 814308
1038 784282 734903
1039 810166 331790
1040 218791 431834
1041 364431 89274
1042 812521 960452
1043 550335 419138
1044 168376 590232
1045 14378 967392
1046 336556 572795
1047 441462 740894
1048 318236 31500
1049 794382 334627
1050 699484 193944
1051 306332 279844
1052 171568 966213
1053 338219 643450
1054 422575 167599
1055 55031 469032
1056 761226 267756
1057 529259 876590
1058 707340 513271
1059 181434 535538
1060 505953 718057
1061 571993 892334
1062 315634 537812
1063 135154 449354
1064 759265 985685
1065 476089 140832
1066 312327 642566
1067 276758 749758
1068 670607 96675
1069 560015 935931
1070 253112 37064
1071 237704 632837
1072 84279 296320
1073 395398 444222
1074 257161 903649
1075 605740 868882
1076 272235 808696
1077 858537 558652
1078 881617 663765
1079 3086 421810
1080 295605 241544
1081 83434 486644
1082 914487 17966
1083 231328 128388
1084 183476 232938
1085 481191 263117
1086 256109 277785
1087 929797 637070
1088 445821 763297
1089 33796 756982
1090 656195 471389
1091 446268 337455
1092 690080 234545
1093 57397 825683
1094 728079 258791
1095 518430 542218
1096 913198 327077
1097 454739 989995
1098 780954 959918
1099 703039 447209
1100 850498 632101
1101 410425 500178
1102 247453 134351
1103 422614 934779
1104 118616 623992
1105 501255 55933
1106 935685 744294
1107 903379 753386
1108 328345 756357
1109 31904 924492
1110 237012 271409
1111 425349 736267
1112 382439 849089
1113 852691 755931
1114 30332 795446
1115 214456 511042
1116 644680 409803
1117 255727 600261
1118 535703 701973
1119 434075 936693
1120 906199 301039
1121 793778 803587
1122 21779 247020
1123 116869 176931
1124 944637 605650
1125 137303 25023
1126 929586 907593
1127 232753 339456
1128 987421 621
1129 244451 647191
1130 598647 720640
1131 500704 181923
1132 717792 200215
1133 262155 132098
1134 722514 656358
1135 636517 151413
1136 811720 426254
1137 787188 211988
1138 341823 517756
1139 503513 42982
1140 861667 852069
1141 511479 383140
1142 196798 493815
1143 10338 462756
1144 692011 55511
1145 338106 403605
1146 979459 777717
1147 300176 754786
1148 489319 367523
1149 16398 809791
1150 905197 599113
1151 673417 901655
1152 743982 285233
1153 513544 546445
1154 710794 738937
1155 329118 524664
1156 308610 188940
1157 309084 195042
1158 741181 722986
1159 881747 963006
1160 710896 894631
1161 115699 912723
1162 751160 37403
1163 477995 910064
1164 682272 501955
1165 698444 795377
1166 806961 764576
1167 713863 337003
1168 543459 322539
1169 74055 1756
1170 752634 287351
1171 581009 729005
1172 344615 443475
1173 287906 66736
1174 26556 262773
1175 276790 579254
1176 685251 514443
1177 111347 109819
1178 792151 908841
1179 187791 406979
1180 741774 191005
1181 472389 709037
1182 986303 41767
1183 943655 579605
1184 844324 865609
1185 907136 674445
1186 696430 618974
1187 686215 131641
1188 209379 601255
1189 801376 641341
1190 245251 569153
1191 722272 275293
1192 760181 507439
1193 322987 97923
1194 778272 672095
1195 393347 963853
1196 478214 208445
1197 94619 78189
1198 590921 962035
1199 42789 212973
1200 234095 686650
1201 265359 385214
1202 17521 707636
1203 856981 409957
1204 754262 603907
1205 786831 694228
1206 130568 515695
1207 13631 777920
1208 712790 263944
1209 614418 908114
1210 450846 981619
1211 536815 631351
1212 631514 220486
1213 409085 311215
1214 601452 978578
1215 274660 799421
1216 846993 197468
1217 854509 551023
1218 438585 206577
1219 261662 982260
1220 794648 59043
1221 483505 870158
1222 221249 411728
1223 427037 846862
1224 576931 874133
1225 669103 279705
1226 360582 64211
1227 938312 434673
1228 839657 67891
1229 530705 466498
1230 269051 650404
1231 148295 772001
1232 809259 727787
1233 210722 260410
1234 294446 601902
1235 350882 865927
1236 687012 740284
1237 239010 171140
1238 621036 472604
1239 693038 196841
1240 380828 341193
1241 780510 134954
1242 709526 624255
1243 651126 74991
1244 388208 126722
1245 340301 178175
1246 912130 659759
1247 631377 928720
1248 372031 743221
1249 631148 50109
1250 790691 954433
1251 153824 380090
1252 493304 327909
1253 499195 225628
1254 354684 314057
1255 783547 764665
1256 679682 403983
1257 126197 90876
1258 738273 488536
1259 140624 880538
1260 355756 467500
1261 629262 244337
1262 811211 396449
1263 712103 306922
1264 246979 911100
1265 671944 395408
1266 117920 378981
1267 413294 616163
1268 661510 376527
1269 8757 618650
1270 885982 162590
1271 934367 507669
1272 770965 872800
1273 548913 667793
1274 848548 234928
1275 216617 65108
1276 496241 720047
1277 378164 395283
1278 836512 774842
1279 966796 877141
1280 666399 122668
1281 216871 736033
1282 428074 620956
1283 830298 172013
1284 633017 253397
1285 541963 70479
1286 639987 905695
1287 663921 290647
1288 971258 909214
1289 866172 415927
1290 559937 937260
1291 340126 369837
1292 244701 549275
1293 178536 381886
1294 950906 792337
1295 785864 489497
1296 743509 755360
1297 76686 815502
1298 522602 28671
1299 843748 480317
1300 901541 639698
1301 801621 432620
1302 674991 279356
1303 724982 126404
1304 475345 828888
1305 216746 454625
1306 823935 174458
1307 91277 176901
1308 379159 461511
1309 659347 612571
1310 98354 801627
1311 328264 152699
1312 351855 902265
1313 268858 207367
1314 230704 384565
1315 565665 844854
1316 433869 37283
1317 199181 105311
1318 113324 165667
1319 278560 67800
1320 170116 717025
1321 722539 338335
1322 693982 984237
1323 161232 590809
1324 403504 174421
1325 546644 315234
1326 797966 459182
1327 914651 56686
1328 205829 764337
1329 233439 569679
1330 166031 559314
1331 847844 407545
1332 658772 499721
1333 732086 485600
1334 480476 107040
1335 15668 788349
1336 58006 484925
1337 65927 783119
1338 3660 869082
1339 238048 295169
1340 696436 504520
1341 973928 661024
1342 218533 6351
1343 997010 26323
1344 378511 699460
1345 373224 627724
1346 685191 171520
1347 52132 381767
1348 659018 237613
1349 272407 910862
1350 980576 292150
1351 352761 108335
1352 477985 42124
1353 341306 136942
1354 240648 908300
1355 59675 179505
1356 385825 533979
1357 196455 538307
1358 874122 676323
1359 355413 277004
1360 840702 494472
1361 213192 569613
1362 126463 723517
1363 435587 949671
1364 6940 23803
1365 441813 866718
1366 628433 329747
1367 235493 516930
1368 118694 439948
1369 464569 680226
1370 132228 320686
1371 670910 101507
1372 858757 878751
1373 414531 115577
1374 45057 328614
1375 946179 709347
1376 230672 248604
1377 469049 113858
1378 663717 23013
1379 872841 961054
1380 923429 901357
1381 672372 560422
1382 776071 738989
1383 508594 284318
1384 675221 317703
1385 123775 758544
1386 631266 26798
1387 330824 131354
1388 263800 964588
1389 100564 12604
1390 59800 412573
1391 76829 45886
1392 100373 540455
1393 194345 68011
1394 553676 496504
1395 8336 834375
1396 764727 146866
1397 556450 373683
1398 689419 644112
1399 770682 727403
1400 614951 449943
1401 15013 32452
1402 268814 533606
1403 632517 184786
1404 148230 928593
1405 919513 595705
1406 469337 376337
1407 952718 89053
1408 136630 525506
1409 3971 402387
1410 49569 864482
1411 513636 947818
1412 702751 673832
1413 743531 598814
1414 757983 797218
1415 498837 79013
1416 816357 171970
1417 93091 464094
1418 943236 700492
1419 93168 11320
1420 403824 668839
1421 64040 151289
1422 446934 143854
1423 320738 816908
1424 444114 882618
1425 630152 90605
1426 886128 973463
1427 228565 535937
1428 633586 843042
1429 939361 804720
1430 590369 932025
1431 91617 136910
1432 524769 250674
1433 531665 318048
1434 929403 808863
1435 768314 319722
1436 81391 121352
1437 772234 958963
1438 978353 540173
1439 719252 166813
1440 40246 900488
1441 659452 953263
1442 206849 566811
1443 987396 679446
1444 647201 842416
1445 932428 625187
1446 771089 284304
1447 243005 84102
1448 587447 942687
1449 379054 487970
1450 165500 780564
1451 97655 277301
1452 842372 729664
1453 431152 932865
1454 766613 661753
1455 548541 954139
1456 195841 96944
1457 872291 965181
1458 160936 807313
1459 893905 440666
1460 663226 588978
1461 938994 441432
1462 643362 987749
1463 222066 804090
1464 278980 42570
1465 527810 45488
1466 773560 57498
1467 618272 86106
1468 704646 562508
1469 80972 241667
1470 405875 180082
1471 785541 206534
1472 179190 343450
1473 686193 329656
1474 640941 255255
1475 862036 783357
1476 663706 336483
1477 960160 120012
1478 7004 40156
1479 659028 756265
1480 25017 868644
1481 851892 524946
1482 255878 368458
1483 168598 989307
1484 917754 528840
1485 278988 831279
1486 166371 638649
1487 578630 879869
1488 925271 602510
1489 481272 523350
1490 980744 181909
1491 145061 522714
1492 17553 659165
1493 193595 248613
1494 801620 249813
1495 917507 715339
1496 644754 552131
1497 962679 574595
1498 13710 146891
1499 627903 299321
1500 418179 83683
