NAME : portgen-1400-1407
COMMENT : portgen N=1400, seed=1407
TYPE : TSP
DIMENSION : 1400
EDGE_WEIGHT_TYPE : EUC_2D
NODE_COORD_SECTION
1 747800 25653
2 566712 318379
3 229065 678498
4 614053 171332
5 227574 188657
6 437028 620639
7 570941 378539
8 778490 744891
9 118972 568033
10 620131 409948
11 175934 353048
12 640501 597711
13 759014 580144
14 265906 701280
15 739448 545184
16 993099 417076
17 241632 798556
18 608390 584178
19 193345 168628
20 742070 978394
21 435276 80700
22 202956 494146
23 795885 234488
24 589880 252363
25 432466 801602
26 397689 17177
27 108160 206582
28 804252 330724
29 784021 768155
30 709989 644887
31 485152 445424
32 429262 249180
33 753381 356327
34 417682 76794
35 582653 544002
36 155010 866608
37 135566 818528
38 12259 158756
39 244887 433918
40 793458 428289
41 796123 497750
42 991291 94561
43 60031 547675
44 987813 992451
45 45174 252062
46 166495 116550
47 585974 198068
48 823383 568667
49 945133 384428
50 481887 637128
51 989600 155961
52 458904 4177
53 5479 899938
54 25886 13598
55 146551 256577
56 342910 791569
57 722980 457926
58 478391 368602
59 859449 231194
60 425797 184714
61 411194 33254
62 594907 945524
63 554401 999049
64 407704 131389
65 813048 112321
66 132870 231289
67 287367 536881
68 85378 4553
69 774769 533365
70 616170 691429
71 688225 756619
72 566654 860460
73 840868 133241
74 521642 640449
75 643666 824333
76 160962 813743
77 571379 369565
78 504258 758311
79 868593 922022
80 918798 925
81 125168 492520
82 397428 455121
83 568351 586291
84 224915 862520
85 617057 345150
86 846959 218999
87 587527 601463
88 23751 597450
89 461875 225341
90 441266 796089
91 130456 485681
92 212590 812122
93 987152 640350
94 833860 832246
95 968529 499087
96 779638 912249
97 916307 271020
98 844469 469225
99 169092 965190
100 836709 243417
101 671366 296300
102 199183 847576
103 693877 675281
104 601153 759256
105 382413 863908
106 924450 36346
107 953493 419711
108 221287 212918
109 576212 126408
110 610651 99126
111 417198 259724
112 25810 373639
113 673784 550658
114 19816 739950
115 907586 348470
116 996297 702618
117 842928 577358
118 871639 94109
119 532188 792879
120 590835 774233
121 64137 707452
122 221594 869403
123 81888 519913
124 886438 542668
125 597236 293811
126 449409 429141
127 57603 488239
128 247120 968747
129 453372 621825
130 975937 599767
131 143092 808273
132 168420 608179
133 799770 216998
134 814752 84089
135 337822 701373
136 326480 33544
137 529172 316840
138 649716 988057
139 202121 537571
140 126519 705036
141 97286 397990
142 764013 307819
143 205377 188023
144 534198 234748
145 777587 654640
146 279357 448098
147 455056 889462
148 447753 30592
149 178280 904753
150 219686 93831
151 317792 348867
152 416149 892199
153 196524 51418
154 665128 749783
155 282861 59097
156 434549 218623
157 844237 321296
158 320410 694993
159 353217 278958
160 160425 769178
161 38718 909998
162 864402 243991
163 383580 977612
164 617395 636973
165 120316 598298
166 322929 452337
167 254709 67421
168 270487 878663
169 553752 442716
170 987409 510383
171 834806 255239
172 74323 8408
173 615922 369358
174 583695 211064
175 505881 470140
176 413196 541306
177 784437 621388
178 770901 865455
179 94157 348727
180 621711 317861
181 497665 222411
182 762374 772477
183 224290 179309
184 144300 835829
185 705374 951051
186 111297 142152
187 773077 690284
188 355981 497411
189 125561 243014
190 473089 518125
191 883455 268668
192 15261 802455
193 100632 100517
194 689962 482232
195 843131 91178
196 734363 717923
197 737342 36357
198 399086 692654
199 482162 384038
200 652427 118511
201 243797 340681
202 737975 987755
203 586685 144528
204 526045 981982
205 520756 670384
206 175492 611925
207 505596 530533
208 583497 779741
209 485069 726017
210 373391 531636
211 697146 760261
212 183401 586862
213 707254 770616
214 404177 785321
215 103599 211452
216 971365 143578
217 722258 802705
218 342633 271530
219 763072 484728
220 218957 320890
221 615448 963944
222 108840 311494
223 394031 974101
224 534522 150479
225 329102 628470
226 288477 696840
227 280438 440974
228 147145 100218
229 618423 935269
230 645122 315155
231 381456 41316
232 763025 199865
233 54935 211547
234 503085 194101
235 136501 609396
236 245219 334589
237 396915 744921
238 243159 305
239 479823 742426
240 439717 607035
241 152192 468907
242 140199 788443
243 829996 930049
244 380553 522393
245 747769 131085
246 768445 568970
247 348227 609560
248 75671 280858
249 567029 363918
250 68334 393725
251 494278 792095
252 710761 722066
253 476277 819569
254 556641 491994
255 610977 217096
256 719665 96030
257 187499 514037
258 546710 812485
259 693089 153464
260 124193 774077
261 644517 139166
262 125766 742775
263 115118 453123
264 623828 674848
265 268644 423589
266 443664 987828
267 131449 222621
268 887370 56162
269 281407 626161
270 241733 17511
271 236959 227089
272 398199 973692
273 486567 629278
274 443203 605451
275 494442 622547
276 657029 892181
277 95274 644744
278 950061 506449
279 660646 488139
280 834696 420114
281 538161 930479
282 250261 593466
283 980136 492576
284 697830 213807
285 27469 917431
286 369281 87637
287 659021 501645
288 117047 752336
289 43892 481021
290 792713 608668
291 792477 135688
292 840151 848529
293 885428 513184
294 737567 537982
295 242485 394793
296 358332 67600
297 598692 324301
298 648229 149322
299 568067 896553
300 856644 734231
301 585386 962181
302 812738 885773
303 830070 521341
304 52030 246744
305 759316 436876
306 768882 122663
307 245654 439903
308 61782 470561
309 331787 925959
310 945236 830814
311 924508 801276
312 357162 293238
313 332045 407099
314 274899 773247
315 671575 595706
316 700305 797147
317 721705 355837
318 839786 669813
319 890033 400248
320 786747 414867
321 181397 811607
322 592746 411671
323 470284 557055
324 710437 305453
325 992256 241129
326 874422 794819
327 224978 260938
328 33925 788238
329 240476 456900
330 45986 160256
331 631307 651782
332 459997 344449
333 255479 957274
334 529917 833983
335 969618 504727
336 760123 26334
337 933703 704106
338 956391 129689
339 576297 96224
340 259313 543806
341 166623 817998
342 727261 511318
343 964398 48522
344 337150 377256
345 100357 882512
346 139896 56050
347 430629 282020
348 654743 155062
349 877904 888639
350 455279 340595
351 980757 614212
352 46140 448449
353 74506 56424
354 67558 713660
355 296540 985402
356 451088 863219
357 356543 163473
358 20360 575257
359 221152 177976
360 689705 100416
361 79369 641277
362 378703 629022
363 523969 145910
364 980193 485253
365 629600 899966
366 62130 862637
367 799684 273910
368 92718 303403
369 461455 563787
370 490958 389140
371 827370 159173
372 687550 999941
373 803143 498618
374 677346 801607
375 758050 508833
376 174868 392651
377 259038 555313
378 278465 118119
379 814528 772229
380 355731 771102
381 594969 503771
382 222702 907399
383 158032 291914
384 175668 356602
385 360330 521741
386 897911 419545
387 419925 180872
388 925547 686718
389 382239 823390
390 350557 405849
391 331382 207964
392 129521 858498
393 304997 558359
394 639935 892285
395 115877 800804
396 127734 104852
397 203456 969216
398 491229 407824
399 739248 506678
400 74393 116424
401 116379 853955
402 451050 352201
403 177451 966904
404 263129 400540
405 250315 720105
406 478184 922243
407 656352 554927
408 643367 490116
409 300314 253485
410 416169 750207
411 552666 668990
412 282208 243906
413 405362 43955
414 968495 67724
415 3421 958642
416 423589 981699
417 573074 630451
418 927665 409139
419 551612 574594
420 215130 814880
421 258044 386449
422 476115 365670
423 248137 458744
424 822644 959550
425 563853 447274
426 439329 671523
427 503257 115750
428 692835 134679
429 280881 820598
430 424535 768312
431 415292 688534
432 185409 435435
433 462060 91734
434 446127 290681
435 306789 184623
436 667472 340764
437 689632 968895
438 310877 881142
439 165732 166457
440 551071 270682
441 763073 147896
442 643188 235109
443 543349 735054
444 796289 137639
445 168390 835930
446 963011 260930
447 267804 30507
448 147407 917280
449 696817 507220
450 54792 366994
451 293011 656186
452 408478 293170
453 684200 291433
454 28334 268148
455 572400 957780
456 338390 143242
457 652208 588605
458 805300 154362
459 420730 154902
460 288027 544780
461 394916 938907
462 235889 939794
463 891611 11286
464 932286 396461
465 284694 19444
466 852808 897583
467 594056 593290
468 932292 619831
469 495688 54583
470 429808 388987
471 314323 641387
472 849611 623610
473 441013 24104
474 25040 328009
475 138896 136121
476 984994 300356
477 222525 35347
478 514186 395428
479 62129 815187
480 360877 64369
481 795744 973750
482 838339 183413
483 643456 697002
484 293630 28598
485 147591 781196
486 129321 92720
487 16006 151905
488 559786 94560
489 716381 200542
490 425608 496183
491 949157 117098
492 35583 220325
493 223699 879057
494 59243 410643
495 949833 235290
496 326200 467090
497 906992 648612
498 259665 221603
499 625381 697705
500 63823 346453
501 307722 824498
502 902401 642712
503 186964 867896
504 264773 2200
505 811647 635128
506 336184 651485
507 865353 125587
508 738168 328654
509 66758 189727
510 923748 421853
511 71621 595924
512 964774 801137
513 473473 304823
514 190319 373293
515 964941 691890
516 829787 714181
517 388894 790479
518 159999 297671
519 251744 909995
520 482157 895044
521 812299 869516
522 486894 527980
523 163669 730275
524 502315 105855
525 175139 954842
526 31284 252088
527 732764 371933
528 516666 593541
529 435604 111921
530 482713 889292
531 616151 354777
532 520042 916602
533 822828 466667
534 164591 337373
535 961918 7892
536 826339 960903
537 14588 968905
538 390569 819533
539 863160 592840
540 284471 879931
541 869218 78397
542 890579 75648
543 75738 475010
544 194138 472291
545 967651 693331
546 133080 914371
547 948077 474264
548 68705 851396
549 854928 517988
550 137411 344136
551 867114 909474
552 821383 295207
553 85623 952886
554 361508 657115
555 296195 41656
556 399402 963312
557 144270 789382
558 756212 701780
559 406699 45778
560 847897 971431
561 611739 646602
562 199962 617782
563 140777 916864
564 139519 719380
565 883282 437683
566 458024 206045
567 296645 242815
568 480529 905906
569 934127 101197
570 319436 373957
571 68310 148359
572 624394 996219
573 81592 486478
574 714409 330295
575 333486 151841
576 711877 135547
577 634706 699728
578 886111 661069
579 612829 578568
580 814678 179717
581 18758 260311
582 337679 922237
583 973345 251042
584 338918 148050
585 707789 269734
586 987371 76404
587 712291 696055
588 259554 476191
589 11895 500233
590 731670 479708
591 304035 560950
592 904702 703564
593 418924 197712
594 868366 374408
595 269469 229486
596 566988 786076
597 393407 49701
598 386585 991905
599 436068 928338
600 736664 605401
601 474582 214175
602 598624 853777
603 847805 150926
604 230844 931141
605 280803 688399
606 792702 238420
607 309099 585191
608 612729 232682
609 866903 287977
610 535651 981440
611 814974 410579
612 411385 102388
613 795152 773196
614 477780 858514
615 848250 108627
616 245346 80753
617 219429 43271
618 687006 65614
619 251851 319510
620 90835 186242
621 330808 580388
622 838756 288029
623 414511 156408
624 374690 291019
625 254549 613389
626 514125 577554
627 80088 628037
628 360054 393828
629 994745 555353
630 166771 782191
631 899074 911334
632 840306 94561
633 357590 212313
634 399664 21069
635 170680 456320
636 857991 575884
637 33428 922262
638 467314 237420
639 330491 783348
640 742334 401323
641 778451 922426
642 691742 66059
643 209552 334012
644 240446 124868
645 685681 474692
646 665950 230782
647 148830 634514
648 328250 754924
649 546960 916494
650 820715 177090
651 825917 591341
652 548684 853225
653 834938 591698
654 885811 14029
655 418484 26041
656 153381 869876
657 869672 692078
658 116241 668292
659 762503 205792
660 766310 602666
661 665352 483169
662 200354 993590
663 630403 266649
664 27199 180202
665 87324 875615
666 351609 316461
667 364864 716292
668 247941 908574
669 52754 999663
670 949817 541260
671 571508 34654
672 358557 83015
673 809340 182780
674 30427 155240
675 4110 61601
676 727724 366758
677 829170 945099
678 825481 509455
679 226477 832392
680 605284 926363
681 538944 886147
682 64211 877224
683 454533 118727
684 511319 786656
685 882738 933461
686 637864 607263
687 201681 704709
688 874941 298594
689 653999 255254
690 168108 120947
691 40171 194807
692 574917 160960
693 336671 465461
694 252250 487639
695 261759 129213
696 397255 266097
697 116925 16356
698 903395 964244
699 832972 653847
700 208073 510745
701 528780 775173
702 987131 883163
703 21429 532916
704 791840 668210
705 608428 360019
706 257205 738838
707 570633 476071
708 529108 272846
709 769222 47854
710 973829 490288
711 285755 857471
712 578583 371993
713 404680 862691
714 620132 318518
715 683280 342025
716 506754 985789
717 646825 808089
718 863742 301333
719 624173 98846
720 631851 63824
721 696238 204396
722 513810 771470
723 843457 539783
724 687514 744931
725 611676 40704
726 344112 514453
727 970567 866048
728 3991 542991
729 128347 179042
730 19420 720095
731 908742 692993
732 36358 544604
733 663780 52808
734 225027 799162
735 632613 989325
736 585331 24290
737 436178 933125
738 146176 771302
739 886904 712535
740 368002 861689
741 734343 441090
742 299098 963184
743 433282 813760
744 949431 102221
745 144308 810933
746 76305 825011
747 466233 642526
748 478492 671948
749 768218 580685
750 625294 72155
751 652879 974979
752 376929 749986
753 306360 903021
754 215354 7382
755 432765 190230
756 593559 26126
757 34734 208486
758 643789 83731
759 226759 393831
760 66111 991832
761 284590 644342
762 173868 560457
763 336446 610352
764 647361 686191
765 626764 243154
766 555947 879521
767 279769 177772
768 268129 708217
769 406356 90611
770 319394 349550
771 587000 555599
772 36110 152475
773 526342 431963
774 651142 905776
775 306080 868140
776 24586 82026
777 953920 382139
778 516208 773357
779 695210 199157
780 481857 598143
781 496665 124743
782 687988 83215
783 603229 37960
784 990015 882258
785 682143 211826
786 432589 320983
787 87751 197970
788 967246 202563
789 690421 791728
790 44249 563088
791 915142 448203
792 204334 28621
793 746489 431203
794 191532 196554
795 574542 230169
796 718201 524097
797 408467 107568
798 916961 266017
799 467847 838140
800 185229 323779
801 741541 859413
802 861526 742992
803 952998 576383
804 877692 925299
805 635650 85004
806 581824 498656
807 624614 251687
808 879941 972567
809 716276 580420
810 166253 337212
811 570112 151875
812 697029 358364
813 470284 573175
814 459457 344759
815 244971 390862
816 324870 765122
817 156078 959245
818 981263 416485
819 823588 952646
820 148679 773921
821 714927 611112
822 30300 237330
823 660056 566325
824 827067 50102
825 637283 343785
826 806559 123088
827 593168 794366
828 998908 976419
829 703335 902281
830 761728 536512
831 752794 925046
832 776619 861729
833 370076 970712
834 468355 387284
835 591630 313615
836 145499 666173
837 943136 822467
838 530652 447023
839 558707 902663
840 359456 493865
841 869839 557175
842 583030 708458
843 638068 399824
844 988503 294348
845 589168 10551
846 948130 436304
847 361015 835064
848 628421 48754
849 667975 207832
850 706678 213033
851 7618 924404
852 690646 143417
853 473946 249384
854 540058 884709
855 156298 599083
856 987916 408987
857 313112 751177
858 588382 316490
859 564030 941555
860 233307 321321
861 302736 260523
862 680606 378597
863 305996 221095
864 975527 799719
865 348521 281268
866 906965 673997
867 746365 760373
868 505949 460852
869 244063 831852
870 120075 321577
871 835793 46947
872 61040 267847
873 707814 687606
874 755697 982417
875 529067 407326
876 73227 868256
877 859311 425409
878 306067 333621
879 178039 930272
880 637468 13093
881 5320 708205
882 764633 834720
883 763289 940968
884 347946 45265
885 43363 900775
886 560792 581613
887 412488 825981
888 248094 434479
889 401212 255196
890 72530 972375
891 43055 45254
892 162250 335427
893 275947 198759
894 909363 911644
895 997083 564981
896 112906 198798
897 788489 219300
898 760785 254180
899 634459 235059
900 19752 273334
901 286394 500501
902 909887 556691
903 364270 27972
904 706005 523883
905 149462 107308
906 424258 266395
907 933189 72487
908 900187 806522
909 919716 545333
910 73935 509108
911 306508 112887
912 25512 770028
913 614380 60291
914 671725 855796
915 461711 220121
916 728474 877328
917 105734 965222
918 548117 776660
919 112065 89763
920 435240 469424
921 279042 364029
922 837709 487975
923 258472 19
924 173285 18460
925 604919 700493
926 582455 778662
927 773347 799631
928 544860 409066
929 394766 944665
930 8574 587609
931 915907 616242
932 88643 680037
933 828265 60228
934 428685 445214
935 814014 900168
936 633236 901256
937 940414 373441
938 926653 527846
939 339539 225880
940 225168 205314
941 665524 727060
942 847222 874101
943 304213 112231
944 788685 425696
945 136956 487888
946 347974 666850
947 275749 535071
948 836187 377786
949 423614 464267
950 561321 730626
951 660479 947405
952 793292 399604
953 34969 855394
954 931440 899246
955 495417 432628
956 620381 969070
957 807708 520685
958 239634 249057
959 340492 553571
960 843849 450479
961 636614 964418
962 883892 83388
963 239688 685831
964 107964 540810
965 338472 71258
966 596405 440292
967 730463 792539
968 584933 696453
969 919351 326536
970 634466 55156
971 771739 235113
972 581846 686477
973 851274 383556
974 782958 192360
975 295382 150356
976 269822 882804
977 125795 490063
978 134220 220186
979 216941 753
980 814671 338515
981 936043 604903
982 264779 440260
983 660889 385267
984 387224 121230
985 669411 856077
986 466098 148132
987 258188 693493
988 180656 753809
989 838622 393829
990 949167 19502
991 468890 107211
992 726138 999956
993 135215 991501
994 175513 290202
995 131649 199665
996 309229 798121
997 657125 778388
998 589057 623606
999 976924 888352
1000 505820 97464
1001 544934 389129
1002 243192 275880
1003 681466 162611
1004 156665 125838
1005 354848 142718
1006 44673 926739
1007 869103 615005
1008 29285 137921
1009 947778 486391
1010 851203 37283
1011 408343 498871
1012 615409 571946
1013 311143 76969
1014 904939 982308
1015 12027 18045
1016 597143 712784
1017 38980 806448
1018 974828 542150
1019 238107 111132
1020 970671 997293
1021 43722 689122
1022 438999 94366
1023 791322 810357
1024 182711 85178
1025 467245 512087
1026 718667 994616
1027 876324 487775
1028 500321 832150
1029 350148 436743
1030 301052 139315
1031 924503 45532
1032 155167 357554
1033 98996 355551
1034 487740 774736
1035 823683 218927
1036 955210 862600
1037 19145 339115
1038 318615 413726
1039 622547 127634
1040 71625 478993
1041 726821 468195
1042 681255 872712
1043 93542 551610
1044 557616 681426
1045 707452 619276
1046 54410 463370
1047 287449 751743
1048 42083 181122
1049 669976 99883
1050 775750 377596
1051 187810 55077
1052 13553 988252
1053 785266 250471
1054 313361 3612
1055 394233 948710
1056 274533 668721
1057 729290 681775
1058 84905 461132
1059 758083 403424
1060 315471 917873
1061 685575 387856
1062 998985 446087
1063 31117 900133
1064 849047 30893
1065 553848 68144
1066 100365 618935
1067 733401 122914
1068 204459 58099
1069 738904 999479
1070 787807 632409
1071 793527 154192
1072 365954 789579
1073 933701 666553
1074 464384 841362
1075 720625 141949
1076 332075 639082
1077 546034 707606
1078 277230 568875
1079 321676 890638
1080 783792 727166
1081 511566 313881
1082 215805 761823
1083 155182 120340
1084 302767 939711
1085 748074 418351
1086 996747 916720
1087 682798 173521
1088 585798 46492
1089 841821 291379
1090 168856 462241
1091 578457 958408
1092 247101 826682
1093 556577 786483
1094 403130 971577
1095 967732 84118
1096 755332 799193
1097 251404 369455
1098 635662 876807
1099 471394 192432
1100 203781 887208
1101 824732 173005
1102 672506 258384
1103 563492 373666
1104 391981 719352
1105 151029 490747
1106 165745 350098
1107 922906 699673
1108 971833 712373
1109 62476 846349
1110 126161 278375
1111 648946 110334
1112 735930 860865
1113 593619 823741
1114 244213 424413
1115 610028 212131
1116 654510 122468
1117 140349 678108
1118 296496 228358
1119 35502 547427
1120 854848 844203
1121 724006 556780
1122 845416 689356
1123 435172 644998
1124 63262 390538
1125 775835 811920
1126 632593 46980
1127 582403 991649
1128 232697 702263
1129 32655 994398
1130 961887 335134
1131 338163 844553
1132 864503 306826
1133 766740 608964
1134 504682 233549
1135 264500 326835
1136 649111 671938
1137 70513 314241
1138 645781 601965
1139 527930 744281
1140 628168 891356
1141 791086 249815
1142 462526 274894
1143 873968 809957
1144 257965 833523
1145 911367 687531
1146 723676 801953
1147 282926 528013
1148 195091 52068
1149 486266 531175
1150 43575 833207
1151 117067 318981
1152 762370 884479
1153 20834 382778
1154 584454 307509
1155 117681 422740
1156 444298 199131
1157 83030 274356
1158 611457 536210
1159 561626 336490
1160 111734 714672
1161 122698 973507
1162 189974 431293
1163 209767 330130
1164 909567 186033
1165 293407 263003
1166 17510 220421
1167 626599 205427
1168 447058 591954
1169 166785 188169
1170 663436 337757
1171 248330 921474
1172 721789 196695
1173 564833 750169
1174 611978 851633
1175 318245 864961
1176 142501 300232
1177 237767 780571
1178 815696 896646
1179 692381 556943
1180 437421 428879
1181 215992 396284
1182 644072 779923
1183 174410 522823
1184 477342 886334
1185 709522 861288
1186 924231 709993
1187 18245 246772
1188 572170 822465
1189 735739 409402
1190 615597 313120
1191 637748 352624
1192 748612 864527
1193 47010 621226
1194 576348 846676
1195 31016 924234
1196 114611 280450
1197 478647 802148
1198 413526 538336
1199 903229 475016
1200 624524 742368
1201 14429 202576
1202 236036 5124
1203 227213 789876
1204 551620 373240
1205 733561 194469
1206 320298 845705
1207 525926 513187
1208 314267 935542
1209 917637 841924
1210 366397 636073
1211 619594 2325
1212 261809 967154
1213 846859 721654
1214 473957 13120
1215 19559 782294
1216 270844 362498
1217 675841 421127
1218 992822 792043
1219 826698 235424
1220 550259 111468
1221 703588 734424
1222 480278 394942
1223 304639 112286
1224 18641 511492
1225 955288 691871
1226 64379 890108
1227 455457 842230
1228 471523 651930
1229 526735 814908
1230 12302 435170
1231 963178 316195
1232 822980 622093
1233 490881 585873
1234 365426 130983
1235 208547 201981
1236 916900 406145
1237 886635 674526
1238 571694 729485
1239 546868 419578
1240 495631 194928
1241 194919 659048
1242 818 584389
1243 819115 954648
1244 539517 53748
1245 930246 406948
1246 426616 695714
1247 26877 348277
1248 194567 297443
1249 847788 805752
1250 823248 575153
1251 565417 599062
1252 15861 760360
1253 496951 405330
1254 889290 871068
1255 23115 516874
1256 112413 472987
1257 884662 605353
1258 8553 267463
1259 289318 474702
1260 427525 193437
1261 738084 559673
1262 307735 633393
1263 636563 317837
1264 390283 126274
1265 177574 166364
1266 840195 675800
1267 396462 978756
1268 82515 721932
1269 774386 395464
1270 575835 551651
1271 665330 64814
1272 626222 736808
1273 668863 866942
1274 387979 393483
1275 711714 876730
1276 907159 721514
1277 628178 656883
1278 734958 889617
1279 202600 37105
1280 677845 775019
1281 630943 493826
1282 295232 471464
1283 851544 47598
1284 846764 147853
1285 936489 141610
1286 879483 895835
1287 762988 550795
1288 286278 16570
1289 931495 650851
1290 898435 746946
1291 115237 353178
1292 448429 402555
1293 535421 346368
1294 380567 924998
1295 127211 34916
1296 875168 626532
1297 458975 434224
1298 672167 769494
1299 301826 75427
1300 450530 652293
1301 935447 737128
1302 495048 964768
1303 761492 553980
1304 273084 225622
1305 121461 388589
1306 509050 277601
1307 909893 642929
1308 899850 4410
1309 34851 861007
1310 799296 82049
1311 745772 771336
1312 697323 284196
1313 206163 142355
1314 400787 798220
1315 789302 732297
1316 743485 705872
1317 529389 509845
1318 237896 837636
1319 443285 805500
1320 502704 531010
1321 311517 519559
1322 125701 45162
1323 289144 103831
1324 929208 174778
1325 228061 529811
1326 368707 503605
1327 286124 718232
1328 908807 229574
1329 207738 985202
1330 726872 923856
1331 110695 467584
1332 722918 590451
1333 77071 989490
1334 151899 864731
1335 353784 796018
1336 75201 860072
1337 632946 269485
1338 713341 242167
1339 485211 979090
1340 375389 976588
1341 934617 415584
1342 71348 865446
1343 621601 275900
1344 982954 938938
1345 432773 248405
1346 685736 578553
1347 451715 706685
1348 455808 451445
1349 886612 856216
1350 331820 46977
1351 618620 950118
1352 799389 251472
1353 595193 953123
1354 432256 420678
1355 96631 632906
1356 246620 268799
1357 552429 478466
1358 238119 532141
1359 15869 16232
1360 134642 625626
1361 102877 295682
1362 532911 306807
1363 177398 125083
1364 60683 381473
1365 674291 760218
1366 809910 64533
1367 882459 742483
1368 729967 665818
1369 863155 592882
1370 627327 89460
1371 260031 966721
1372 804296 807147
1373 145527 390054
1374 45642 144907
1375 529287 330725
1376 390762 505138
1377 181925 571601
1378 237066 554087
1379 67658 56906
1380 521505 929375
1381 89967 839374
1382 793350 7171
1383 372874 279898
1384 464503 745282
1385 332938 848064
1386 486498 870961
1387 486945 803917
1388 234864 597738
1389 113757 961309
1390 69740 623311
1391 57425 3777
1392 859968 744916
1393 670250 970535
1394 271182 875288
1395 369608 450068
1396 201315 117873
1397 259943 779262
1398 602961 389069
1399 479776 378
1400 572283 547789
