NAME : portgen-1200-1202
COMMENT : portgen N=1200, seed=1202
TYPE : TSP
DIMENSION : 1200
EDGE_WEIGHT_TYPE : EUC_2D
NODE_COORD_SECTION
1 798045 426083
2 784502 959505
3 753848 296332
4 262736 484719
5 292036 87185
6 189289 868539
7 489374 449347
8 566472 974791
9 761526 645075
10 808727 99708
11 312620 111192
12 451426 30146
13 723597 113723
14 867608 648462
15 384456 254234
16 844876 87759
17 699945 23051
18 43715 547093
19 901367 704413
20 227647 378566
21 873763 2756
22 99757 226451
23 996004 6540
24 868899 14709
25 749311 836954
26 277636 879994
27 258940 818440
28 671061 710285
29 726138 761451
30 915790 206754
31 394964 558323
32 257071 913470
33 213422 186533
34 768781 262923
35 453342 559931
36 105891 746816
37 895764 971773
38 822072 432625
39 852252 632986
40 359085 13312
41 387585 106157
42 732672 177702
43 859269 286552
44 830688 786475
45 809628 857181
46 778311 638444
47 251070 667716
48 272674 126946
49 106992 127984
50 404378 563378
51 154288 235913
52 655624 735999
53 449369 171479
54 147321 81238
55 959171 384509
56 879596 939662
57 951822 58608
58 428443 756520
59 307252 589355
60 640796 86475
61 79540 640797
62 858544 889963
63 405643 869977
64 91191 159764
65 522403 650593
66 285304 771013
67 673814 974576
68 133715 447922
69 154334 674064
70 749258 102748
71 979300 241333
72 145679 723153
73 777641 137514
74 779899 361107
75 262072 402696
76 35755 947227
77 605581 753785
78 278074 383274
79 562099 681048
80 602283 1446
81 17144 473257
82 331979 856423
83 405208 638263
84 793983 228668
85 280967 290928
86 976621 946145
87 327282 238099
88 50720 132313
89 35216 104758
90 611889 22368
91 307878 410143
92 557481 520957
93 633448 812046
94 439033 817391
95 569367 495452
96 653939 925666
97 393097 458329
98 126127 33154
99 914051 907579
100 672433 645327
101 102298 675140
102 749217 239704
103 94817 625612
104 389746 84623
105 120337 466027
106 944240 744707
107 111681 106831
108 347506 91478
109 80160 873649
110 730295 372054
111 724211 886404
112 556235 635639
113 188630 301480
114 196927 87578
115 143282 425108
116 742567 950592
117 984421 145861
118 78127 563171
119 298462 450650
120 173450 541970
121 731886 565384
122 87096 197312
123 771240 767535
124 369430 757457
125 269699 824647
126 836226 826473
127 764297 247324
128 902760 151705
129 690719 603356
130 161576 531645
131 327149 939095
132 911172 578366
133 734141 378856
134 657611 914368
135 335590 579971
136 722047 322702
137 603950 905648
138 535827 897738
139 122106 308910
140 732878 36924
141 610761 593571
142 926001 611636
143 97958 803471
144 39419 406055
145 411720 699270
146 905560 384093
147 115059 593479
148 819923 409183
149 961433 181447
150 661484 873502
151 645428 60520
152 24579 232774
153 213885 242654
154 900471 152660
155 149366 99289
156 112285 284663
157 191635 462305
158 626085 943056
159 824036 317693
160 758443 324957
161 417423 476163
162 252883 462088
163 934543 661527
164 298122 371176
165 691762 293173
166 997266 969446
167 159543 633588
168 924639 326097
169 401935 463695
170 985551 154901
171 979434 721726
172 647611 86762
173 281847 429396
174 131210 652970
175 658935 158395
176 111061 590256
177 489685 368311
178 876235 675981
179 900976 390991
180 308135 887788
181 840718 436776
182 167109 994464
183 119855 390559
184 637051 104873
185 180458 196688
186 811846 171065
187 658757 600047
188 213896 827166
189 986478 884571
190 585853 258561
191 760551 907131
192 63041 803974
193 452454 560490
194 802337 165079
195 513733 534079
196 689045 297062
197 283236 788862
198 343055 808368
199 62968 47564
200 872866 454680
201 442918 246638
202 67117 400374
203 397844 203929
204 527215 685711
205 915857 315745
206 873644 735897
207 877257 774055
208 198742 543656
209 153539 378246
210 651408 311486
211 327591 589487
212 232006 725777
213 753770 565207
214 103947 258383
215 202203 9966
216 299950 300767
217 968713 270108
218 384917 24654
219 29873 288985
220 605231 908798
221 406950 424090
222 513670 202246
223 206488 99558
224 65055 557458
225 35092 777848
226 704421 804585
227 845361 862899
228 154729 142151
229 277924 797009
230 15457 373190
231 174055 238230
232 80479 7059
233 908794 449553
234 222226 675010
235 567567 99184
236 478600 596080
237 343154 873560
238 607065 523006
239 744126 369107
240 571048 611619
241 287282 306938
242 242925 829012
243 835911 61720
244 220287 961654
245 361313 935363
246 802427 354862
247 721418 506047
248 430197 810869
249 80936 640110
250 595181 683482
251 355432 695948
252 986410 423473
253 490566 397482
254 561659 16348
255 26988 93009
256 921863 316270
257 435695 80093
258 570763 819192
259 516811 574432
260 576861 97924
261 368617 582116
262 79829 884084
263 743752 782651
264 609670 919681
265 382993 209582
266 961346 727777
267 342118 478038
268 689755 971012
269 871242 162831
270 258249 16718
271 544908 645854
272 384792 263389
273 566746 220310
274 275033 837333
275 762294 647545
276 201199 161254
277 257116 385599
278 722135 627654
279 353829 508371
280 733717 519553
281 526239 398827
282 758099 10269
283 548100 276009
284 931477 172305
285 513347 350452
286 544158 679478
287 812137 929315
288 896724 207362
289 324999 694230
290 161949 116097
291 428822 101298
292 185963 863439
293 683342 562519
294 969677 331848
295 929938 413745
296 39534 698937
297 649484 907796
298 472559 865430
299 833716 455476
300 366665 359383
301 895311 580803
302 675384 646197
303 218723 99901
304 975291 393676
305 702256 159616
306 657977 21980
307 578433 319971
308 480019 827302
309 749343 850302
310 537710 682669
311 442292 476000
312 805640 153963
313 455141 963355
314 4094 165939
315 710592 796822
316 232070 931323
317 991973 2332
318 458119 406841
319 522865 865991
320 383420 856039
321 813176 119374
322 794138 247268
323 971453 563534
324 893296 495520
325 452655 509204
326 861336 667776
327 744884 569842
328 127313 963987
329 588829 673051
330 188078 811882
331 577036 109299
332 10255 846216
333 346440 538602
334 227842 331164
335 348518 916484
336 934006 253822
337 397646 28506
338 821333 774515
339 731115 235797
340 26650 491153
341 374525 331043
342 977861 898710
343 219786 122771
344 921067 145757
345 655892 919517
346 178998 191700
347 517473 466935
348 922033 559353
349 721728 765632
350 425935 196937
351 832418 657498
352 468869 961502
353 134678 530292
354 689914 846174
355 350056 4541
356 42920 443072
357 17158 268560
358 632883 385335
359 591826 543319
360 924182 787086
361 816874 462210
362 905228 151580
363 84066 276507
364 784952 436144
365 893827 291040
366 84600 884941
367 885741 22108
368 448232 931453
369 313885 709301
370 265827 834450
371 530944 377747
372 221574 868806
373 102643 716788
374 286471 365892
375 382869 645526
376 774400 285583
377 871804 134894
378 112336 947476
379 771757 446760
380 513270 203224
381 216407 980613
382 580347 515606
383 473597 665173
384 221497 148352
385 165917 916094
386 98864 225933
387 160450 278656
388 12686 531290
389 590406 770334
390 39243 136589
391 504749 338192
392 922874 690603
393 74632 103987
394 304594 370134
395 548511 783059
396 709956 165532
397 543383 349732
398 735586 305010
399 217297 942917
400 856120 571352
401 126382 516137
402 326648 246279
403 140776 436208
404 362709 181200
405 60262 8349
406 642882 401622
407 898248 730210
408 493268 50874
409 437229 230614
410 780020 168586
411 447875 278579
412 292232 594564
413 789711 582726
414 899285 914170
415 137880 576477
416 168580 409205
417 710071 30894
418 493707 103126
419 439943 192663
420 197334 23757
421 666757 73979
422 590114 379925
423 335183 431376
424 873300 948819
425 560021 152859
426 405725 303126
427 805037 279642
428 402771 717177
429 806065 295754
430 752572 37649
431 996265 170046
432 983866 36504
433 341591 568902
434 811508 518323
435 395026 61892
436 177574 488410
437 670593 627160
438 762860 144749
439 473542 12589
440 191792 72534
441 776660 603530
442 161598 100230
443 580212 998534
444 425338 673567
445 689302 924804
446 291618 921620
447 797636 135442
448 846183 178347
449 403386 962954
450 617065 190434
451 957834 860711
452 757026 487486
453 376199 802195
454 141528 704807
455 699430 404237
456 291838 132498
457 606452 827768
458 746031 74645
459 372409 848423
460 190320 163244
461 165516 848553
462 901257 204592
463 104058 316862
464 731384 183106
465 250960 960664
466 3220 768734
467 313159 787555
468 780695 644161
469 997077 333830
470 354199 505566
471 626125 576915
472 483246 526057
473 759288 443064
474 20362 593044
475 31384 529321
476 446963 220279
477 711994 656400
478 187213 189099
479 547551 969470
480 706791 732037
481 805117 807698
482 350608 193863
483 778112 714923
484 649251 80395
485 68479 302966
486 54283 779365
487 817039 660999
488 716281 945236
489 136559 244857
490 17379 914958
491 769310 761913
492 476314 518922
493 155546 195522
494 418126 119296
495 9443 65771
496 994910 916682
497 265350 51232
498 451283 846759
499 759875 822247
500 809776 814051
501 306505 775504
502 575664 116425
503 760010 685049
504 743964 193071
505 500853 991690
506 770972 428255
507 960027 641019
508 737127 888435
509 542348 299375
510 742579 931352
511 955047 827004
512 270619 254428
513 996461 278778
514 203700 700613
515 900989 31231
516 201271 943488
517 744003 25688
518 143986 341054
519 801886 835294
520 781795 267111
521 653174 118751
522 376716 78090
523 110723 167906
524 646063 10921
525 54771 172505
526 643059 59262
527 921258 778544
528 612779 363016
529 31500 549976
530 972439 418955
531 883163 908669
532 411275 233742
533 338516 652220
534 51539 881936
535 530295 569220
536 242372 531426
537 244603 570073
538 288293 895785
539 905746 492074
540 641648 633444
541 247277 653724
542 728174 482033
543 148068 292602
544 532212 510261
545 687172 491765
546 289515 919949
547 304998 212574
548 24738 121748
549 874148 806642
550 789797 214938
551 262160 153988
552 369273 421327
553 925228 989335
554 331088 439224
555 630476 320177
556 830804 521239
557 862803 480673
558 129440 963214
559 603670 198700
560 209003 216767
561 778072 244896
562 92138 315357
563 307060 88383
564 162152 823276
565 644845 298958
566 564696 466521
567 861598 321471
568 802640 726038
569 790920 247500
570 352593 184853
571 688931 333512
572 301258 470404
573 713693 44619
574 827810 989641
575 905513 936355
576 959595 50872
577 161797 490839
578 650241 795638
579 292389 47802
580 618687 199189
581 198414 83587
582 86630 445622
583 631246 497291
584 219980 392399
585 766980 84821
586 135403 614029
587 293186 272648
588 257172 727200
589 83099 601298
590 665115 511422
591 795993 114350
592 204588 445655
593 100543 481109
594 379890 415976
595 690224 305348
596 506057 398520
597 480520 267772
598 49450 74902
599 40325 28610
600 213231 986492
601 961519 226512
602 324526 394091
603 140361 845244
604 846283 716141
605 390296 169132
606 415747 876413
607 357577 313339
608 693132 799894
609 603067 818858
610 396171 556343
611 456966 191370
612 179167 780487
613 123301 908891
614 289502 899095
615 132287 411927
616 880917 366957
617 211002 495982
618 95675 919580
619 756773 891249
620 752522 300649
621 878041 561032
622 19804 133881
623 848381 314686
624 219352 700032
625 144471 140559
626 785399 141229
627 896322 801304
628 105575 594561
629 15509 828544
630 298415 220780
631 88470 955034
632 963618 89647
633 291090 854714
634 856609 223696
635 464957 378446
636 580541 903034
637 674387 255612
638 770944 315737
639 295047 377863
640 674912 528739
641 893381 460958
642 600679 911506
643 323456 925882
644 403339 121354
645 204891 240960
646 62971 533077
647 426291 374076
648 720107 975006
649 886645 764192
650 362936 532644
651 19638 841489
652 25120 615731
653 247178 324441
654 540549 984816
655 477847 179692
656 191222 894155
657 623652 57455
658 157809 555393
659 528742 589541
660 369539 316084
661 968069 92416
662 860759 932313
663 358807 739051
664 877914 58655
665 8434 446502
666 775187 310231
667 900016 495219
668 337517 999226
669 837305 543224
670 753696 768063
671 397139 813797
672 751815 888807
673 272891 970554
674 672318 493977
675 15268 981056
676 97092 827990
677 755757 916434
678 757456 709407
679 941472 529900
680 278214 247951
681 487136 997325
682 231120 709783
683 782552 377424
684 142339 734845
685 784564 187255
686 883074 34765
687 574272 388483
688 218991 140079
689 336659 944324
690 174857 649400
691 797579 348013
692 780441 760482
693 959366 777862
694 79110 190233
695 712666 960092
696 856886 102460
697 758660 566440
698 884988 362374
699 239524 363331
700 669815 132812
701 633894 727993
702 319120 365868
703 183476 749079
704 47548 995275
705 957068 979594
706 630296 751239
707 817234 318121
708 391065 384676
709 238665 664679
710 824794 420178
711 137899 779007
712 65029 651751
713 553360 155080
714 715645 208404
715 205006 469912
716 92530 341383
717 987256 195263
718 19103 46339
719 530779 462319
720 369417 574690
721 539196 414430
722 365438 292488
723 822193 77878
724 37430 106908
725 13079 729908
726 646729 31120
727 158325 199903
728 40282 292511
729 740737 123857
730 346765 137137
731 218299 585229
732 625858 382378
733 440397 215865
734 385800 524745
735 495928 313187
736 347245 131757
737 651599 94886
738 773448 106778
739 620682 865125
740 611469 260849
741 414342 591788
742 861638 67869
743 251612 507300
744 715525 604877
745 754865 803237
746 660539 6033
747 966391 56229
748 227444 407439
749 762831 270552
750 519039 715414
751 457196 172304
752 495438 752230
753 315565 54941
754 169481 90456
755 948290 532981
756 576985 135859
757 368991 543527
758 476597 212266
759 618837 569628
760 154933 32957
761 453034 115247
762 5705 780513
763 855990 174940
764 636318 899369
765 779321 718507
766 937296 530225
767 916834 78488
768 683863 278482
769 222796 318111
770 591271 39346
771 888463 145896
772 449944 721908
773 350203 545292
774 327 185877
775 200239 52504
776 771121 863461
777 491231 800532
778 778117 926970
779 255469 416949
780 68366 37082
781 832144 851370
782 499184 908944
783 644518 431088
784 685915 647082
785 193324 931305
786 211939 432959
787 369389 102428
788 261836 589573
789 624015 205173
790 2395 929020
791 919470 219369
792 831003 742238
793 886362 85926
794 31041 7890
795 433970 252774
796 592567 575714
797 124787 659966
798 827406 455503
799 776507 347515
800 460072 760630
801 921276 795154
802 183482 271218
803 133034 551751
804 32458 748992
805 914170 692191
806 895929 247579
807 982979 815591
808 444514 256430
809 726582 839218
810 81537 189014
811 654581 338399
812 187010 432694
813 10029 416785
814 249477 98170
815 969394 710084
816 557114 875022
817 291002 310204
818 33091 671890
819 236389 15411
820 297724 629931
821 359343 191822
822 926352 244955
823 598193 254168
824 388703 692093
825 649936 410621
826 206025 678337
827 378121 749987
828 203515 46253
829 504151 873277
830 238127 461143
831 315362 17047
832 451268 284238
833 332847 704106
834 321227 738023
835 217398 190346
836 867726 34489
837 189281 670916
838 982989 976243
839 960277 437022
840 229178 963776
841 912633 376199
842 860043 508250
843 394722 540067
844 423754 6764
845 977356 328984
846 350663 498365
847 798013 107377
848 762204 324854
849 2541 255436
850 261966 621949
851 293890 951681
852 462914 686160
853 497987 829825
854 818294 869871
855 355265 663447
856 622499 497386
857 895920 909142
858 110480 816996
859 219033 343891
860 522033 7993
861 701565 65791
862 476057 595448
863 896456 916045
864 571574 503120
865 172928 153163
866 157949 90406
867 81756 565731
868 341277 415247
869 480278 950900
870 397769 577726
871 321033 79862
872 484731 969363
873 627419 284871
874 22308 202564
875 210921 846159
876 753279 499420
877 82508 108803
878 463999 203483
879 869924 897183
880 344883 82740
881 349547 867393
882 472101 777539
883 342413 542636
884 12655 926557
885 281723 825609
886 794687 16469
887 132970 675874
888 254714 202144
889 983283 367254
890 131448 692972
891 46121 674391
892 158236 90187
893 803616 290555
894 618304 304217
895 223317 798640
896 402592 553721
897 669177 572160
898 783038 304564
899 946892 808857
900 714649 425275
901 301588 655053
902 71116 517948
903 800037 78887
904 341183 992320
905 305186 173444
906 585179 565707
907 673865 546242
908 680148 795825
909 198216 899941
910 994501 37849
911 595743 203798
912 211908 856447
913 524020 139633
914 945353 615021
915 875836 175826
916 860960 990962
917 62067 958004
918 107792 480414
919 525 611994
920 410038 7790
921 92338 718362
922 309715 185467
923 202897 198793
924 341813 812729
925 48139 643404
926 359211 331870
927 933020 538822
928 564314 310626
929 592986 113111
930 410155 319622
931 78361 729189
932 582281 297396
933 81105 866816
934 255991 488398
935 343345 481354
936 454012 385487
937 851801 351097
938 678638 263872
939 270777 673085
940 292133 213394
941 546647 832241
942 204865 556213
943 97464 131770
944 408680 764671
945 876899 240976
946 224423 512127
947 268648 928684
948 553778 706851
949 866560 958618
950 506829 939024
951 928016 668727
952 520595 834745
953 96757 526969
954 127005 376806
955 441357 432543
956 901945 828315
957 236212 169179
958 95199 566234
959 460541 653597
960 743617 374253
961 256 297372
962 981568 404321
963 553338 785284
964 864891 17056
965 254339 151668
966 136867 893971
967 231727 859589
968 311448 718332
969 596028 35685
970 461014 531230
971 671229 755083
972 21053 502645
973 240719 927050
974 530558 864327
975 375345 768494
976 841959 849504
977 704278 355160
978 802156 34044
979 437000 661006
980 523296 378425
981 930940 91319
982 915792 910126
983 761314 146862
984 807261 733567
985 928459 168149
986 35675 596214
987 278251 975123
988 532294 150751
989 593094 626407
990 602164 519294
991 348284 203885
992 493759 875914
993 220727 45548
994 978179 321600
995 98275 164586
996 911070 862461
997 107225 292864
998 495555 75015
999 476832 45929
1000 970350 89968
1001 333956 904150
1002 262162 856051
1003 420210 638073
1004 355744 828364
1005 134432 756608
1006 55865 115399
1007 562730 358709
1008 467355 68479
1009 984093 622927
1010 414570 686298
1011 670030 761332
1012 763216 838491
1013 834193 131524
1014 334051 422199
1015 554913 894221
1016 795007 764729
1017 491975 845556
1018 463428 232884
1019 641155 135050
1020 408559 152248
1021 61455 355251
1022 907030 411976
1023 494556 149737
1024 99244 268734
1025 458671 364031
1026 740963 54632
1027 491016 76129
1028 294960 569226
1029 412175 416605
1030 392623 187325
1031 996918 220694
1032 419804 982184
1033 695152 700613
1034 208369 150754
1035 864153 317617
1036 969234 715358
1037 164256 50539
1038 945335 615397
1039 270315 687087
1040 543530 264967
1041 719348 917446
1042 29576 367588
1043 897302 574313
1044 344925 509791
1045 150404 762815
1046 24515 490401
1047 270896 90942
1048 183014 346096
1049 190994 856490
1050 466641 879159
1051 879422 412157
1052 725203 193704
1053 644683 823517
1054 25056 123427
1055 178826 720647
1056 224300 902384
1057 266201 629808
1058 162809 506517
1059 949797 328861
1060 799169 349056
1061 509619 351878
1062 684112 984994
1063 438194 557077
1064 990155 970552
1065 405856 121817
1066 590340 146887
1067 508261 822883
1068 40666 816963
1069 651244 399768
1070 204778 390785
1071 624515 16063
1072 710621 801347
1073 253195 672637
1074 806288 285902
1075 652747 625937
1076 355940 220441
1077 450634 344823
1078 288818 732534
1079 903896 902320
1080 153037 827719
1081 172273 625288
1082 918649 788040
1083 96132 208236
1084 191763 464854
1085 376612 490172
1086 700228 663895
1087 676114 173232
1088 993115 289177
1089 901244 339288
1090 696175 705660
1091 653180 87835
1092 817515 578136
1093 949544 965052
1094 228238 720220
1095 726751 832429
1096 625200 186390
1097 23155 714606
1098 690557 960620
1099 339949 537389
1100 808232 964018
1101 771393 466999
1102 589726 947086
1103 972756 268105
1104 402926 872497
1105 395279 323766
1106 504295 183675
1107 175569 320608
1108 202519 985882
1109 602132 204042
1110 97483 135511
1111 868287 654374
1112 656621 412594
1113 718779 233228
1114 74168 729027
1115 200475 725009
1116 886250 28746
1117 944009 372409
1118 201365 469504
1119 912265 496907
1120 375617 963662
1121 362919 24196
1122 622736 591239
1123 964142 970825
1124 529768 610561
1125 995827 457328
1126 886452 610922
1127 336913 83222
1128 77767 742646
1129 522990 217317
1130 745721 503251
1131 355839 906019
1132 496880 431617
1133 960846 480098
1134 560939 584329
1135 356465 231693
1136 456113 991570
1137 208214 640154
1138 249059 257364
1139 317460 573399
1140 334826 976132
1141 710237 856850
1142 983306 697223
1143 369169 980231
1144 531865 512392
1145 411563 721267
1146 908565 327936
1147 140441 143923
1148 507548 371349
1149 815981 982582
1150 342179 706777
1151 653365 956369
1152 275735 19695
1153 747090 29601
1154 627616 639690
1155 714052 97536
1156 210781 10598
1157 805754 24454
1158 594686 27903
1159 765578 352957
1160 924069 589496
1161 664116 578356
1162 242150 649688
1163 578328 499744
1164 715835 188519
1165 893063 219458
1166 629748 677770
1167 859346 237290
1168 765350 699639
1169 51096 958851
1170 102537 341265
1171 214653 178907
1172 588323 822066
1173 57150 330208
1174 85785 490753
1175 565595 7803
1176 655513 627462
1177 89518 122721
1178 77028 975594
1179 97022 38444
1180 254345 47451
1181 978504 668764
1182 537152 372786
1183 882882 31873
1184 422275 983687
1185 967303 264477
1186 942118 274824
1187 787361 916265
1188 933982 36654
1189 488838 119429
1190 572659 602733
1191 402721 677390
1192 934174 845612
1193 240953 960984
1194 140617 486559
1195 354407 733476
1196 277364 67409
1197 991547 838059
1198 399147 939828
1199 391545 672057
1200 888083 20496
