NAME : portgen-300-303
COMMENT : portgen N=300, seed=303
TYPE : TSP
DIMENSION : 300
EDGE_WEIGHT_TYPE : EUC_2D
NODE_COORD_SECTION
1 311070 362602
2 910323 175951
3 469847 630155
4 853793 585862
5 511308 515362
6 29695 931283
7 956064 23278
8 36695 870795
9 862287 251223
10 552865 817239
11 224232 172520
12 705192 487511
13 441455 868298
14 101411 246103
15 520370 592946
16 272910 331392
17 217133 705104
18 601551 745438
19 318500 712562
20 430253 479807
21 840590 309724
22 281339 325678
23 673599 909345
24 936406 289586
25 646107 948083
26 936525 844248
27 529923 648003
28 921118 979677
29 145469 205219
30 574399 724408
31 311654 141231
32 155608 31501
33 674771 719970
34 649944 630385
35 349679 127350
36 934388 572701
37 605116 604781
38 880713 379984
39 642596 57188
40 566393 461778
41 722828 896192
42 671703 795961
43 281291 131679
44 175784 185631
45 30332 881581
46 95494 688115
47 362882 302903
48 545418 267889
49 704608 676557
50 444964 293614
51 266748 879218
52 723192 184328
53 225255 40333
54 172544 733961
55 366712 789439
56 803892 959837
57 174886 692818
58 628914 623538
59 778349 852704
60 486082 406882
61 15361 973386
62 185420 56064
63 860601 55170
64 849508 420787
65 379526 840380
66 207439 908634
67 690476 776954
68 657885 762990
69 721305 978884
70 167047 657752
71 353330 323079
72 699549 623449
73 866219 122107
74 502694 306817
75 442302 490248
76 418381 283821
77 297031 604584
78 86175 358113
79 188741 946238
80 526443 462264
81 319028 193660
82 566914 708959
83 436108 480813
84 260288 551437
85 826599 506807
86 120844 471531
87 410402 995834
88 988501 731540
89 676355 580836
90 969889 502487
91 866429 903269
92 894343 917261
93 521352 13779
94 341720 981517
95 340845 177071
96 502702 169868
97 152285 660239
98 536908 881798
99 912677 703715
100 634948 134679
101 445752 921858
102 336928 939814
103 623819 515111
104 389478 379770
105 83232 72395
106 16393 207224
107 605393 349371
108 959562 149159
109 41374 906674
110 172050 554310
111 568136 556573
112 916488 691920
113 61055 198985
114 134603 470587
115 372015 473389
116 342062 296584
117 497604 897493
118 486093 659204
119 297875 544971
120 957699 372192
121 972405 435045
122 809466 786534
123 608935 946128
124 253379 460365
125 599184 337923
126 747195 442089
127 331699 161559
128 792617 149167
129 424254 439434
130 453721 964614
131 217235 844506
132 422071 711039
133 99990 581348
134 397757 818858
135 740436 13433
136 895779 581008
137 307490 834127
138 807115 126047
139 224873 754928
140 899302 911888
141 774730 695168
142 16866 407400
143 256153 497555
144 874513 786564
145 797502 904745
146 261446 479017
147 804535 944265
148 476412 391396
149 127554 975339
150 979419 482888
151 721255 498451
152 561062 687295
153 563192 52027
154 425222 924299
155 905405 295061
156 274653 637690
157 641932 548975
158 703167 738218
159 39971 477805
160 234627 708593
161 453794 422418
162 839439 257547
163 292177 397328
164 19945 620194
165 270934 755088
166 700824 300574
167 849522 604241
168 637234 137040
169 53236 467890
170 704232 517935
171 457584 396708
172 551937 88908
173 450951 839028
174 639577 546987
175 652087 79083
176 371451 507359
177 704405 224331
178 782064 420681
179 648928 956821
180 50061 426152
181 998791 957331
182 220066 387470
183 837477 877945
184 85752 553023
185 98024 864139
186 98640 492983
187 825717 155543
188 337142 946434
189 718013 615107
190 475483 871496
191 748400 63124
192 570133 844781
193 756296 743492
194 80508 462052
195 766764 759289
196 51287 500212
197 369866 840093
198 419294 964601
199 570990 396394
200 751766 504516
201 121014 24470
202 71503 780591
203 330683 308327
204 937226 859623
205 468034 38571
206 340172 186875
207 190057 290771
208 374865 498578
209 587465 379972
210 968175 872875
211 306954 689358
212 801257 593507
213 743124 74170
214 421479 45126
215 824859 28815
216 9208 858389
217 147072 436912
218 531323 561524
219 873066 279361
220 469915 257718
221 156027 700535
222 493876 893888
223 452334 361928
224 698955 776358
225 96968 345123
226 543121 525864
227 571534 722951
228 495308 262625
229 877397 634591
230 249267 769158
231 435260 657864
232 389707 210316
233 882543 639637
234 692999 296168
235 838437 12937
236 799623 811106
237 283004 623052
238 329754 781090
239 117824 78305
240 98199 480499
241 196773 786887
242 795858 55700
243 593554 351343
244 468681 936756
245 554368 891686
246 868525 576898
247 440924 456978
248 458095 344921
249 417530 870824
250 564133 671243
251 244103 620649
252 678159 616468
253 148350 756233
254 730005 515833
255 129396 143964
256 793943 940640
257 80222 357581
258 900633 858362
259 216940 932729
260 752220 537622
261 222106 822174
262 732034 167193
263 768833 178973
264 132946 666535
265 474701 573520
266 51085 601991
267 948909 954234
268 686556 256133
269 706665 438277
270 155067 735192
271 134403 535952
272 184535 16746
273 669579 46350
274 844863 273730
275 688144 279122
276 211974 750995
277 396122 990613
278 620158 642112
279 671740 723925
280 929912 892217
281 49568 291728
282 360766 394204
283 9561 257990
284 756104 63476
285 688001 854283
286 13498 943210
287 244584 473098
288 325647 471111
289 426052 741421
290 547035 126721
291 507232 409021
292 736623 582484
293 523952 759357
294 241224 554704
295 944673 428565
296 500028 643188
297 750275 300783
298 721694 191193
299 291368 711437
300 691098 198468
