NAME : portgen-1200-1209
COMMENT : portgen N=1200, seed=1209
TYPE : TSP
DIMENSION : 1200
EDGE_WEIGHT_TYPE : EUC_2D
NODE_COORD_SECTION
1 479256 700215
2 508773 15661
3 370075 865480
4 782050 903286
5 675201 861381
6 27017 469831
7 482403 461563
8 373712 571819
9 866414 935127
10 75458 559082
11 103074 70670
12 184712 990990
13 495538 729650
14 769013 918558
15 879505 298315
16 298717 303882
17 601369 776361
18 9338 123969
19 672313 222703
20 381798 106365
21 361229 985905
22 249623 806323
23 589171 453348
24 961811 95995
25 655565 333308
26 847589 138337
27 9889 139011
28 221951 175373
29 98846 732411
30 6323 246105
31 193166 559346
32 521487 568836
33 500152 41111
34 220207 676080
35 872392 920363
36 610008 770418
37 279562 742150
38 711493 964737
39 60781 45700
40 769039 320165
41 630804 36601
42 912235 633399
43 105148 739371
44 782395 32533
45 276208 968226
46 903761 996233
47 350311 461435
48 496357 590810
49 706343 507473
50 94830 624433
51 392567 916110
52 326956 335400
53 702504 810987
54 226102 376489
55 33862 482579
56 392978 66313
57 456203 38097
58 342343 196933
59 209034 60052
60 72479 909342
61 334767 712734
62 581249 247958
63 527796 693897
64 443462 944161
65 39645 900505
66 738635 684291
67 11838 286459
68 927186 564490
69 580398 874137
70 291055 908215
71 530336 722343
72 960054 366866
73 633458 191026
74 414983 102352
75 933639 802459
76 147347 762181
77 467827 194324
78 885797 708276
79 904272 40496
80 408213 138013
81 230589 351964
82 85434 125646
83 952243 670634
84 106259 89336
85 404638 151316
86 781949 106682
87 126412 270019
88 761994 572586
89 244906 386925
90 362160 819519
91 789625 402966
92 535948 901631
93 669916 386671
94 598857 886191
95 334216 256552
96 458231 491061
97 469499 139738
98 126265 423654
99 595930 690034
100 604871 60872
101 946120 28058
102 740192 114119
103 12833 744381
104 226233 566196
105 524407 499126
106 109418 18080
107 706279 151661
108 679782 739527
109 882464 945695
110 999380 528588
111 74704 416224
112 484464 343766
113 205196 753891
114 366489 12293
115 257185 17613
116 346352 678710
117 862517 863034
118 710101 771545
119 696686 384287
120 221849 930389
121 504207 653161
122 886810 805628
123 181848 42006
124 6596 125733
125 934541 372374
126 57164 583637
127 432848 587258
128 714519 267409
129 165541 877157
130 404018 241288
131 47694 841945
132 344347 594018
133 994919 456256
134 131269 900651
135 969813 637775
136 732930 756731
137 11153 627006
138 471424 491066
139 983375 897206
140 629246 937787
141 588349 489332
142 608275 15896
143 969918 504406
144 334363 268498
145 868115 253844
146 640275 796035
147 414474 584073
148 197458 747475
149 642008 259804
150 334204 690781
151 58631 109390
152 496486 996754
153 784024 567832
154 975362 416952
155 617339 210112
156 933046 897042
157 9041 150173
158 601013 251659
159 427471 760273
160 396559 247443
161 814248 871465
162 566447 279031
163 579144 623540
164 260244 14398
165 842981 903591
166 515703 566423
167 279866 419134
168 4741 691307
169 480290 458101
170 414882 718259
171 76935 574090
172 871938 620672
173 439596 768810
174 229587 135442
175 4929 573918
176 487231 627609
177 416823 430612
178 175077 492207
179 829523 77352
180 992013 92717
181 87541 517261
182 2069 899079
183 133177 358955
184 25104 388369
185 710577 832203
186 22071 292029
187 755344 822641
188 760211 186638
189 454642 135835
190 103953 86936
191 794016 182891
192 22385 750263
193 816050 998442
194 564353 380786
195 285956 645785
196 666202 91921
197 747523 582679
198 696188 784905
199 818745 49297
200 860461 252957
201 314167 93752
202 31488 917992
203 779902 304340
204 605224 666559
205 614561 176635
206 927853 448737
207 791396 346228
208 426514 995620
209 769738 419390
210 202891 348271
211 540210 975806
212 527908 457619
213 518035 928318
214 260541 837351
215 42738 455871
216 581413 788082
217 521274 927318
218 159082 345279
219 391495 676157
220 323748 820430
221 228704 144963
222 177895 937684
223 105575 690396
224 564013 289903
225 64643 767869
226 524364 981393
227 6559 404589
228 671544 526085
229 572478 104169
230 758909 434623
231 912844 929067
232 342810 794130
233 947930 782889
234 270841 853711
235 240652 736118
236 431606 479834
237 354746 435021
238 823907 558816
239 969247 123318
240 786075 991950
241 355840 156371
242 78442 608115
243 543026 652346
244 445272 727143
245 979388 376193
246 74437 537783
247 435504 587630
248 388823 748869
249 790217 742874
250 113777 546758
251 721148 440694
252 503827 72693
253 412029 367992
254 902951 398444
255 861563 19197
256 80813 845335
257 124781 382716
258 360185 375061
259 493562 755180
260 405307 199061
261 992672 527966
262 739934 693893
263 14969 990911
264 976007 282052
265 22991 455914
266 655864 570803
267 261754 766878
268 911137 510505
269 31589 695726
270 247929 167965
271 158783 690091
272 321835 780326
273 383520 546470
274 797849 741610
275 572660 397911
276 772862 508164
277 719882 657862
278 890894 150345
279 178940 736949
280 161556 901524
281 336403 207225
282 150514 693598
283 860413 390721
284 523499 344454
285 999195 813715
286 577211 751952
287 182519 7395
288 426198 484507
289 808083 82071
290 802999 864623
291 811971 239057
292 120496 121467
293 119511 448639
294 420288 568155
295 906464 520415
296 987005 687135
297 696530 434214
298 590753 406831
299 507572 314440
300 354128 899012
301 738386 715777
302 938610 708036
303 585940 533804
304 387667 598415
305 538351 442254
306 730056 610784
307 830484 641140
308 914518 649267
309 510694 716300
310 102845 453581
311 883148 209058
312 990326 100182
313 75328 861434
314 813341 474482
315 421455 892394
316 96839 209668
317 543720 360745
318 134566 201186
319 408573 479356
320 206949 470243
321 937944 703987
322 465310 452882
323 637267 777947
324 696808 596347
325 358886 729318
326 593490 33090
327 892985 461733
328 802172 528718
329 172056 577865
330 573470 384753
331 125231 908311
332 391466 68107
333 504309 26069
334 145474 377602
335 3873 136571
336 952459 914347
337 357414 373526
338 860091 850058
339 316073 528592
340 298009 546609
341 689377 235475
342 901012 36701
343 767163 188528
344 818201 475613
345 856435 108497
346 55712 30971
347 475483 70377
348 517784 23597
349 346573 91783
350 592791 787209
351 461873 168215
352 298337 812276
353 39940 358014
354 132078 856283
355 694570 613644
356 710516 696443
357 721429 464972
358 329040 94260
359 432827 321088
360 550322 480712
361 679496 53690
362 784810 216664
363 674697 784243
364 616009 545138
365 333586 502077
366 717979 459789
367 834022 684365
368 836093 992934
369 514045 436039
370 707660 672903
371 755700 497113
372 925290 375722
373 429001 2021
374 246160 258819
375 395680 733541
376 407587 801434
377 758197 90714
378 69229 2084
379 334193 613971
380 976183 47005
381 843968 696038
382 148622 21667
383 857943 213403
384 771152 345706
385 35970 327018
386 848099 174008
387 925408 816781
388 73125 878061
389 295493 694096
390 147434 672613
391 450049 2037
392 568954 286580
393 658108 21941
394 311166 812354
395 826421 622689
396 221782 168338
397 400069 380641
398 824803 581692
399 571705 108509
400 302597 550940
401 706528 552063
402 111384 723067
403 283492 405549
404 232480 471617
405 432605 47287
406 690917 521839
407 787549 353493
408 825223 675629
409 295969 767980
410 196864 276251
411 641697 662642
412 43109 485030
413 620490 296036
414 62623 202340
415 533288 667575
416 645581 823875
417 261491 100147
418 981696 928210
419 214487 215461
420 461357 982479
421 725972 543186
422 615490 550170
423 980991 559140
424 125229 915039
425 760151 528766
426 519068 369364
427 575220 635021
428 905359 882653
429 290571 11237
430 741371 355282
431 191061 17018
432 10260 450126
433 321315 147731
434 906348 237379
435 372501 266083
436 550399 380929
437 7828 668097
438 757182 272333
439 87421 408087
440 579670 737836
441 5464 51386
442 460969 178006
443 476514 628562
444 813615 811365
445 778831 833964
446 21861 977108
447 842959 195274
448 432079 345042
449 535357 947392
450 792987 708658
451 471718 717142
452 335368 22315
453 523302 467681
454 908394 397213
455 158507 276797
456 69038 479206
457 232405 907406
458 333420 213952
459 174059 814986
460 18047 976272
461 612373 958955
462 444391 663843
463 794364 833257
464 45561 985513
465 144795 289501
466 363938 690207
467 249580 302873
468 668798 526258
469 818981 553563
470 844585 262561
471 454502 998628
472 793317 802559
473 221591 62905
474 532717 179116
475 400909 598821
476 299481 549843
477 802597 503486
478 344719 781510
479 467561 32495
480 353516 997044
481 648700 354831
482 552628 895945
483 822294 70409
484 685888 429845
485 685815 270515
486 681235 994943
487 414077 419225
488 676791 62530
489 156358 940905
490 319123 12854
491 365695 13066
492 631997 147751
493 640800 9106
494 137579 353634
495 480578 598389
496 840369 389135
497 867747 574070
498 581326 459559
499 584551 374092
500 125767 159060
501 906546 591811
502 859992 388055
503 233125 286415
504 917846 654846
505 862685 335612
506 643930 113927
507 551916 755127
508 156674 259565
509 487084 978558
510 314619 362735
511 485857 311796
512 304078 526754
513 363968 89423
514 134950 26022
515 186099 390376
516 144684 501512
517 78219 983510
518 368923 251768
519 461149 876870
520 991076 381235
521 522022 159021
522 39015 117843
523 112531 528572
524 85057 340992
525 210101 491902
526 324608 558529
527 187992 735391
528 14375 405034
529 513592 876481
530 19131 981357
531 825265 40975
532 663769 481449
533 813590 484909
534 74911 434073
535 642595 628102
536 174507 146091
537 768456 822716
538 38126 927327
539 123804 568686
540 512379 958933
541 575831 258469
542 6890 204742
543 565110 103708
544 837742 596769
545 169920 884014
546 176856 27076
547 234274 362973
548 206728 375931
549 390564 216298
550 79716 185204
551 404768 516370
552 828613 251167
553 916070 66139
554 551639 983249
555 170281 910667
556 567292 916822
557 706561 135117
558 804500 798189
559 806701 300796
560 274721 437658
561 94344 858613
562 354356 457391
563 223334 658136
564 317477 517289
565 906645 971987
566 375688 140554
567 398405 601712
568 391641 659009
569 551907 871773
570 400241 766920
571 297007 536945
572 322048 732261
573 789670 318243
574 672719 776883
575 139639 548591
576 58453 873275
577 309652 107728
578 809515 264213
579 117965 226901
580 859526 257061
581 514231 679866
582 583008 403360
583 613659 30346
584 594773 974299
585 345447 486257
586 125470 29817
587 161156 726130
588 379205 221068
589 548960 246628
590 647875 959120
591 540170 90576
592 657763 649584
593 457756 695822
594 557546 995044
595 988052 361294
596 64235 577607
597 526326 913984
598 641450 267190
599 375789 595917
600 353056 568601
601 769282 426090
602 129008 180519
603 8420 967877
604 215512 660068
605 649972 113693
606 706667 122921
607 238848 498231
608 192826 936623
609 153539 669023
610 761910 346469
611 654557 998856
612 621243 776845
613 716974 699379
614 900809 980636
615 717710 411327
616 5556 888892
617 596655 534182
618 252452 417249
619 851727 159531
620 456758 521132
621 542282 888522
622 233134 641583
623 706737 65379
624 956364 749480
625 197010 942070
626 366380 395152
627 878207 941729
628 563045 880390
629 829434 594825
630 928067 591170
631 116150 55981
632 203310 128839
633 571410 818144
634 889786 597264
635 791494 127446
636 980258 404058
637 472012 819839
638 980088 259404
639 120648 679514
640 213799 836583
641 869944 305983
642 52569 126539
643 295177 949575
644 685582 467816
645 962772 434307
646 527463 254462
647 368036 329311
648 540873 138223
649 416509 413295
650 661495 447332
651 944731 276850
652 535681 360426
653 72125 60396
654 342583 751667
655 646551 613470
656 194808 361618
657 632053 493759
658 63707 861687
659 687944 873999
660 587965 433186
661 401634 476491
662 935769 344162
663 182715 703408
664 868377 111586
665 747713 919691
666 916821 368980
667 32962 600329
668 641775 508325
669 673930 558810
670 62832 433489
671 261630 811583
672 879850 529585
673 32672 50971
674 318692 23874
675 146595 837465
676 269845 304923
677 665581 741803
678 530510 575750
679 243887 935351
680 718650 563800
681 386466 783772
682 688835 213061
683 351839 383225
684 481768 102468
685 461087 12735
686 542994 664070
687 727403 750500
688 163341 96711
689 810909 193966
690 813651 606965
691 459521 933025
692 392935 183913
693 533225 133048
694 680144 819900
695 248489 258550
696 26557 571462
697 97722 50096
698 890495 597560
699 84179 129349
700 366244 935961
701 240061 124726
702 210223 539629
703 377943 336819
704 911988 481668
705 208578 397462
706 895605 423986
707 686862 460100
708 537242 815003
709 686050 638739
710 322566 754279
711 299045 352418
712 736223 525126
713 772674 418267
714 453847 187773
715 372557 826521
716 184723 329241
717 985387 416188
718 711359 35534
719 246163 932835
720 646670 718221
721 446998 41405
722 497334 494209
723 959504 674138
724 835238 572596
725 277422 472227
726 143713 896405
727 756792 539723
728 751238 910820
729 139339 794034
730 828270 342408
731 90656 979152
732 834997 490356
733 950464 854200
734 926651 192652
735 500595 863103
736 979765 113453
737 361317 850338
738 610566 402640
739 595626 196500
740 773888 861853
741 278928 659813
742 359503 30148
743 735864 205570
744 494244 495031
745 465724 857159
746 108882 53510
747 432239 783566
748 738456 333545
749 680088 646996
750 883643 556864
751 78512 638737
752 798708 415568
753 193299 483900
754 536901 726644
755 803858 545667
756 416576 644308
757 328309 971111
758 233526 37145
759 546913 51430
760 751900 616918
761 174112 279655
762 309009 943731
763 784591 341027
764 314744 945748
765 657038 126665
766 865738 868982
767 392642 228220
768 445277 634620
769 331503 388392
770 796622 698718
771 658657 442813
772 743130 848805
773 683046 829227
774 744501 488508
775 998975 397428
776 18800 734339
777 989957 756977
778 691125 209529
779 246095 570488
780 970290 558679
781 152396 148509
782 930021 105139
783 887010 973762
784 901177 479503
785 288064 404298
786 292644 58404
787 52455 354471
788 598118 439772
789 289698 552031
790 252605 575061
791 94932 744256
792 975458 98359
793 974269 717228
794 938960 287503
795 341209 471515
796 733442 852000
797 100327 392323
798 406074 600252
799 390358 388659
800 250687 243274
801 539529 192470
802 235903 423913
803 302496 274544
804 758881 891598
805 782708 973897
806 270569 958592
807 229279 498775
808 825236 300396
809 48182 537698
810 699064 286758
811 583404 512518
812 228816 44790
813 864769 100173
814 822501 628541
815 51974 323574
816 680891 398099
817 769322 278708
818 304492 136340
819 514977 476682
820 273122 673873
821 669046 401261
822 588438 54451
823 888110 220924
824 623184 55537
825 527553 305900
826 777751 761816
827 336684 927113
828 562382 141429
829 423147 957194
830 119421 166156
831 759567 282198
832 618475 108835
833 304850 869307
834 370153 174827
835 610664 604311
836 677211 992644
837 10144 393164
838 509006 821587
839 175833 301702
840 482407 723340
841 677026 865306
842 509120 885818
843 564007 398693
844 779623 660487
845 973857 435184
846 766186 340149
847 866018 668810
848 996661 676402
849 391117 195274
850 545444 66523
851 45090 321481
852 573129 804213
853 628874 912445
854 252695 450865
855 363105 163688
856 361805 762660
857 983337 684236
858 399970 419417
859 416180 949665
860 112174 628448
861 478190 174879
862 629383 544141
863 559221 355730
864 419514 205931
865 764289 596561
866 568891 724967
867 938597 318719
868 361534 914365
869 881969 824883
870 485848 144589
871 982513 829958
872 548312 345409
873 956994 591306
874 710765 321876
875 109589 640930
876 256887 185185
877 430984 948882
878 497631 320122
879 382884 254410
880 442679 714508
881 30475 427811
882 965017 218516
883 181175 531847
884 214348 637927
885 727242 808663
886 708652 94303
887 840075 471243
888 371561 293004
889 743895 680501
890 46509 239098
891 972846 165104
892 763251 49781
893 566086 141079
894 759950 720080
895 137543 829686
896 700017 244041
897 97641 677184
898 435936 888209
899 989882 77068
900 973847 663989
901 847411 30264
902 275366 870491
903 668084 91783
904 421933 381203
905 382796 356551
906 560172 662803
907 116867 612992
908 14491 786434
909 330170 287833
910 782579 292965
911 541964 137279
912 664079 63253
913 961252 678387
914 818936 969584
915 803159 279778
916 871070 362691
917 297704 689958
918 678925 310042
919 48236 150259
920 35289 779651
921 810909 472117
922 937500 844577
923 287721 562738
924 579961 34388
925 715932 757548
926 69273 20297
927 273909 694069
928 792918 484719
929 732559 585408
930 191565 358041
931 43546 271674
932 345913 603145
933 545642 88055
934 725302 272289
935 325270 451753
936 206473 295782
937 571900 25030
938 223692 521667
939 863369 970010
940 270334 476533
941 945828 233527
942 778019 445117
943 236231 599396
944 16778 694559
945 144315 590870
946 584739 775947
947 824988 583536
948 573177 515127
949 900216 912470
950 620885 766054
951 699368 609951
952 764053 239399
953 811720 835745
954 242278 828792
955 457837 193522
956 467940 37999
957 441092 600694
958 773302 267598
959 446685 762376
960 29967 30515
961 187838 812832
962 651404 559216
963 752384 596522
964 531728 332501
965 213310 387947
966 279388 34577
967 512172 76812
968 8592 907828
969 792435 177324
970 671814 968633
971 152710 254401
972 664592 113800
973 403031 771906
974 124543 265772
975 831152 976655
976 983398 567714
977 699159 232937
978 486666 664790
979 97778 687241
980 230806 903891
981 43310 64953
982 156977 489204
983 40811 213539
984 373406 327292
985 197663 1395
986 143055 180913
987 931224 53311
988 47116 620124
989 113673 418466
990 72550 87593
991 498743 844487
992 101694 309418
993 344637 214434
994 877600 22967
995 36000 795052
996 534421 465142
997 979661 670418
998 825577 971796
999 323176 611280
1000 66683 782907
1001 658233 706077
1002 193221 743558
1003 477911 138911
1004 466019 389741
1005 888300 272231
1006 787190 74810
1007 651240 435754
1008 369469 578167
1009 85292 486558
1010 663626 69015
1011 890362 762126
1012 260608 414755
1013 343162 436978
1014 987691 187666
1015 575400 908205
1016 154104 723931
1017 530165 800318
1018 300403 423933
1019 193246 665940
1020 939948 766469
1021 129142 391042
1022 359341 966985
1023 904690 772295
1024 204533 564905
1025 327256 388599
1026 984104 135510
1027 35880 158478
1028 628802 934301
1029 175911 392903
1030 443154 53978
1031 945665 800079
1032 449792 121830
1033 143088 396148
1034 715469 684255
1035 531064 597174
1036 373633 520386
1037 159301 275027
1038 84910 754852
1039 726245 102130
1040 785953 408860
1041 261066 594788
1042 744511 521421
1043 962540 354025
1044 274139 408334
1045 657230 904255
1046 708463 508990
1047 134876 342774
1048 392836 608755
1049 231740 84313
1050 882074 149837
1051 46050 102403
1052 778952 918395
1053 127532 389315
1054 390998 514458
1055 195937 274776
1056 660162 767576
1057 735672 538899
1058 345515 436674
1059 665202 107017
1060 728994 534333
1061 164408 631155
1062 802181 381226
1063 551124 271230
1064 741434 240905
1065 147494 695594
1066 363853 211787
1067 906192 511176
1068 748698 493490
1069 859115 205611
1070 175906 525865
1071 688823 167121
1072 679340 122896
1073 739847 77307
1074 706809 753649
1075 791650 121606
1076 867321 990834
1077 936818 186479
1078 785983 834262
1079 196210 267775
1080 169697 634042
1081 530200 185386
1082 338551 670072
1083 585953 493040
1084 88236 612775
1085 799052 268207
1086 729865 911552
1087 315366 607388
1088 667011 173573
1089 694336 615701
1090 595242 716861
1091 75019 473659
1092 71208 513452
1093 165394 178467
1094 873235 236120
1095 925223 255657
1096 405253 246339
1097 406559 907699
1098 795999 777270
1099 851755 71951
1100 455885 566273
1101 382970 91107
1102 158407 74789
1103 46586 393661
1104 919626 423366
1105 21085 607516
1106 961027 960090
1107 342551 914039
1108 228788 283860
1109 778827 430852
1110 874072 808682
1111 641285 16285
1112 156890 232778
1113 885237 638758
1114 753145 240577
1115 560801 273350
1116 253947 270970
1117 594616 987726
1118 755833 114929
1119 131108 157168
1120 284664 881534
1121 399640 442382
1122 362047 116540
1123 614372 388968
1124 89448 173780
1125 22461 157241
1126 24125 611177
1127 511149 182534
1128 312326 111999
1129 496491 170681
1130 318956 931657
1131 262553 762457
1132 138702 139551
1133 207876 518645
1134 598042 226010
1135 299666 839820
1136 194411 605046
1137 408390 716830
1138 784557 30107
1139 505135 974356
1140 920452 773237
1141 142266 582464
1142 921620 629144
1143 10797 491490
1144 132268 455064
1145 779849 237188
1146 516886 905097
1147 857501 444843
1148 687122 794593
1149 33991 645217
1150 331983 584265
1151 883833 115092
1152 253327 249224
1153 14974 441661
1154 689557 882005
1155 171737 820835
1156 979731 41426
1157 390831 81767
1158 414771 357455
1159 904955 693858
1160 452428 413283
1161 484653 952825
1162 894027 715401
1163 955987 79318
1164 351719 159166
1165 701856 342896
1166 340550 623129
1167 802618 99617
1168 793506 100840
1169 191632 839852
1170 214372 653341
1171 586534 438410
1172 2636 366566
1173 752534 564060
1174 11070 142100
1175 488856 607804
1176 442874 874825
1177 943360 989086
1178 243714 260703
1179 312473 153710
1180 455718 914134
1181 250028 849704
1182 667633 518396
1183 234300 541320
1184 38789 24265
1185 329233 850710
1186 346385 762855
1187 205001 844624
1188 970408 609828
1189 9464 904940
1190 471686 695283
1191 766844 198008
1192 703447 787721
1193 92867 490846
1194 955496 284222
1195 865316 252185
1196 62050 167366
1197 510619 363662
1198 306955 823679
1199 233408 158012
1200 396157 142706
