NAME : portgen-400-408
COMMENT : portgen N=400, seed=408
TYPE : TSP
DIMENSION : 400
EDGE_WEIGHT_TYPE : EUC_2D
NODE_COORD_SECTION
1 529237 474577
2 774381 18302
3 713251 167361
4 643492 864371
5 258779 128311
6 595610 950651
7 851500 206523
8 145290 826211
9 435613 602006
10 553827 707850
11 81052 564690
12 704474 900166
13 20571 107196
14 622491 297546
15 946098 254164
16 80537 573237
17 738484 4753
18 85898 398579
19 882684 486916
20 742519 396792
21 152585 56964
22 529319 23766
23 571099 611464
24 330079 508871
25 239918 393391
26 485820 719391
27 794158 456564
28 184459 955999
29 736092 769628
30 932404 314671
31 284677 156576
32 121852 861986
33 975726 538645
34 421332 827734
35 635424 533825
36 496132 926741
37 362088 160436
38 222029 361661
39 770531 247910
40 715706 64571
41 371103 852862
42 365142 631426
43 969487 923961
44 451385 876497
45 29026 547252
46 977246 54950
47 851491 208693
48 900659 225844
49 694876 368882
50 801737 209438
51 840933 82169
52 793165 175347
53 22287 632958
54 354248 162731
55 487077 260498
56 504614 859594
57 740602 385152
58 337424 229727
59 305084 913158
60 961327 749882
61 843769 52450
62 25996 425986
63 692892 413963
64 133575 186741
65 138149 589070
66 7412 607800
67 760832 455208
68 559956 511508
69 112259 979990
70 294001 739760
71 618877 538226
72 915170 279143
73 703482 924796
74 28953 425505
75 515801 486696
76 92268 508134
77 230733 212666
78 202025 233132
79 321336 337957
80 615390 510778
81 520699 374258
82 868729 747317
83 641621 966388
84 944424 461458
85 681669 412628
86 200773 879578
87 397357 474630
88 657614 335634
89 821717 813329
90 223960 459759
91 92627 795618
92 571350 627370
93 68371 633154
94 739070 13515
95 813586 593567
96 567084 650801
97 298320 881373
98 538986 739298
99 140868 440540
100 621529 367847
101 103079 215623
102 201544 56042
103 394069 296649
104 936784 603362
105 144295 568871
106 494062 307820
107 524370 21822
108 943693 869897
109 75937 987356
110 208330 902322
111 825519 503883
112 839929 313822
113 309548 985149
114 678033 341315
115 80561 360965
116 398850 218354
117 669034 655089
118 965697 784806
119 271248 549528
120 683676 198473
121 557216 751714
122 805185 911264
123 768047 63200
124 810871 984497
125 571824 553836
126 61264 799553
127 359978 260564
128 968996 884725
129 546589 546455
130 90344 609262
131 25401 387256
132 919685 945821
133 11654 742347
134 502635 613106
135 253774 880492
136 59025 91439
137 415531 654493
138 841058 25966
139 143905 579364
140 344826 424823
141 438560 131578
142 250970 471299
143 335563 11594
144 298668 723212
145 643434 223349
146 282171 658141
147 295753 803183
148 139447 465776
149 336183 150691
150 70205 742081
151 919295 231507
152 639671 147001
153 115276 929686
154 548583 888679
155 925000 957401
156 586056 823376
157 903021 866995
158 327090 367259
159 91502 116502
160 806374 545877
161 406164 351943
162 542900 511693
163 961197 827518
164 451768 268529
165 539217 911371
166 477383 255225
167 654364 387424
168 838766 615183
169 228556 383974
170 144208 968303
171 920091 182166
172 916838 97556
173 817184 930228
174 115241 784060
175 841986 311928
176 14008 67653
177 611473 158834
178 264698 664070
179 577143 252247
180 308234 500092
181 701129 164608
182 744470 956696
183 37309 403890
184 906538 805464
185 49810 396862
186 252018 307442
187 274515 494445
188 531868 338511
189 740470 384066
190 246995 297127
191 250375 199520
192 960295 39125
193 210241 312775
194 510755 697667
195 350114 434876
196 708644 423092
197 334164 747346
198 716285 612649
199 907650 422392
200 565687 478673
201 189757 731175
202 537065 544859
203 61553 814487
204 107358 572348
205 948592 951923
206 153314 879475
207 902132 873357
208 791447 278036
209 830443 997123
210 240411 424660
211 496239 484145
212 239776 571136
213 207104 520843
214 770377 729655
215 432892 717381
216 231152 168122
217 435473 295072
218 143812 370900
219 297388 86937
220 247678 932204
221 482331 513631
222 457256 925454
223 938637 224499
224 183316 763027
225 540241 195442
226 842272 177995
227 989500 848306
228 247521 21635
229 295701 241993
230 401047 690653
231 517099 20421
232 324669 16387
233 469591 639683
234 422219 976678
235 934720 566948
236 94720 67415
237 456881 44969
238 582388 318244
239 494645 391469
240 323615 185469
241 225142 528384
242 328608 742238
243 200281 210731
244 843452 419086
245 825480 504129
246 948680 320709
247 152216 680729
248 837484 414915
249 56749 412287
250 343066 620392
251 729853 791847
252 439412 354772
253 970299 313887
254 849386 247261
255 648025 36789
256 178183 876614
257 416512 896918
258 741972 196390
259 868204 643940
260 178903 54676
261 582933 9932
262 633612 314327
263 837094 302873
264 628003 102109
265 74669 268500
266 468857 247383
267 743444 286825
268 7285 348527
269 111871 431690
270 266 3891
271 342526 199511
272 240183 770803
273 921195 938748
274 687097 837888
275 843635 534611
276 786911 954640
277 337617 74565
278 151534 482470
279 48402 152587
280 347486 621772
281 202016 417696
282 246995 644133
283 694262 978671
284 636431 645709
285 975722 803224
286 509293 30315
287 800305 644292
288 267764 628293
289 672314 559046
290 162792 354623
291 254470 475416
292 754622 452896
293 66483 51161
294 387 99310
295 592562 28614
296 712095 466162
297 455967 197042
298 494598 312210
299 399206 595891
300 503038 292902
301 266433 128050
302 675095 489011
303 280140 311495
304 200018 884721
305 8081 100373
306 482083 949092
307 560024 318872
308 909677 735853
309 961729 49953
310 149535 382051
311 579464 40540
312 142670 682820
313 536790 381242
314 355220 311293
315 364151 956269
316 428274 787593
317 550964 62419
318 872540 305377
319 915392 435749
320 543219 330630
321 89432 950434
322 949774 210511
323 449150 671554
324 323492 773146
325 660251 113355
326 956990 87913
327 231739 546769
328 864627 478840
329 577085 612676
330 616470 974762
331 396103 764268
332 341501 677451
333 10941 531648
334 999318 349513
335 869722 238122
336 412361 188582
337 389701 36179
338 425061 491551
339 808801 595900
340 818192 57949
341 804156 742544
342 694822 389388
343 560165 664005
344 446091 873512
345 51477 340891
346 306059 565879
347 566027 305096
348 918268 900849
349 560732 913594
350 785449 957598
351 862753 727591
352 954953 602302
353 309199 214446
354 393090 842350
355 986603 200621
356 32749 703572
357 561198 275579
358 668703 830224
359 198240 36404
360 759183 110091
361 970916 85723
362 564063 912123
363 375368 684770
364 233628 787399
365 726980 210614
366 98461 966450
367 609296 617570
368 25200 100583
369 181345 419243
370 720685 729941
371 465765 409686
372 114329 941385
373 369975 220335
374 1815 653904
375 929727 233497
376 667220 773333
377 186613 574835
378 859137 896303
379 118294 337382
380 577102 208615
381 33100 973846
382 121665 256662
383 734856 623063
384 589243 619812
385 905604 448367
386 828408 544336
387 106677 525685
388 442871 197583
389 899109 989227
390 52985 479065
391 566475 896245
392 210297 518365
393 177513 124614
394 844785 352634
395 882714 402136
396 511340 561533
397 513639 272317
398 901533 921428
399 303009 588643
400 498514 172391
