NAME : portgen-1300-1304
COMMENT : portgen N=1300, seed=1304
TYPE : TSP
DIMENSION : 1300
EDGE_WEIGHT_TYPE : EUC_2D
NODE_COORD_SECTION
1 724265 563430
2 481016 206359
3 590297 18190
4 115586 440985
5 303865 225478
6 824749 915925
7 959227 770213
8 471964 245767
9 861328 728693
10 695377 507730
11 259244 377872
12 565015 888154
13 829024 945796
14 2371 869864
15 312306 896560
16 172284 236980
17 120687 428424
18 685651 238716
19 563717 828071
20 473848 555065
21 548272 900074
22 712081 247450
23 496433 802885
24 222753 913444
25 240442 926682
26 439808 787275
27 915625 489613
28 698307 487284
29 442743 52592
30 520708 351581
31 454472 287515
32 967136 748799
33 677206 924674
34 203844 711776
35 273780 669079
36 23014 947883
37 488251 768695
38 67921 471968
39 462246 75401
40 189846 341739
41 503053 949779
42 349156 960724
43 442087 884769
44 269843 371888
45 751217 760976
46 34871 851941
47 554291 804769
48 532051 600388
49 411823 943385
50 179529 24464
51 340639 147351
52 723597 898702
53 423629 490029
54 438119 954900
55 47526 813538
56 217440 70855
57 301374 759732
58 316710 602531
59 733223 162367
60 216747 76818
61 512851 260458
62 532247 249316
63 328440 875662
64 224285 589548
65 345066 577891
66 33849 507345
67 27875 376308
68 124299 432197
69 648404 589423
70 644014 839555
71 151545 107475
72 155140 674399
73 248124 774412
74 319693 304975
75 476329 656388
76 376102 822274
77 598319 601637
78 990614 833293
79 119476 347289
80 774403 991431
81 841624 848695
82 310885 207970
83 661992 109964
84 915715 626975
85 511607 542297
86 282838 428248
87 686038 560359
88 700716 690576
89 662139 930609
90 258701 495146
91 756185 876996
92 815145 353635
93 736267 185153
94 196459 819904
95 714316 14334
96 516482 21429
97 77816 101717
98 556717 723297
99 421437 594781
100 973682 557548
101 112273 389083
102 46273 981182
103 900203 499105
104 7129 244684
105 865370 805461
106 636833 299571
107 632972 760069
108 474948 820194
109 770879 209168
110 651253 938695
111 688527 320934
112 653292 954058
113 430024 893754
114 381974 704856
115 660155 201610
116 683447 417454
117 65239 453240
118 858313 456613
119 244023 55076
120 878686 916072
121 414274 987291
122 168651 775621
123 325806 195548
124 368137 123757
125 671693 662962
126 341322 716581
127 934625 772072
128 874100 694819
129 323843 593033
130 122868 443589
131 255082 952052
132 365998 949297
133 391186 649541
134 130920 857351
135 434262 279400
136 452057 647121
137 537475 988290
138 597372 971946
139 386309 881219
140 79958 735204
141 569910 788941
142 581987 216566
143 946527 731394
144 51455 115941
145 62054 208771
146 325693 386671
147 620814 599285
148 464014 767153
149 449815 180360
150 178248 353860
151 809238 486917
152 43799 936488
153 93052 552381
154 134593 718058
155 825544 142706
156 643363 207902
157 530979 914096
158 117895 868410
159 331238 766713
160 485283 624033
161 199726 950559
162 679102 80401
163 470161 965140
164 603321 600987
165 895237 44991
166 837352 668250
167 55675 937251
168 91841 362008
169 257961 667891
170 98670 78117
171 400156 284742
172 630658 438020
173 9045 375133
174 707569 540412
175 129123 498873
176 163831 848828
177 285123 133257
178 516508 140988
179 431241 106547
180 844646 731044
181 294419 466702
182 619387 747427
183 742550 358620
184 577243 92958
185 905050 742762
186 160841 790825
187 637589 986409
188 460202 350898
189 665436 545845
190 563892 329173
191 533898 496774
192 756341 164193
193 750572 370650
194 48863 308247
195 194701 733221
196 784764 165003
197 762840 355908
198 917275 609330
199 647152 644248
200 977818 658147
201 709697 161723
202 976519 799949
203 964975 667056
204 92487 120929
205 382685 145858
206 92124 122994
207 911845 111424
208 946279 129415
209 703861 263479
210 830151 133219
211 711467 932994
212 115139 246903
213 33064 999118
214 814305 837640
215 21434 793145
216 258411 544507
217 163160 418034
218 237048 410904
219 584928 644916
220 217914 621156
221 666788 785384
222 478096 61482
223 21753 851769
224 49863 515937
225 322843 918157
226 795024 809512
227 622814 184673
228 399736 165189
229 998563 558485
230 562900 554070
231 82128 447570
232 903014 761528
233 479069 306740
234 644897 850363
235 89671 94509
236 79552 187924
237 940635 911993
238 338195 901955
239 310180 930466
240 847166 867875
241 554 255820
242 274739 467363
243 711017 810840
244 641492 401631
245 938965 930307
246 766006 734565
247 555245 123405
248 541604 478864
249 844748 566102
250 723287 119798
251 541589 119397
252 668770 454968
253 917602 539203
254 534772 155450
255 473656 588896
256 523696 596931
257 619520 632592
258 788063 347562
259 892325 779609
260 219924 205
261 461992 78794
262 127076 969872
263 552919 960154
264 519153 485666
265 994390 798991
266 367182 154729
267 456810 258270
268 344178 403623
269 636300 642147
270 679299 363454
271 918514 861883
272 181707 938759
273 468315 687211
274 607489 585372
275 570485 581449
276 959710 359081
277 571712 924296
278 752615 386859
279 662587 410500
280 110790 513979
281 902903 892625
282 476150 110201
283 670381 661813
284 415223 680760
285 164276 100851
286 740073 306952
287 209123 638475
288 40494 102910
289 507082 202780
290 217256 166059
291 297567 108653
292 374876 480411
293 896087 474557
294 678578 346608
295 587888 682364
296 988399 955540
297 477870 578448
298 623380 611562
299 652759 543232
300 898264 365405
301 180129 404708
302 368116 404425
303 283881 851057
304 984205 91300
305 28208 278058
306 708281 315979
307 822611 428425
308 525579 947363
309 414754 897702
310 486821 58819
311 9053 871991
312 782495 798871
313 920722 335364
314 938836 804698
315 354593 189437
316 118704 415782
317 174572 939198
318 457778 981588
319 286041 946450
320 954832 948724
321 59803 780876
322 859787 529069
323 673311 116408
324 173044 678999
325 657725 288015
326 672725 848061
327 188638 708826
328 246700 764346
329 230136 428917
330 946647 302292
331 565015 37754
332 136468 79483
333 218254 927404
334 456191 293542
335 755114 409171
336 774318 735755
337 239977 198805
338 386093 160992
339 683352 73668
340 552170 156375
341 105228 509918
342 858050 52300
343 624422 80950
344 279313 95088
345 720943 530373
346 525396 992498
347 191336 545660
348 174406 324047
349 540898 660982
350 142975 512318
351 433055 99376
352 126828 501349
353 182787 162807
354 990010 136338
355 84404 165750
356 485033 135048
357 707974 416273
358 776896 572516
359 846418 590807
360 905076 894206
361 386506 795209
362 150567 242795
363 976115 674942
364 608926 738627
365 16017 223286
366 170981 547014
367 989264 386419
368 671342 970180
369 801944 441777
370 275404 51906
371 234532 688506
372 190011 826736
373 143867 730186
374 841931 948540
375 569545 499464
376 715121 802270
377 644964 919688
378 341337 886040
379 110111 740408
380 830007 212607
381 360862 548233
382 860933 32498
383 931218 796527
384 945036 881237
385 272406 46709
386 730585 897877
387 21262 405612
388 179085 584235
389 150245 230879
390 901458 90075
391 564830 868517
392 908620 803409
393 862423 622748
394 686081 956765
395 455201 874815
396 25143 920706
397 169371 228695
398 321320 336654
399 667243 784398
400 647651 559632
401 579941 611052
402 47082 479469
403 934634 846603
404 893650 841555
405 57264 718589
406 199959 153346
407 285207 955191
408 187464 440156
409 378862 632238
410 711177 594563
411 129283 160637
412 233586 712773
413 466767 119532
414 850794 541792
415 470978 332481
416 690585 308689
417 173614 182868
418 890115 411484
419 583310 953429
420 615945 422267
421 243885 53842
422 245588 860637
423 745531 864505
424 687120 456597
425 761927 201788
426 485860 125450
427 313420 315169
428 869047 271251
429 437437 864213
430 589354 523150
431 263293 940221
432 225609 634996
433 474703 146116
434 907757 424569
435 209660 322958
436 753035 922264
437 870310 509389
438 108703 3833
439 847217 918416
440 843726 195515
441 682095 986580
442 952438 947828
443 69188 750363
444 83080 538617
445 708165 743999
446 503726 158740
447 743769 292986
448 669231 321621
449 183532 736198
450 751934 741698
451 17288 768703
452 612870 566412
453 519692 499279
454 173012 365591
455 245981 118683
456 188171 898819
457 156048 845355
458 19423 104553
459 196452 932622
460 965765 153081
461 962583 171558
462 672635 467961
463 305669 984332
464 309393 303897
465 989696 609423
466 830820 481625
467 672435 725043
468 7343 783275
469 830532 107083
470 928404 964634
471 553911 150457
472 572852 555083
473 781415 332167
474 486104 275807
475 987317 684899
476 12227 879634
477 746502 142510
478 910877 535662
479 96268 887827
480 559068 736417
481 668747 65929
482 437186 281346
483 564771 37714
484 325967 600964
485 63940 687256
486 618448 920644
487 945305 280865
488 140854 82948
489 425056 530124
490 557083 770007
491 888063 421566
492 744829 253279
493 940676 764891
494 44438 391088
495 160271 969629
496 457308 229568
497 43143 241148
498 346185 633267
499 205151 291987
500 414229 698466
501 907111 955979
502 718723 217310
503 796836 590661
504 134805 493223
505 201834 145986
506 491224 705180
507 727555 589438
508 279108 439178
509 22786 196038
510 935161 931504
511 832562 33979
512 186735 365473
513 780145 662468
514 201920 727995
515 484028 550193
516 948142 931833
517 328290 411096
518 278782 182883
519 694010 155390
520 974170 501497
521 742105 848400
522 455927 228767
523 137067 423329
524 42832 677669
525 461003 683717
526 431346 477156
527 807958 864035
528 750323 975277
529 627688 307627
530 938527 613952
531 896650 979415
532 519052 700336
533 403881 642823
534 249252 498787
535 452371 855779
536 396346 345117
537 735034 251443
538 500157 355406
539 226020 322699
540 615150 804867
541 34779 894293
542 789468 870076
543 653543 968727
544 412780 627954
545 7215 635959
546 933630 195222
547 703018 118391
548 105151 396988
549 113365 204483
550 728610 781661
551 197308 720132
552 62518 656135
553 648937 537053
554 687687 937882
555 210492 781596
556 562497 999734
557 300411 302567
558 680322 701427
559 276397 400661
560 595184 6893
561 529457 44769
562 770177 670710
563 658471 676213
564 282598 78898
565 602506 963104
566 667718 288138
567 112207 833554
568 242370 35045
569 593881 486900
570 189754 952115
571 692329 12119
572 32770 322
573 106501 888861
574 425045 32308
575 459919 428938
576 114389 34466
577 601976 765506
578 113943 909169
579 607925 228963
580 413765 613891
581 943171 200786
582 748128 258377
583 89266 550377
584 966964 300089
585 196065 791460
586 276382 244089
587 940741 166246
588 892503 494991
589 442793 4671
590 556767 749301
591 68287 53634
592 665133 988615
593 19932 466931
594 540010 853830
595 744288 691992
596 68081 293792
597 290834 398293
598 675732 448240
599 71377 866523
600 107818 611510
601 446068 420373
602 475541 710618
603 360650 60754
604 369333 613361
605 745573 647011
606 369159 754095
607 484675 721773
608 545810 649378
609 909951 349834
610 582644 641025
611 479000 100440
612 192271 584555
613 345392 856008
614 768547 230123
615 805595 831749
616 125657 829431
617 259097 909755
618 380142 314192
619 568958 943359
620 442805 370553
621 556979 190175
622 271185 103262
623 212992 967640
624 101520 706279
625 52900 819723
626 679692 841254
627 60928 276068
628 485852 616636
629 161275 565785
630 330475 46458
631 491795 425973
632 170556 375019
633 90032 178983
634 482909 381413
635 508780 578169
636 547857 203672
637 296934 762921
638 961333 637745
639 39512 916202
640 98702 728756
641 694733 202762
642 899647 759137
643 339953 699683
644 658875 884078
645 819723 201159
646 831282 187545
647 434578 864635
648 822696 353307
649 893241 508264
650 141929 575246
651 928128 185318
652 607576 324143
653 124990 476930
654 941606 301790
655 936115 786168
656 957760 277197
657 746062 129316
658 215175 304250
659 991394 305920
660 552323 736724
661 285742 974645
662 239484 933534
663 650040 362539
664 596095 972791
665 637930 484402
666 696138 737721
667 980087 312533
668 770996 417536
669 456699 770330
670 543961 35702
671 708289 352955
672 331755 82998
673 915417 856637
674 948060 501044
675 214595 460156
676 757211 920450
677 870333 657526
678 879107 190407
679 205231 295043
680 553146 707454
681 20230 171276
682 757829 900412
683 77879 604804
684 945441 663063
685 213899 358538
686 356189 490349
687 91325 92166
688 979513 365291
689 104311 581957
690 54426 459633
691 157308 301052
692 419644 930476
693 464171 524862
694 979892 79674
695 234654 166191
696 472094 793636
697 556431 185423
698 679513 217939
699 261630 239588
700 103485 550125
701 752325 366102
702 446618 754961
703 302848 456159
704 500806 939857
705 193355 354244
706 210514 125556
707 60389 386954
708 235360 226594
709 614845 572405
710 220899 859940
711 343174 705853
712 559578 663774
713 606212 990086
714 43731 336363
715 789318 523353
716 864485 164453
717 388602 700181
718 249119 31751
719 240663 32689
720 695116 237576
721 910017 407486
722 858775 374713
723 823017 766240
724 234057 892656
725 579210 689426
726 174207 925266
727 450270 580131
728 685639 587871
729 977499 746436
730 505842 271097
731 215495 468116
732 244741 955778
733 444227 803027
734 266781 685675
735 563937 469119
736 992537 722188
737 993194 531473
738 685732 417907
739 255582 979446
740 978134 18340
741 12587 297294
742 830521 518221
743 307858 396368
744 919712 432824
745 255954 446091
746 764969 554988
747 468752 225997
748 245039 187829
749 414292 327301
750 688981 405110
751 510657 254611
752 914521 560870
753 676838 876913
754 94745 932049
755 272273 289271
756 668159 544675
757 490482 59751
758 506127 660507
759 999364 18744
760 710738 256397
761 388735 939480
762 996694 158827
763 958461 737925
764 807666 432324
765 854634 808819
766 323161 323533
767 707173 688863
768 350181 467911
769 806811 770770
770 12093 647350
771 397003 900968
772 722085 999556
773 57355 825489
774 558293 309924
775 267535 507113
776 380162 981967
777 472667 880161
778 81948 187124
779 547438 225658
780 210688 208927
781 70101 323975
782 919955 624923
783 892267 767190
784 822589 490926
785 2395 680637
786 102213 689440
787 751208 203624
788 876235 406768
789 466812 116532
790 76879 771337
791 190487 582008
792 221636 645707
793 738718 999186
794 403578 82249
795 796596 582990
796 645322 315885
797 768374 331455
798 545136 707563
799 149759 518460
800 123321 650587
801 358676 441761
802 233045 496198
803 316626 798153
804 760331 826959
805 141443 82761
806 783545 465188
807 429061 627698
808 563605 754215
809 555600 588499
810 79786 184703
811 617430 304129
812 367605 351808
813 321961 660452
814 456394 255009
815 886998 78081
816 646437 639853
817 975089 994117
818 987791 725298
819 152947 593938
820 82102 984502
821 443585 815079
822 2463 611893
823 965559 341192
824 948279 416566
825 9494 884684
826 251169 894750
827 631462 45239
828 4149 718823
829 466672 238928
830 508407 591327
831 645206 166393
832 744857 156941
833 639176 968466
834 462725 817168
835 662138 222412
836 805935 139034
837 579004 195102
838 933533 722680
839 672666 322365
840 347658 603137
841 193780 217465
842 746602 295671
843 432874 480044
844 894995 818147
845 354941 19325
846 262573 335779
847 931799 859689
848 178566 304550
849 236074 807360
850 678359 242878
851 668525 625914
852 68907 406356
853 690903 33703
854 148147 335791
855 612364 524105
856 823828 648524
857 883986 489082
858 328754 309427
859 234593 885168
860 978374 334625
861 732391 655365
862 138808 419259
863 553886 180021
864 70126 172647
865 504198 899830
866 574533 336875
867 710000 823553
868 779309 545255
869 333478 257520
870 966917 123447
871 245451 9827
872 839773 20316
873 286933 607208
874 196970 512540
875 305803 998544
876 234424 63426
877 303161 778529
878 668345 331649
879 915913 245354
880 627047 145648
881 700224 890627
882 368873 488917
883 278654 814001
884 808751 863670
885 202149 721545
886 112457 722053
887 579364 979830
888 100200 668964
889 352203 360279
890 750913 222236
891 264108 824772
892 545599 358550
893 199605 683905
894 968002 221083
895 544898 965307
896 736504 469808
897 55371 245371
898 10990 523397
899 430462 859942
900 920115 617968
901 255004 836691
902 761626 83567
903 734436 409651
904 517826 944610
905 578924 984439
906 363647 694829
907 700456 661739
908 409143 230416
909 835255 123502
910 477927 755256
911 383539 948808
912 943555 584180
913 466541 275765
914 960426 495797
915 245393 690548
916 151137 407593
917 781355 766473
918 858588 569278
919 124316 883859
920 949407 969189
921 848650 844499
922 743156 789642
923 581768 787696
924 526253 471190
925 778829 735224
926 562971 934664
927 614549 229566
928 466830 847411
929 55335 995152
930 224978 165157
931 285335 633966
932 995203 609734
933 135789 519148
934 951673 910814
935 79971 621447
936 704162 364065
937 344672 742702
938 192284 448874
939 334259 713988
940 117350 619130
941 220430 965273
942 270818 80235
943 405213 517171
944 412390 171620
945 630683 339439
946 617605 213502
947 803888 327960
948 265026 484584
949 499826 453
950 597357 132894
951 453436 812264
952 353839 159699
953 514794 597698
954 663846 534313
955 824353 949659
956 435020 883715
957 364469 885538
958 547552 71833
959 830078 667243
960 344708 651204
961 19321 951219
962 313456 947076
963 168010 891898
964 10225 184972
965 227908 594586
966 785028 799946
967 889635 167691
968 184109 336714
969 600804 385279
970 532683 333379
971 687092 745147
972 826911 979478
973 320117 666385
974 900045 856812
975 159949 373127
976 474359 314853
977 772545 2770
978 347866 653490
979 922629 186148
980 975590 178079
981 996894 278566
982 1630 490974
983 262566 689873
984 56804 384990
985 565421 881167
986 171788 973266
987 507293 971581
988 176845 704468
989 178674 310685
990 599210 514519
991 969268 824076
992 209382 49828
993 597692 506461
994 798316 398661
995 905125 494235
996 279910 215814
997 819858 651515
998 161590 713826
999 237853 855330
1000 802633 615649
1001 487711 589359
1002 257601 645430
1003 403859 650282
1004 105471 722717
1005 405078 841404
1006 855174 523968
1007 281023 481354
1008 898169 781079
1009 458707 350114
1010 329383 548739
1011 452019 201473
1012 582356 949771
1013 393456 582428
1014 715664 861863
1015 567721 526563
1016 598997 455956
1017 905607 757805
1018 659344 445300
1019 543053 728027
1020 151659 816612
1021 47754 448201
1022 69278 356385
1023 42215 78436
1024 633457 870087
1025 258059 579162
1026 998162 375990
1027 287608 276070
1028 16652 31754
1029 683752 499796
1030 986085 958559
1031 107228 377443
1032 571058 588466
1033 793650 406973
1034 454690 924638
1035 439138 819732
1036 147622 588620
1037 92055 750221
1038 550577 76029
1039 913865 306286
1040 933119 361702
1041 898676 215867
1042 875777 609162
1043 419334 221553
1044 884898 317141
1045 964155 252371
1046 990609 618415
1047 288888 331926
1048 668990 459133
1049 356146 319057
1050 805808 966186
1051 164571 327171
1052 936967 896357
1053 680485 782294
1054 500212 678446
1055 856736 795098
1056 146855 366611
1057 535641 733714
1058 967949 488813
1059 88554 239131
1060 919475 334516
1061 50826 135633
1062 118830 472952
1063 655161 820451
1064 651652 195697
1065 69735 768282
1066 575816 235418
1067 449550 138020
1068 214846 532065
1069 680226 142063
1070 641212 930520
1071 132999 645766
1072 397665 629638
1073 201544 854976
1074 499585 815936
1075 676765 848538
1076 807480 160448
1077 249321 37525
1078 390370 929152
1079 877620 798946
1080 681510 148419
1081 102068 358149
1082 37233 926215
1083 662098 501088
1084 968945 906002
1085 532169 112973
1086 989228 272617
1087 562366 70937
1088 527035 890378
1089 886311 81304
1090 82582 726008
1091 942830 852705
1092 514187 921315
1093 666214 217666
1094 198184 523334
1095 475922 713757
1096 563119 774223
1097 609894 528238
1098 941292 860381
1099 83400 326728
1100 102602 311166
1101 968664 418280
1102 733353 950756
1103 905708 954774
1104 646261 328006
1105 371311 172703
1106 730967 354286
1107 323024 967752
1108 585300 327844
1109 748255 508995
1110 984923 801717
1111 417688 642217
1112 803399 221002
1113 144309 570947
1114 539263 611609
1115 165228 572260
1116 244116 558305
1117 709993 909879
1118 995040 588544
1119 529681 546434
1120 336015 338370
1121 469411 689189
1122 538411 674205
1123 296069 920901
1124 970824 388891
1125 383929 370345
1126 321117 471790
1127 161499 530342
1128 67049 410358
1129 708287 823474
1130 955716 317164
1131 425093 99826
1132 991990 32940
1133 703291 41778
1134 815874 648819
1135 671683 664398
1136 357019 359363
1137 125065 614578
1138 480599 945897
1139 480718 273057
1140 153952 733950
1141 862660 715789
1142 655893 848064
1143 147166 144290
1144 566314 677052
1145 206588 953262
1146 772669 880861
1147 874751 671616
1148 981350 110048
1149 564123 923833
1150 193605 350171
1151 440183 697766
1152 234939 649978
1153 507685 605328
1154 815896 313434
1155 383175 922759
1156 844043 31234
1157 616886 2454
1158 544494 544231
1159 225075 320373
1160 51590 593242
1161 477654 892041
1162 455213 321511
1163 224215 659253
1164 124424 475087
1165 106893 875270
1166 130001 167284
1167 889882 231192
1168 889907 831425
1169 98902 653439
1170 303570 602935
1171 919214 245940
1172 625462 613345
1173 475607 880627
1174 425647 553239
1175 447401 322096
1176 985624 89036
1177 816940 318334
1178 220170 272898
1179 807884 3746
1180 760070 676259
1181 506425 162457
1182 9864 780240
1183 3545 598102
1184 405772 3541
1185 526847 663866
1186 118584 671835
1187 872972 729493
1188 607617 388618
1189 75101 136879
1190 101340 951316
1191 851369 120677
1192 715016 430633
1193 368845 967543
1194 157420 109642
1195 227647 291804
1196 425653 95361
1197 126592 639703
1198 484350 247378
1199 372968 895969
1200 5727 86988
1201 805526 288768
1202 451899 496085
1203 470727 864946
1204 374019 386306
1205 949489 252626
1206 115478 698242
1207 776098 468266
1208 250606 411064
1209 35865 370160
1210 295889 756166
1211 225133 509802
1212 997813 439858
1213 858340 829815
1214 219936 376886
1215 258765 742671
1216 14599 688795
1217 187389 848713
1218 835837 153127
1219 344579 246750
1220 180027 957781
1221 931678 787259
1222 813752 471481
1223 66671 915850
1224 97548 686733
1225 781363 654534
1226 27442 996082
1227 637203 263056
1228 72389 116731
1229 101378 603185
1230 660247 317600
1231 520367 127269
1232 206278 991708
1233 320948 328218
1234 884489 304617
1235 401595 334755
1236 313515 349131
1237 588797 641354
1238 728724 229051
1239 872599 734756
1240 367469 741608
1241 728437 616751
1242 716639 941165
1243 222303 887330
1244 482516 195681
1245 527765 507619
1246 268637 39961
1247 845155 845271
1248 644265 582547
1249 198462 172397
1250 742756 837619
1251 43250 362791
1252 319264 39754
1253 926097 410690
1254 279443 696038
1255 40753 185059
1256 634215 905696
1257 75419 152628
1258 48962 480406
1259 282113 361007
1260 347442 738400
1261 129756 712091
1262 561860 563975
1263 291504 950724
1264 29866 549042
1265 715257 318033
1266 949608 176561
1267 694003 182409
1268 107393 822740
1269 541332 564010
1270 892202 741896
1271 605216 121508
1272 848238 789364
1273 377863 556546
1274 478100 281179
1275 553766 693540
1276 552680 649420
1277 457140 424723
1278 888011 866689
1279 668787 136854
1280 932361 103356
1281 869358 715432
1282 803835 298856
1283 579842 512706
1284 57458 286054
1285 774765 492416
1286 2306 934
1287 807240 653902
1288 185720 480335
1289 254950 137137
1290 675964 424815
1291 281937 893011
1292 616680 611900
1293 448675 234176
1294 372725 395147
1295 602567 594686
1296 765282 255277
1297 789245 399786
1298 739590 604282
1299 314268 194336
1300 603644 897527
