NAME : portgen-1300-1310
COMMENT : portgen N=1300, seed=1310
TYPE : TSP
DIMENSION : 1300
EDGE_WEIGHT_TYPE : EUC_2D
NODE_COORD_SECTION
1 308160 512686
2 816105 397351
3 404206 648888
4 989284 85471
5 775149 174790
6 685659 859889
7 810395 494970
8 878170 614648
9 808375 263024
10 924003 472908
11 79634 628853
12 336402 997449
13 776402 759447
14 775004 529947
15 308062 934344
16 132720 422228
17 321907 216975
18 370471 161752
19 367385 129463
20 605977 36036
21 823243 599917
22 983394 601627
23 290576 614435
24 302391 554546
25 445803 637842
26 214054 722998
27 130724 764388
28 170498 885931
29 190779 599129
30 26880 242453
31 281502 859820
32 479493 739112
33 351547 85742
34 876495 208768
35 204394 263734
36 312256 253828
37 817221 286161
38 258853 356636
39 498128 572014
40 826950 890471
41 568668 175874
42 503067 65608
43 652841 272900
44 942735 582794
45 865428 284728
46 285257 158617
47 925069 342243
48 723779 569414
49 782696 697233
50 342773 933939
51 116306 730377
52 727596 555332
53 69173 38179
54 219931 65116
55 111547 897598
56 943196 607984
57 733700 742151
58 957196 122885
59 934751 137250
60 15333 782132
61 303046 179262
62 865994 270454
63 147428 581879
64 526232 261889
65 216987 220674
66 136705 433012
67 460467 929351
68 947274 960684
69 442173 760915
70 108412 529955
71 338148 805484
72 567461 83295
73 981682 105994
74 292622 654614
75 194814 141900
76 43181 520806
77 480245 122099
78 797234 683294
79 269910 798244
80 608057 108489
81 596005 459015
82 956703 581591
83 559450 137712
84 40523 650405
85 760468 851201
86 830262 280137
87 942435 873433
88 738951 782239
89 699016 743895
90 473219 464133
91 311968 727987
92 653831 108498
93 624668 677689
94 476308 878876
95 369901 809562
96 920161 791768
97 447 257210
98 699693 58011
99 863048 694028
100 344344 199443
101 406977 548727
102 181394 730680
103 829931 315193
104 866975 371747
105 497430 119545
106 206985 391034
107 428343 798494
108 188327 804237
109 458568 699493
110 881897 501438
111 274663 346494
112 306060 561024
113 444223 281535
114 98742 211754
115 43501 423757
116 915263 327269
117 246464 353674
118 257148 920934
119 299644 855336
120 920170 820431
121 219121 776815
122 996978 868462
123 534899 573666
124 485708 439422
125 812986 418157
126 959269 651293
127 650526 920587
128 284179 79708
129 302263 827720
130 473532 908997
131 15549 11638
132 451576 676999
133 900424 430170
134 394056 559880
135 263595 614661
136 318529 19146
137 886506 463739
138 542169 623369
139 695968 385473
140 276845 364515
141 979272 271021
142 738222 134503
143 408208 903625
144 875693 569464
145 453250 826977
146 526877 739764
147 591740 305509
148 501902 199974
149 890308 533238
150 326293 911529
151 877698 100234
152 162577 448471
153 438885 688247
154 913071 516023
155 512378 380554
156 204014 732798
157 374470 646554
158 382120 275784
159 419897 146067
160 175097 700449
161 539861 860818
162 233586 352066
163 736963 218294
164 856568 438035
165 24854 853921
166 710298 179945
167 873094 896290
168 160500 246473
169 896551 91667
170 752383 132424
171 483727 729626
172 394367 752800
173 287116 666059
174 506178 239674
175 568546 283607
176 343405 452273
177 508384 472371
178 201230 697753
179 227139 266286
180 287970 192412
181 791695 821403
182 763639 379954
183 896826 474388
184 338431 621669
185 359438 716060
186 769605 180223
187 577521 891489
188 357043 87588
189 352434 761214
190 150836 39209
191 991154 590282
192 150064 832442
193 62226 888894
194 416305 493140
195 999464 686112
196 908042 274882
197 732228 36323
198 362818 303504
199 152104 502877
200 395757 199527
201 313625 744963
202 88837 529336
203 292453 753123
204 302208 675941
205 410145 312335
206 281447 733999
207 266821 601858
208 284369 516813
209 89174 727316
210 17136 593321
211 322283 835554
212 225912 159910
213 402435 24642
214 91385 48185
215 599036 603920
216 785379 676492
217 351069 838501
218 757762 257154
219 323461 548206
220 548072 545412
221 799720 688989
222 476003 406143
223 363828 72488
224 48969 572318
225 633887 338176
226 212118 103919
227 903841 791836
228 414148 637133
229 393894 250336
230 771573 35298
231 429661 754002
232 127869 864732
233 512615 592457
234 257995 860678
235 238030 211881
236 467843 516856
237 93428 678960
238 381202 218364
239 931712 434075
240 745761 765301
241 630747 841048
242 276611 563737
243 174258 31376
244 548622 486336
245 325885 165304
246 999158 462783
247 310176 336190
248 77569 282863
249 595561 797043
250 24940 145464
251 140775 614894
252 826556 868585
253 707428 371069
254 827308 340103
255 617577 382772
256 88510 907558
257 924450 606268
258 36140 966878
259 443826 791678
260 787163 229751
261 996896 460952
262 835737 92565
263 71106 852949
264 690299 224842
265 971531 10132
266 391055 591609
267 816497 362989
268 676791 723189
269 916598 670342
270 527597 207380
271 587550 756944
272 699172 96134
273 168408 538206
274 627045 217610
275 265084 224620
276 592564 370718
277 825511 14807
278 754408 549166
279 798396 463566
280 191794 984239
281 454471 156966
282 812506 410197
283 795221 331566
284 208385 828316
285 437860 497934
286 339833 226215
287 526593 562543
288 637187 626177
289 635440 820930
290 338156 521939
291 54552 226733
292 33047 987292
293 555661 234089
294 779102 406299
295 567768 345224
296 514803 88281
297 232481 29662
298 867546 361334
299 230350 136629
300 458947 542230
301 902765 806114
302 879453 743145
303 170067 365830
304 337671 838219
305 459146 520319
306 770063 392096
307 895798 846569
308 469435 366190
309 924484 782843
310 542651 433887
311 101216 71755
312 369369 895630
313 595168 533718
314 346762 783448
315 392475 271356
316 288506 797220
317 361783 817837
318 751876 662456
319 330934 186477
320 517856 189470
321 309604 996258
322 863648 133880
323 244008 443047
324 718912 336850
325 434494 333828
326 14572 446901
327 744153 187590
328 253723 105544
329 444331 61615
330 991268 507611
331 34896 151193
332 320363 269675
333 210714 773805
334 528447 761917
335 602561 26388
336 647277 587633
337 348349 208822
338 419315 654314
339 327602 181778
340 641906 489624
341 89387 285146
342 792179 884864
343 236459 137313
344 476857 92108
345 607123 978071
346 134008 569016
347 583916 491468
348 542193 721971
349 647908 654826
350 714565 589694
351 115445 537133
352 694943 944869
353 244441 729425
354 654722 859288
355 951130 116409
356 628686 352223
357 454492 13197
358 373602 465880
359 567276 828895
360 727482 488743
361 125896 873621
362 47352 12867
363 910942 110144
364 892689 403479
365 964381 689889
366 999592 468313
367 230647 525497
368 860937 737163
369 830653 778981
370 511262 770579
371 570037 647962
372 364625 118379
373 852174 260386
374 521664 571049
375 580525 432048
376 829281 244429
377 690444 24676
378 590102 647132
379 306485 169446
380 83932 507277
381 898772 875740
382 348026 180550
383 546372 980724
384 987597 336113
385 161023 113215
386 944215 996226
387 248369 295433
388 659461 881467
389 183176 22675
390 422764 263809
391 803658 723242
392 319547 457104
393 791117 123851
394 120286 50097
395 979124 880212
396 749566 494540
397 617958 398046
398 826364 573810
399 399593 69191
400 458917 970707
401 77210 498988
402 148284 316716
403 628390 106038
404 924881 233340
405 233558 466250
406 526846 256388
407 190322 203719
408 757711 404231
409 257781 949980
410 354186 972562
411 581131 918405
412 877195 190315
413 36005 445227
414 847942 931652
415 667043 553423
416 956585 949836
417 789117 956514
418 736963 547269
419 532919 115827
420 699393 386885
421 866070 170305
422 695910 6561
423 299081 831160
424 617345 427643
425 362040 381136
426 725868 467940
427 402148 905494
428 14122 127373
429 709871 191770
430 579753 81120
431 573118 809054
432 533947 846672
433 600180 356540
434 560478 183760
435 904638 926550
436 786886 830138
437 587940 973049
438 246694 113190
439 516257 971700
440 176193 908632
441 735356 656171
442 351899 585922
443 980304 147530
444 415888 942444
445 356334 380422
446 986791 349159
447 211188 772842
448 599999 35931
449 582364 722860
450 759867 185890
451 314903 645644
452 251449 453408
453 645780 69696
454 116040 816226
455 925190 866591
456 711485 767426
457 835436 199330
458 94329 223959
459 597866 761105
460 246673 564248
461 774176 837617
462 423893 718747
463 611647 141242
464 578688 134532
465 327269 176997
466 997150 700030
467 46510 309601
468 197146 967929
469 820735 152568
470 491593 756344
471 549664 654783
472 695770 792085
473 606246 149173
474 925266 492440
475 161195 458757
476 457242 447832
477 395591 582870
478 188740 614872
479 599134 941848
480 256261 677851
481 248960 963472
482 324632 168845
483 316927 56701
484 71656 43350
485 593084 945155
486 298693 105425
487 599909 787916
488 107005 326343
489 442026 841022
490 530007 996774
491 542107 636840
492 878271 649417
493 928037 33677
494 375398 877664
495 992673 140444
496 896273 777384
497 559483 546437
498 457650 444238
499 54873 907854
500 685079 279902
501 707146 84243
502 962433 164420
503 916649 820402
504 569561 746173
505 654832 155062
506 239474 721469
507 949175 115816
508 781578 471575
509 403988 778194
510 711195 872689
511 1827 163801
512 358271 313182
513 238008 214450
514 142992 435488
515 871266 286603
516 756782 695853
517 186190 374944
518 757300 820638
519 687665 762454
520 867839 456461
521 629689 597203
522 166469 119984
523 138617 732471
524 419113 246301
525 308428 243200
526 301246 619385
527 36588 398476
528 523119 11293
529 898052 587488
530 407120 96011
531 132737 807106
532 878333 198371
533 525373 642270
534 555000 829190
535 977199 49106
536 52462 157687
537 469766 467995
538 571443 382442
539 127213 959795
540 790062 226715
541 316397 555503
542 28368 775255
543 153865 949675
544 817520 987818
545 849570 115029
546 265637 858474
547 785254 818733
548 403999 472002
549 127437 698473
550 548540 756174
551 605258 459317
552 456238 81712
553 926802 745742
554 591017 261332
555 244611 573444
556 193773 910234
557 737917 292090
558 830373 274263
559 21851 59600
560 794371 53371
561 514833 856526
562 280650 221025
563 443848 593144
564 701448 388053
565 541192 825700
566 791425 865880
567 715184 216618
568 32942 406163
569 817585 736277
570 944881 879601
571 927823 757919
572 193447 796199
573 600196 409110
574 577823 564229
575 374884 810855
576 770553 739384
577 157281 722839
578 964749 739377
579 744133 239620
580 48770 520638
581 928156 854739
582 316451 365009
583 645620 435853
584 716786 941718
585 691894 421263
586 696440 457622
587 684715 983516
588 282817 775449
589 699245 557810
590 256276 704470
591 849010 461827
592 339282 20554
593 897544 936685
594 549429 350174
595 570997 597089
596 689376 875867
597 44382 523618
598 183160 470201
599 73204 209930
600 513381 824746
601 709864 20012
602 307953 670413
603 961844 308725
604 400101 136727
605 825295 28063
606 189948 393958
607 668622 451681
608 831261 52289
609 810356 792833
610 181848 175418
611 362649 506856
612 428336 867147
613 711398 676427
614 149668 14301
615 21672 974091
616 375348 562518
617 732515 228212
618 514522 455051
619 793205 887601
620 189292 845254
621 126328 756595
622 168325 395578
623 234440 182520
624 447530 177235
625 812219 506733
626 320533 58902
627 188257 539290
628 449398 147346
629 287497 79741
630 155891 506792
631 515520 512499
632 947434 980041
633 901734 433352
634 225633 273044
635 217241 648741
636 604758 633121
637 980613 675115
638 854885 303746
639 318598 889046
640 417749 564052
641 388930 69926
642 858410 514880
643 458570 862848
644 615083 752474
645 326478 81170
646 229418 520161
647 670360 540551
648 240495 493207
649 775982 493209
650 540693 930693
651 863922 558484
652 759486 248167
653 117802 250606
654 200492 673377
655 80719 586549
656 532262 535023
657 753262 74720
658 277373 995359
659 842138 406883
660 739545 408527
661 657369 732423
662 732350 286547
663 784819 46274
664 873635 732446
665 557312 604278
666 103253 645220
667 808326 831199
668 31789 853907
669 316664 783689
670 237506 463211
671 20709 208200
672 12928 917951
673 423800 496995
674 787810 383813
675 755731 194221
676 619571 43536
677 935897 936414
678 827440 218701
679 750158 928286
680 216378 263895
681 933942 416802
682 435870 617508
683 565840 324062
684 522094 835311
685 650919 780378
686 207549 458325
687 651151 545324
688 788955 613833
689 796526 795936
690 459106 566117
691 296115 945348
692 516067 293417
693 670336 686451
694 209350 190818
695 265359 707727
696 331812 481352
697 132770 457128
698 255661 562384
699 557048 467603
700 128995 809967
701 700468 991873
702 924706 189614
703 898105 674222
704 527468 642479
705 266077 140989
706 9350 559340
707 662927 508650
708 932083 452590
709 284032 978742
710 361846 3455
711 767013 54491
712 706316 840952
713 79909 215675
714 533619 461537
715 647218 114732
716 86365 154046
717 529858 318117
718 556767 736775
719 282421 7416
720 361333 217746
721 402419 230607
722 828971 261903
723 940713 277321
724 775035 291818
725 377218 39985
726 28765 95510
727 820384 14262
728 723601 546422
729 462015 606588
730 632847 161329
731 391801 520051
732 281146 48331
733 738570 778743
734 730368 401024
735 567937 654762
736 677554 992213
737 601523 321860
738 974690 671503
739 234106 692053
740 117350 533487
741 753660 927030
742 828690 485888
743 722931 566313
744 872900 481527
745 579547 778023
746 6406 881397
747 439479 706571
748 540192 410205
749 629083 507110
750 287212 269209
751 43214 82982
752 174467 843731
753 286325 101734
754 266819 334495
755 291331 157288
756 673522 980488
757 27041 854823
758 154923 510404
759 80572 574574
760 508139 328364
761 149659 223258
762 113811 298727
763 611547 594571
764 817746 757792
765 35535 872955
766 404683 899610
767 400722 960062
768 859964 773172
769 899989 973867
770 330965 212527
771 485741 298325
772 973388 251182
773 628364 783148
774 767586 140751
775 95023 945620
776 592459 871291
777 471575 414257
778 864526 143603
779 682259 214405
780 983766 513153
781 201745 292952
782 3530 78804
783 671546 375196
784 7099 775858
785 226458 371775
786 742818 939821
787 479550 562518
788 735905 278368
789 751683 699553
790 434201 467943
791 912311 603340
792 774026 522381
793 671209 111731
794 896080 321918
795 288515 484767
796 766072 124130
797 747409 959190
798 469708 545920
799 818774 410869
800 515276 349996
801 31464 68032
802 706549 627079
803 33308 989118
804 97264 949193
805 743047 752795
806 247523 360341
807 925889 498998
808 747081 77615
809 545543 44339
810 609095 125626
811 556422 596230
812 260581 876462
813 340310 674785
814 233271 852470
815 529210 746787
816 181103 802490
817 956505 681406
818 220420 551970
819 677450 275027
820 775300 593594
821 566188 851741
822 712822 162889
823 928345 169841
824 863549 870947
825 618880 794922
826 312648 966303
827 881658 768489
828 168893 228974
829 111526 25143
830 406658 481338
831 311668 822236
832 173892 149453
833 186607 395781
834 647519 763000
835 570652 577239
836 214065 674596
837 425458 814172
838 812977 590118
839 714572 492091
840 707569 111335
841 563259 208128
842 445811 47872
843 435119 358866
844 628597 807052
845 494799 824639
846 904450 914450
847 704375 198061
848 379528 891591
849 426282 898649
850 349912 338227
851 455269 371457
852 163377 507544
853 231663 104520
854 520491 833786
855 333370 810026
856 600377 304473
857 530343 582019
858 576887 397217
859 117861 975831
860 769924 295015
861 969499 748869
862 413088 232424
863 121970 842608
864 511218 917913
865 582508 708457
866 69626 880785
867 158721 897542
868 510958 258785
869 677784 863792
870 470984 37901
871 241004 652766
872 37128 199784
873 855139 155581
874 501362 471950
875 76090 536920
876 380373 508368
877 316140 641454
878 268601 574483
879 212736 265835
880 996586 972877
881 426735 656699
882 362801 295469
883 569021 947611
884 267345 330559
885 726879 421306
886 895855 645910
887 899740 233004
888 914641 461130
889 432728 771633
890 963823 547487
891 629872 245382
892 921327 609631
893 281722 412926
894 517984 863252
895 328521 563347
896 991440 347225
897 136912 49677
898 142046 595094
899 753025 804124
900 285142 394008
901 722852 729728
902 508127 528603
903 907048 134991
904 587041 706509
905 359732 855674
906 56499 349484
907 937314 433239
908 981437 79509
909 519787 313123
910 153422 973927
911 194585 463220
912 45416 332870
913 698454 166126
914 137783 371137
915 325956 779650
916 874089 726218
917 411901 108148
918 490988 280388
919 308068 488087
920 628193 202212
921 893138 204860
922 709829 354593
923 368761 528219
924 301808 804041
925 351223 975919
926 457310 381888
927 478168 505492
928 519919 996633
929 317826 399978
930 37615 626659
931 826922 98953
932 78316 157519
933 962535 851638
934 639654 582720
935 64478 453217
936 777701 715746
937 961900 177502
938 516616 812697
939 985052 539924
940 812951 701820
941 848299 737804
942 333521 699296
943 952727 775135
944 647902 254382
945 145612 639349
946 640733 725347
947 423608 174976
948 424511 177392
949 242959 532326
950 837976 556063
951 543167 761884
952 991089 649402
953 127620 719505
954 48366 778872
955 552764 744783
956 348731 63444
957 254366 398265
958 985926 101574
959 675345 903339
960 733008 785143
961 608678 107328
962 744744 508415
963 910049 15816
964 724656 312497
965 49882 797111
966 764331 206179
967 987159 68168
968 353089 784854
969 483438 935255
970 713369 851152
971 99790 744562
972 521373 360469
973 30670 533405
974 980603 915193
975 264926 408694
976 452735 930462
977 482443 40865
978 791731 336987
979 774725 922921
980 296313 342765
981 236067 113110
982 65502 701612
983 644993 604168
984 542071 893897
985 367595 452521
986 120971 760151
987 638413 324313
988 332407 678216
989 624884 703878
990 716683 573062
991 241091 801735
992 16183 707117
993 561043 651221
994 140677 285547
995 423175 748920
996 242783 589540
997 567660 260848
998 730181 339639
999 106149 197059
1000 28061 352454
1001 908520 276724
1002 198510 691864
1003 167603 651000
1004 914278 775326
1005 479822 140510
1006 196310 489178
1007 499746 547392
1008 99981 646527
1009 545449 804654
1010 971430 305353
1011 498019 345011
1012 865835 15141
1013 544001 844246
1014 561641 946549
1015 156710 681406
1016 763937 849558
1017 224056 576173
1018 376751 751912
1019 301988 468791
1020 607135 914516
1021 105771 336022
1022 314116 117821
1023 250901 897771
1024 723705 552519
1025 716846 885934
1026 777997 159599
1027 40349 346655
1028 588516 58961
1029 52668 622337
1030 315112 415690
1031 349011 445487
1032 168190 565306
1033 34738 860288
1034 175062 381925
1035 296491 202210
1036 922821 992930
1037 87808 85496
1038 527356 338419
1039 304662 519180
1040 426624 485039
1041 791578 939304
1042 631436 741019
1043 332394 318450
1044 681367 658750
1045 541434 516463
1046 576850 920063
1047 172300 404925
1048 991694 112841
1049 248214 228619
1050 590464 912482
1051 593109 204524
1052 125895 231807
1053 94356 838693
1054 528163 299329
1055 14260 270066
1056 377594 393918
1057 80902 798649
1058 838840 428948
1059 273187 763265
1060 573611 921896
1061 612074 946442
1062 791460 384008
1063 609100 718296
1064 867034 856000
1065 991140 688662
1066 810256 5332
1067 504920 156558
1068 107445 397659
1069 858402 832786
1070 902179 903446
1071 45263 918102
1072 85138 619538
1073 904388 630407
1074 128602 788291
1075 795825 273397
1076 245806 392213
1077 237479 901802
1078 102226 587777
1079 699604 969336
1080 124362 696696
1081 980291 695376
1082 397150 110814
1083 224802 459491
1084 308780 461364
1085 894260 208432
1086 300345 484895
1087 967440 300214
1088 676089 219860
1089 708962 889658
1090 281782 21322
1091 18692 897698
1092 731638 294443
1093 708371 114879
1094 608181 394106
1095 931755 647953
1096 88879 397037
1097 938526 693746
1098 603100 560367
1099 950662 784924
1100 943448 684528
1101 921444 238944
1102 506508 774502
1103 254705 348108
1104 660575 943035
1105 193430 987346
1106 979595 305498
1107 37580 476408
1108 607816 583253
1109 756850 703404
1110 507713 664435
1111 508829 523855
1112 517916 209732
1113 286987 61401
1114 978387 192938
1115 45508 327981
1116 559285 765926
1117 696227 294436
1118 41727 713193
1119 860117 255230
1120 686626 125117
1121 358029 904777
1122 886392 267320
1123 139124 565024
1124 879121 728793
1125 406758 541698
1126 581980 757723
1127 739415 615466
1128 125242 155517
1129 542716 212072
1130 732774 541511
1131 487990 405344
1132 256409 68312
1133 629317 74818
1134 419106 770260
1135 337284 42792
1136 704132 28056
1137 296645 966014
1138 82454 751105
1139 784439 902449
1140 84489 131469
1141 518684 766315
1142 460163 503996
1143 839990 153940
1144 509517 627915
1145 665118 966908
1146 294087 89857
1147 917946 643834
1148 420985 329972
1149 608131 920377
1150 184865 388018
1151 780584 976672
1152 644304 275289
1153 23014 815665
1154 297560 235419
1155 775476 971302
1156 646000 914801
1157 546953 765866
1158 247424 398133
1159 487398 612574
1160 647326 299345
1161 466686 498728
1162 585394 949265
1163 262208 727459
1164 383752 21356
1165 943000 266789
1166 453545 549020
1167 126972 113187
1168 485469 603883
1169 219361 694297
1170 256572 441856
1171 666541 896942
1172 980588 365773
1173 500222 795358
1174 504463 968680
1175 381625 693525
1176 946219 586775
1177 977376 918076
1178 934473 231563
1179 849699 531116
1180 789819 419130
1181 596303 603262
1182 978847 333619
1183 304760 749057
1184 934213 181179
1185 265643 452066
1186 893670 518718
1187 230949 953800
1188 353125 879910
1189 521352 667317
1190 14792 30644
1191 877760 852635
1192 231536 523870
1193 670485 850282
1194 570173 793352
1195 808426 736412
1196 669670 38182
1197 428653 804506
1198 548186 147822
1199 665993 26787
1200 12647 620311
1201 274006 837145
1202 953887 350980
1203 815765 93583
1204 355238 453506
1205 247590 84190
1206 661390 56346
1207 722690 53407
1208 749460 558121
1209 174609 174340
1210 785433 156937
1211 83063 907425
1212 168531 645332
1213 178059 56524
1214 564831 879968
1215 138035 259542
1216 524671 67845
1217 419726 930602
1218 369254 821413
1219 129945 178129
1220 774409 112364
1221 675673 395832
1222 7919 651488
1223 653348 762244
1224 869650 783321
1225 626446 491661
1226 582991 786025
1227 888752 753105
1228 95639 206160
1229 417418 23285
1230 981726 994352
1231 963638 177109
1232 679096 135225
1233 408517 265557
1234 48427 71202
1235 400058 987215
1236 688470 391287
1237 547894 293772
1238 573945 297038
1239 18673 415426
1240 549692 971899
1241 639106 541545
1242 898241 143683
1243 295904 347562
1244 388749 284501
1245 522084 103696
1246 772986 58743
1247 778071 787194
1248 423894 284385
1249 847937 714146
1250 77542 356310
1251 743571 454224
1252 233629 654547
1253 852554 41446
1254 887783 745069
1255 457201 748077
1256 817411 132917
1257 501200 878029
1258 221366 904895
1259 399038 891902
1260 711331 124131
1261 417619 334280
1262 993659 43747
1263 243644 234245
1264 157657 893347
1265 441217 532499
1266 409254 273604
1267 958224 801614
1268 154487 506188
1269 40345 20211
1270 922317 391008
1271 948524 496847
1272 573169 397953
1273 686076 438705
1274 65083 734323
1275 543550 189648
1276 126728 954590
1277 272929 545043
1278 947056 469966
1279 495999 432015
1280 500059 346366
1281 1101 867571
1282 822751 66192
1283 799553 320564
1284 559747 103246
1285 191952 782660
1286 839811 664714
1287 348351 521682
1288 997403 463029
1289 61351 448616
1290 96691 773677
1291 738245 725642
1292 393287 94851
1293 531398 541682
1294 450852 892031
1295 2061 833923
1296 946440 937098
1297 828259 139656
1298 551197 283809
1299 148495 51487
1300 400550 223047
