NAME : portgen-1400-1410
COMMENT : portgen N=1400, seed=1410
TYPE : TSP
DIMENSION : 1400
EDGE_WEIGHT_TYPE : EUC_2D
NODE_COORD_SECTION
1 39748 281
2 734256 913875
3 636019 493846
4 550901 493575
5 963216 663313
6 367482 592621
7 996525 240917
8 981593 429331
9 592495 835199
10 734444 892537
11 86129 478538
12 526195 152358
13 232703 986970
14 652223 531322
15 237326 564076
16 473317 509700
17 342242 692832
18 450800 545696
19 95179 819324
20 808135 718879
21 72761 930621
22 838613 171234
23 192957 140263
24 629699 572914
25 535147 157183
26 784812 985038
27 715709 343969
28 40347 530048
29 658039 41424
30 463074 90323
31 398667 731577
32 685440 244337
33 590551 436861
34 754007 825290
35 47960 841330
36 799632 19581
37 300051 577261
38 107725 101090
39 762828 182225
40 112010 702655
41 328931 610798
42 68247 147003
43 165408 741740
44 824259 97905
45 102280 13939
46 791688 269888
47 771363 966805
48 919247 53180
49 630569 261351
50 63509 91866
51 377434 447474
52 460903 832492
53 828252 174013
54 916791 568706
55 178561 298607
56 705788 560133
57 939144 449135
58 298634 128778
59 960213 718635
60 325090 537371
61 806291 492656
62 761781 956094
63 463895 352158
64 558677 467559
65 749009 933712
66 184298 194122
67 3663 813403
68 996866 768797
69 671654 619111
70 848368 36629
71 781526 105623
72 772814 564909
73 207647 299032
74 508107 815269
75 502909 567089
76 494502 163009
77 512342 129796
78 907568 183312
79 443810 647500
80 835625 59454
81 502359 297680
82 720337 141931
83 517080 600164
84 787319 374235
85 241488 999602
86 620671 144943
87 215726 758000
88 42868 643281
89 980314 631984
90 48525 280583
91 908347 911177
92 631933 689554
93 431353 886617
94 473785 861731
95 296322 396701
96 981478 297419
97 377623 848766
98 415957 636582
99 889897 14813
100 522040 564365
101 318718 876122
102 766743 222326
103 658741 583325
104 531076 822787
105 698443 20950
106 709527 582078
107 351178 438924
108 77976 204939
109 920057 871570
110 725974 880497
111 710267 772505
112 852194 677122
113 680883 744549
114 378199 993400
115 99259 459543
116 112205 157526
117 933540 27575
118 571056 326269
119 559999 193009
120 611577 226413
121 966560 602214
122 135757 415824
123 686434 208973
124 445224 700500
125 167882 671408
126 258382 896497
127 915554 62496
128 452160 161191
129 942581 739168
130 651269 332471
131 23325 338066
132 211209 472030
133 54389 107312
134 446320 935353
135 752489 869003
136 759715 219557
137 703687 54565
138 622115 813769
139 856950 789698
140 224962 519692
141 801967 639031
142 342130 766788
143 436217 774138
144 946316 461510
145 973185 463743
146 879949 624645
147 440520 742574
148 466697 747003
149 898526 81192
150 793709 872665
151 352022 655526
152 475537 648190
153 869441 619351
154 554367 148766
155 626278 678021
156 214874 481071
157 765983 187525
158 452522 398680
159 897546 468635
160 5332 307386
161 208786 365127
162 141644 879824
163 516981 104189
164 744019 55496
165 185124 2763
166 259402 708184
167 163419 546941
168 304817 320896
169 873047 154604
170 314265 37537
171 876592 477681
172 456177 665798
173 254957 514821
174 483000 560695
175 225592 362507
176 2984 843029
177 896068 790945
178 613262 643837
179 492106 928596
180 343373 548545
181 746303 399762
182 834500 588741
183 801428 737193
184 24893 100184
185 932568 937701
186 915679 336850
187 243042 642825
188 304402 365756
189 469059 350698
190 266561 873143
191 612083 815422
192 712123 636579
193 256459 859639
194 873683 574678
195 745512 567623
196 296002 772863
197 222036 376564
198 121857 539741
199 234638 813352
200 361396 889201
201 45761 132301
202 294134 352448
203 750424 187561
204 130906 259488
205 534486 753622
206 770153 917428
207 183084 775749
208 252542 973440
209 177725 457936
210 466884 261687
211 502554 211541
212 738787 43366
213 891939 783378
214 42716 890594
215 892400 116840
216 234850 209570
217 816212 512938
218 102989 694655
219 632338 936373
220 384036 283019
221 681914 415747
222 107794 483824
223 65069 84460
224 34075 178669
225 484624 338479
226 497024 344044
227 920951 244556
228 654351 836190
229 316089 781195
230 249459 55769
231 555222 194532
232 875452 251467
233 71708 354406
234 809634 699259
235 710680 168082
236 939364 999055
237 973311 128405
238 764663 158510
239 290589 494231
240 389015 55749
241 467289 261521
242 641134 836630
243 561617 40317
244 334118 564745
245 441230 748583
246 885020 933079
247 225692 215953
248 343654 682858
249 442436 979389
250 719161 906558
251 793870 539844
252 789654 428875
253 871190 235502
254 702909 84321
255 682938 614033
256 502072 751343
257 339965 500875
258 170748 622143
259 968839 659498
260 907813 388850
261 911970 830245
262 980097 804122
263 374211 399520
264 209401 544435
265 257214 529160
266 455600 206268
267 811293 774981
268 553676 715945
269 921556 140259
270 665882 939474
271 71477 674619
272 656932 52379
273 836613 54775
274 952981 421570
275 841742 944133
276 473456 898000
277 722174 190000
278 450957 587602
279 728551 14673
280 875198 155244
281 313945 562650
282 418439 743464
283 542556 827452
284 94411 287585
285 664261 115972
286 669161 547269
287 817756 963679
288 915393 13969
289 108071 790096
290 353164 786609
291 670969 194728
292 669236 101970
293 215215 892950
294 787829 67828
295 232424 726223
296 621534 633971
297 475997 549909
298 270312 524208
299 856863 693252
300 136985 822643
301 946704 162884
302 68406 55133
303 273163 278728
304 228763 620203
305 974785 558007
306 799773 660722
307 782248 148975
308 533710 679974
309 86652 868530
310 473151 18347
311 970589 401158
312 150599 841618
313 169268 506276
314 478862 762623
315 690516 636665
316 785206 487867
317 815311 795156
318 986835 10247
319 412480 520261
320 568259 535240
321 806298 919298
322 594677 214077
323 755633 220375
324 483371 634379
325 380640 764035
326 45346 94239
327 2736 500320
328 37437 458837
329 347573 273249
330 68297 262915
331 866248 708501
332 51944 439545
333 751709 880474
334 66045 568171
335 393341 313335
336 196603 452273
337 487889 709115
338 973001 876350
339 398422 650279
340 804181 710430
341 158703 205612
342 694325 427600
343 770417 76704
344 435922 375766
345 43447 106361
346 944202 844308
347 126919 254924
348 338637 354024
349 431409 885561
350 241075 879283
351 821952 833091
352 830197 670210
353 605332 839733
354 399914 575135
355 729903 960732
356 22915 971807
357 229802 961936
358 318713 21939
359 581581 797020
360 100908 397684
361 449064 180483
362 327096 514058
363 491382 363511
364 622075 817679
365 103782 133268
366 476435 823286
367 920376 843448
368 687515 186895
369 975809 732389
370 108886 748477
371 495122 638902
372 274857 645762
373 657296 763718
374 517212 612861
375 763541 975125
376 731948 613730
377 781778 107807
378 402847 998665
379 912715 986748
380 982694 418437
381 863924 667524
382 466248 981425
383 465609 384012
384 696949 584040
385 304639 554995
386 504726 968720
387 33479 125782
388 665735 835334
389 398705 219288
390 111210 492716
391 450796 635326
392 834984 685345
393 269344 808911
394 357038 938950
395 377839 303502
396 489946 391769
397 427750 553891
398 243751 526402
399 605422 149075
400 980026 821962
401 365013 297924
402 501651 270824
403 524329 96622
404 778745 96432
405 838463 593936
406 641627 973764
407 608909 679191
408 928491 472154
409 239774 912357
410 737674 939206
411 778589 547874
412 604013 482677
413 189982 206802
414 467069 762654
415 601453 569113
416 56589 302272
417 380825 517274
418 851089 477031
419 26416 155793
420 756854 797189
421 569136 444681
422 201276 438632
423 524912 942071
424 787756 945072
425 363909 36948
426 59333 842768
427 547621 410913
428 765372 62740
429 917098 984376
430 419735 47297
431 70205 622951
432 339578 41273
433 24799 196946
434 772487 170277
435 154278 986419
436 684397 294701
437 548447 700725
438 879873 935821
439 252 193099
440 717304 127241
441 289704 482692
442 342919 554156
443 498907 433637
444 962693 339552
445 492474 654142
446 704544 856139
447 1514 770435
448 112791 274435
449 896233 500551
450 558759 589090
451 941819 594656
452 227768 236668
453 747244 576641
454 499848 993465
455 912005 331734
456 100046 577545
457 491902 765592
458 342753 214065
459 621437 569143
460 928481 750364
461 300712 271936
462 611518 565188
463 44599 89741
464 66933 311778
465 953481 303231
466 435973 6786
467 281094 385569
468 27194 712158
469 990789 577326
470 211402 284842
471 812200 393550
472 411070 742110
473 353429 432607
474 244621 436326
475 725835 23050
476 207502 584455
477 547069 255527
478 153117 935032
479 313562 842198
480 209474 35086
481 585851 922522
482 782062 627163
483 519534 706496
484 166475 749791
485 412163 910145
486 969444 185111
487 843308 905431
488 542861 716257
489 724866 355991
490 412070 109566
491 776179 224735
492 102304 918394
493 717380 513451
494 224723 653931
495 866034 320697
496 545683 240998
497 165162 301257
498 315397 627088
499 550242 505639
500 199248 637171
501 707740 888630
502 24256 616268
503 246870 982767
504 482150 628675
505 538147 639666
506 710309 659630
507 976163 888776
508 489403 344853
509 757359 480805
510 311765 892446
511 156253 660836
512 550542 774991
513 202405 80813
514 160855 227039
515 658560 560094
516 234107 96191
517 817844 772403
518 399257 116548
519 248571 213528
520 428991 372526
521 756091 743918
522 342165 973588
523 164443 884847
524 690455 390171
525 98851 234583
526 466233 323202
527 847078 639153
528 403064 611549
529 70786 251852
530 217010 130322
531 734195 268622
532 199683 165620
533 883574 966391
534 317465 2574
535 724332 604556
536 654397 367188
537 381953 77181
538 426212 833051
539 813757 911388
540 371927 590856
541 10027 909002
542 10029 528238
543 825899 965484
544 896508 652223
545 888828 432866
546 799083 245996
547 489195 824435
548 718129 388903
549 361964 264984
550 547376 331392
551 71089 779067
552 18243 507995
553 224556 557230
554 313173 318840
555 813254 437580
556 715040 418562
557 363023 784143
558 331238 488198
559 779427 375247
560 447490 494670
561 604426 52480
562 455198 392939
563 533466 875330
564 348944 873958
565 852625 868981
566 519877 494916
567 98134 934347
568 875815 591465
569 545979 225885
570 196999 337700
571 186057 521260
572 204733 394158
573 828439 746602
574 790798 96255
575 290969 842799
576 39959 488006
577 412358 678394
578 811514 576172
579 680933 83896
580 632180 633091
581 11251 87287
582 121840 475553
583 251522 193780
584 213829 968865
585 955703 584635
586 697400 683171
587 84278 604691
588 454711 116420
589 640121 776803
590 581424 957293
591 194397 265047
592 241777 219534
593 857729 432589
594 373076 622580
595 682824 682034
596 377635 577114
597 270181 612363
598 640300 502886
599 436981 600041
600 939446 712019
601 106480 13994
602 514830 333675
603 648402 774912
604 246228 192824
605 820664 378924
606 203096 58352
607 401072 950145
608 255455 434137
609 817106 509476
610 835253 748636
611 756799 613787
612 29418 243684
613 478154 683405
614 168340 750603
615 956288 679798
616 870191 447297
617 956138 202500
618 754196 136044
619 863974 291631
620 964078 423592
621 615483 863599
622 787326 934187
623 925235 763848
624 547695 26496
625 134208 956894
626 334546 686378
627 643753 259648
628 841827 659183
629 57855 312330
630 579479 512358
631 910937 954597
632 228746 397072
633 763441 339497
634 271026 466884
635 24910 491606
636 886441 790609
637 375268 878359
638 414090 70421
639 970034 769770
640 401857 818970
641 625549 856009
642 171123 443930
643 768861 915594
644 218550 559066
645 439058 414698
646 865018 397090
647 266720 472471
648 537150 824874
649 488331 908967
650 520097 854814
651 793814 777925
652 624639 315238
653 331344 478536
654 515254 199822
655 490786 926232
656 440633 498789
657 873272 164780
658 647340 513847
659 687876 756274
660 859922 938567
661 851166 362059
662 946787 170096
663 697792 108516
664 165970 60029
665 547015 935553
666 555166 770211
667 278983 475625
668 378337 126760
669 982736 6343
670 796590 255014
671 227718 462276
672 699143 500491
673 563531 502958
674 450302 96624
675 774679 428633
676 658904 428301
677 361952 584543
678 299647 23602
679 498941 149014
680 936900 204584
681 495800 508911
682 403232 235772
683 698513 978356
684 799645 372780
685 601248 144381
686 63544 591251
687 981595 431288
688 279663 422865
689 106 362243
690 870449 674189
691 609575 16955
692 123129 342430
693 439753 46255
694 366979 43211
695 777111 399981
696 327114 609956
697 405094 652209
698 191469 636467
699 480681 267855
700 220828 140666
701 502852 88058
702 226175 100489
703 819057 641948
704 305171 19521
705 144790 253391
706 656623 455729
707 371902 536919
708 877470 885843
709 103816 751022
710 44302 62046
711 497675 531790
712 151952 460582
713 641529 975485
714 365076 881105
715 612230 637714
716 117694 980585
717 217453 617057
718 17566 153845
719 645052 586210
720 464960 553909
721 942439 615956
722 998908 715065
723 902305 795323
724 458003 944512
725 10680 215983
726 271390 599575
727 655624 583113
728 22972 522266
729 870605 609118
730 82922 665212
731 996895 718960
732 554560 590880
733 310952 40666
734 456821 656837
735 634613 82146
736 427840 159303
737 740342 828318
738 790655 898100
739 876166 568838
740 437610 119262
741 104880 755958
742 798183 947018
743 640819 398733
744 426024 626572
745 306104 976899
746 697024 988215
747 951597 382813
748 126069 783135
749 875614 170589
750 924410 4205
751 919157 889164
752 506902 891417
753 111103 515432
754 801392 708606
755 942294 624238
756 96241 244032
757 303013 106022
758 968187 8679
759 767363 171746
760 464811 527816
761 165052 286231
762 732427 630407
763 162989 538675
764 652400 848925
765 717215 275222
766 96708 167559
767 626543 813371
768 23021 860847
769 452945 692160
770 978830 632139
771 631369 254277
772 161761 778288
773 811847 410792
774 255788 321189
775 219824 587393
776 130735 26688
777 453374 649187
778 907497 751597
779 262621 693531
780 868395 250256
781 62487 109231
782 729775 310155
783 992869 841963
784 82270 524724
785 294175 557395
786 752891 446174
787 951922 877417
788 397081 138363
789 832856 83239
790 722910 411391
791 276054 958869
792 980529 466958
793 212734 987476
794 437784 316388
795 820502 181057
796 778576 928220
797 397984 421435
798 879247 185195
799 302355 284344
800 381207 673483
801 577935 172549
802 598278 808432
803 311339 171865
804 46159 986415
805 436452 920020
806 313813 946232
807 873029 687337
808 471679 134267
809 711247 308340
810 430908 807673
811 539608 797926
812 143517 620691
813 979459 580342
814 847895 143489
815 566077 225215
816 92204 846441
817 646786 802889
818 97577 329821
819 85840 293191
820 995279 78467
821 276229 129443
822 885480 12828
823 641449 980650
824 784702 777293
825 441976 298905
826 337299 158865
827 718266 155991
828 581279 731494
829 525762 795388
830 710854 981518
831 86025 752968
832 991136 357985
833 643791 184369
834 60752 860200
835 45887 491029
836 349564 933954
837 866364 132002
838 470374 380742
839 79659 987526
840 39411 247964
841 54579 52507
842 432635 584559
843 139190 339235
844 855304 288801
845 159097 913208
846 269068 225639
847 247303 504249
848 728902 342275
849 263079 753477
850 542454 260707
851 900990 797176
852 737881 194011
853 244326 284792
854 726230 133707
855 16801 242044
856 876190 236961
857 636290 797646
858 712449 860385
859 505664 486887
860 629082 301516
861 921290 307275
862 317746 785180
863 590039 552388
864 196072 672352
865 887676 185581
866 654511 945952
867 970725 797367
868 371773 817617
869 416216 634988
870 872109 278804
871 833570 368417
872 659718 857581
873 991917 961793
874 907893 462122
875 914210 176513
876 146202 590727
877 865800 356872
878 606195 955038
879 826451 940513
880 822237 426708
881 868576 91242
882 261597 737996
883 408473 507773
884 577243 778709
885 805728 750656
886 952491 43541
887 572676 452568
888 155314 330562
889 441474 960873
890 178985 635000
891 725937 255559
892 850114 460967
893 317005 563269
894 684354 232728
895 388894 864000
896 240374 637506
897 829259 121453
898 326313 790028
899 795740 207149
900 702266 661355
901 520318 947019
902 283137 279209
903 450576 890642
904 740612 404833
905 39866 42925
906 270683 593722
907 551618 958236
908 186334 231069
909 261982 140144
910 411683 618444
911 712032 370093
912 76443 144373
913 230337 5471
914 760404 293466
915 1992 264672
916 589949 36641
917 921007 136059
918 364317 132215
919 703941 891877
920 274633 85936
921 301287 544209
922 821045 770450
923 151968 870280
924 561063 684885
925 891115 320841
926 29624 502274
927 205157 437594
928 71405 483677
929 26012 147078
930 914892 318360
931 186701 848735
932 130199 953930
933 741638 726473
934 772676 781167
935 806268 316053
936 670005 577096
937 249028 90841
938 588819 209757
939 164935 638848
940 72968 746659
941 979459 613326
942 378573 683631
943 77971 741214
944 906441 967077
945 394421 637843
946 359539 922773
947 85609 958579
948 415930 724190
949 295181 730204
950 181631 942210
951 705345 922214
952 611917 144456
953 341382 416298
954 123700 521526
955 359623 330190
956 577236 58935
957 752657 277049
958 958821 263927
959 763126 171620
960 537999 17448
961 431292 42472
962 599536 864057
963 610708 747791
964 965179 104572
965 749459 172520
966 86057 643409
967 279225 742777
968 169423 920523
969 860668 101524
970 724809 814043
971 978087 734821
972 429077 376972
973 206550 317066
974 323237 221551
975 347871 668139
976 759010 190608
977 980744 9110
978 856153 61935
979 642989 869139
980 975032 420858
981 555629 22175
982 796716 545580
983 352103 842415
984 629857 375684
985 70498 641754
986 940690 541575
987 823748 869860
988 258437 240683
989 61727 590425
990 7904 548773
991 104801 96040
992 129539 328601
993 616890 63881
994 846693 733645
995 390674 327008
996 290666 484984
997 31026 83055
998 873352 436512
999 911072 559217
1000 118535 965867
1001 255338 732811
1002 213646 799097
1003 563338 662970
1004 61069 652143
1005 392220 792271
1006 215241 909344
1007 478464 648024
1008 130192 70645
1009 991149 713661
1010 672227 915590
1011 931342 70640
1012 257149 104631
1013 386415 207878
1014 327928 24651
1015 306522 595467
1016 179613 409584
1017 198205 215632
1018 333531 195456
1019 617575 481514
1020 198409 546245
1021 72731 133032
1022 61418 475084
1023 395665 220025
1024 227835 926394
1025 696639 665474
1026 108584 886421
1027 252694 523067
1028 786253 845754
1029 534606 998014
1030 465566 367881
1031 45394 579554
1032 453733 845974
1033 719540 82209
1034 847926 3380
1035 252359 910166
1036 842809 64755
1037 17022 6752
1038 807005 44921
1039 817945 734081
1040 318377 540661
1041 673272 329913
1042 559084 938641
1043 550072 600059
1044 955851 352230
1045 496092 251322
1046 347530 614194
1047 229155 288242
1048 703435 7976
1049 116010 54665
1050 668079 350744
1051 402079 493754
1052 608016 155977
1053 992201 778670
1054 327336 314053
1055 972995 186194
1056 889902 182375
1057 501921 214243
1058 20350 431200
1059 350399 165490
1060 142539 711563
1061 966199 793261
1062 335301 901615
1063 508086 349055
1064 456738 861044
1065 14551 28334
1066 717585 503891
1067 761086 132183
1068 650759 490896
1069 827992 344841
1070 918290 118872
1071 249659 790360
1072 209691 784529
1073 285123 554269
1074 278893 327540
1075 780155 354379
1076 551238 254965
1077 40114 639744
1078 633158 898187
1079 732667 475833
1080 505218 501304
1081 950678 982495
1082 395763 854122
1083 936534 99542
1084 972684 717392
1085 929120 466081
1086 152306 22859
1087 385334 788160
1088 160325 711233
1089 753147 695556
1090 268456 609899
1091 616387 980905
1092 355826 513246
1093 77655 735089
1094 108128 906963
1095 195648 551216
1096 518212 110599
1097 415720 452209
1098 966566 226800
1099 405025 421531
1100 624203 573889
1101 801122 583337
1102 59083 170256
1103 737991 570333
1104 899138 526867
1105 562089 898069
1106 790059 825704
1107 280184 954001
1108 983092 840078
1109 566774 943554
1110 887556 709734
1111 694516 551153
1112 93188 355230
1113 664958 568968
1114 963775 215078
1115 50168 589992
1116 812095 226279
1117 133467 370387
1118 819839 790683
1119 700720 401825
1120 530154 237576
1121 168315 164574
1122 19406 485914
1123 856699 967059
1124 17411 60489
1125 787250 397597
1126 263025 189947
1127 371362 34211
1128 761794 574842
1129 449870 688696
1130 350417 947308
1131 869612 497312
1132 996712 324512
1133 729753 625484
1134 806298 794269
1135 97301 16032
1136 822667 506284
1137 156303 489959
1138 446709 504569
1139 179790 58976
1140 593436 90115
1141 119098 275078
1142 864661 102860
1143 720379 314782
1144 229566 808954
1145 640633 194354
1146 984385 906451
1147 304524 514121
1148 414909 662030
1149 8270 529447
1150 39205 352130
1151 787268 958434
1152 467053 697135
1153 278498 987946
1154 325286 268501
1155 313831 447011
1156 345276 640915
1157 48063 156062
1158 962922 963161
1159 192788 482591
1160 909602 67723
1161 617213 276850
1162 755064 745170
1163 228764 864233
1164 39231 459168
1165 211460 458762
1166 179283 911289
1167 745144 146424
1168 744839 478183
1169 227014 708598
1170 139937 757218
1171 121993 746975
1172 899352 572909
1173 577140 707534
1174 151386 559353
1175 285357 550676
1176 622798 549102
1177 317986 580442
1178 172847 875979
1179 213289 320628
1180 952295 800315
1181 760931 616687
1182 128563 556613
1183 325018 598301
1184 741562 475153
1185 578921 255388
1186 811774 633435
1187 197233 358926
1188 444924 68111
1189 958864 174621
1190 572323 352784
1191 650943 718603
1192 506872 411145
1193 697830 562595
1194 782725 188531
1195 821406 146538
1196 736620 751861
1197 129677 884549
1198 945443 488558
1199 549741 540425
1200 127985 509029
1201 748669 976765
1202 987030 932572
1203 899732 904195
1204 42230 906840
1205 882612 610251
1206 93254 24757
1207 499222 805757
1208 63694 9070
1209 487009 244014
1210 611169 836459
1211 48559 201137
1212 347168 69891
1213 506718 835009
1214 646404 264661
1215 459194 540729
1216 25880 52024
1217 292009 962071
1218 259530 626186
1219 219381 701114
1220 347450 688760
1221 75586 538710
1222 577362 984946
1223 97978 535483
1224 404692 59786
1225 377830 110434
1226 842153 285080
1227 81231 587255
1228 483148 696645
1229 684755 24958
1230 673041 273546
1231 684814 341115
1232 559389 193851
1233 534665 554543
1234 447395 514275
1235 707779 528211
1236 604377 427223
1237 866184 500734
1238 994305 763479
1239 119905 759913
1240 586742 810073
1241 150254 621446
1242 591619 185648
1243 855915 684764
1244 492634 98157
1245 427405 704987
1246 178790 705105
1247 993335 819239
1248 84382 648362
1249 672526 76627
1250 990641 334499
1251 415578 644779
1252 473043 567756
1253 960180 220707
1254 693461 895583
1255 731339 798383
1256 204011 586597
1257 597552 968054
1258 94755 979708
1259 347780 740150
1260 109469 886302
1261 882016 370768
1262 523634 373279
1263 112633 959598
1264 954179 298427
1265 540554 773597
1266 70017 224321
1267 28573 788358
1268 606062 563656
1269 23893 623565
1270 90892 876207
1271 336984 752483
1272 988688 541102
1273 822970 808022
1274 181471 620055
1275 706605 124784
1276 694183 374099
1277 536072 217043
1278 264481 191256
1279 616206 684685
1280 961694 396523
1281 196814 69895
1282 804690 855132
1283 461399 451527
1284 597909 56450
1285 145083 286733
1286 798236 727725
1287 33544 984685
1288 192119 507917
1289 834695 306591
1290 108798 921377
1291 343392 269494
1292 336732 144030
1293 576782 122
1294 419630 173440
1295 326958 154534
1296 965747 967443
1297 478481 804159
1298 77970 609258
1299 718939 4003
1300 348983 315053
1301 973326 874880
1302 511256 785228
1303 781392 424689
1304 37366 392041
1305 640260 264359
1306 771625 442765
1307 357726 807159
1308 430776 229371
1309 591414 531
1310 777161 852141
1311 732587 593905
1312 707466 830030
1313 313406 923356
1314 216468 248315
1315 203293 767430
1316 470550 442653
1317 666330 844438
1318 149751 900626
1319 911767 529572
1320 713254 347411
1321 408708 419099
1322 396279 474817
1323 421947 371841
1324 259976 648451
1325 490753 154614
1326 392789 470623
1327 800710 581552
1328 844502 530672
1329 208549 666817
1330 635477 880765
1331 512921 507794
1332 678787 292849
1333 855651 352525
1334 46485 882909
1335 385212 58934
1336 969395 942962
1337 509777 622547
1338 459352 261964
1339 793195 125914
1340 985527 782733
1341 714806 549651
1342 612838 322527
1343 254509 962756
1344 763866 373481
1345 988787 797226
1346 854140 28858
1347 144360 654320
1348 378015 465745
1349 909322 773731
1350 15465 159982
1351 578645 134061
1352 662923 708019
1353 439807 843138
1354 857784 478182
1355 327043 881746
1356 766806 835068
1357 678030 838251
1358 26624 484063
1359 363434 24467
1360 914833 389905
1361 443203 272754
1362 867444 225229
1363 480288 835333
1364 280038 801757
1365 182739 616213
1366 404179 315013
1367 798871 103781
1368 15927 879738
1369 871620 774587
1370 295903 770446
1371 599322 739399
1372 458647 598882
1373 354022 581386
1374 161413 919130
1375 174031 542681
1376 185706 107564
1377 590992 399251
1378 755803 263632
1379 335190 559142
1380 692092 560069
1381 971517 83197
1382 182278 556596
1383 282423 27406
1384 376420 79148
1385 484228 445237
1386 322649 444304
1387 850436 372152
1388 204198 335639
1389 681761 468192
1390 469426 216656
1391 500143 720896
1392 109665 622670
1393 644695 320982
1394 132734 242274
1395 821357 988520
1396 503317 792472
1397 290359 850665
1398 447796 155018
1399 888963 86495
1400 394683 18383
