NAME : portgen-600-610
COMMENT : portgen N=600, seed=610
TYPE : TSP
DIMENSION : 600
EDGE_WEIGHT_TYPE : EUC_2D
NODE_COORD_SECTION
1 187045 99520
2 389047 781681
3 781513 734178
4 57960 228742
5 458676 755128
6 912894 730769
7 507483 273337
8 154205 911870
9 319535 257799
10 250918 535501
11 34171 681054
12 7855 913083
13 582298 166791
14 634472 520323
15 803212 526222
16 748543 809929
17 179561 885982
18 808163 474146
19 272828 300435
20 190876 256135
21 76612 284987
22 996861 614374
23 973909 933637
24 11240 425974
25 820393 2459
26 218751 888713
27 35828 707318
28 81555 377115
29 919958 503064
30 973517 307367
31 461349 757524
32 37865 202540
33 678515 627906
34 733907 893109
35 299428 220567
36 900630 893561
37 437406 248459
38 316750 145458
39 645226 300536
40 831528 205183
41 246833 131408
42 546806 495844
43 64872 991018
44 772064 977021
45 207466 180256
46 740238 379718
47 1006 970309
48 355504 183051
49 847580 748402
50 297623 828450
51 288411 710703
52 594445 615210
53 755625 87343
54 341907 539983
55 642446 90536
56 605051 942937
57 295597 793260
58 567129 81631
59 756517 67556
60 847035 495464
61 780326 985505
62 595486 470978
63 932156 189926
64 299115 822195
65 492833 229407
66 803551 105242
67 658090 740991
68 600132 303896
69 835810 753545
70 928714 983240
71 234501 704507
72 129985 712002
73 399930 754732
74 784231 530028
75 38152 165577
76 883936 25385
77 255568 68216
78 24899 183168
79 52613 853454
80 15078 451729
81 251532 588361
82 611269 659205
83 856035 900543
84 812951 583595
85 393329 812397
86 297399 226488
87 29403 681457
88 611528 754940
89 729937 527270
90 446078 748987
91 137313 445661
92 807116 41104
93 977874 215189
94 493973 998884
95 884956 699588
96 490944 252215
97 360215 116317
98 685841 8012
99 675104 448527
100 100474 644989
101 24795 256961
102 83950 289165
103 28264 438274
104 218268 214464
105 90341 809709
106 689195 53728
107 968497 315489
108 960784 999317
109 228145 494952
110 973364 848022
111 225439 364424
112 483120 748340
113 787602 40437
114 142538 740238
115 653193 173253
116 536672 515472
117 436928 636368
118 59791 83584
119 477164 491627
120 80319 978557
121 987044 999020
122 25520 36933
123 474149 126520
124 769094 611875
125 328714 645403
126 865474 934865
127 795334 927221
128 108316 509322
129 820032 447581
130 229373 944679
131 961110 726641
132 134144 111784
133 822665 690175
134 28208 931563
135 841339 834264
136 230222 616269
137 166237 327961
138 982548 290573
139 569089 555899
140 640023 278280
141 220405 694956
142 510864 708513
143 212142 810031
144 381328 325144
145 813703 369616
146 55376 545600
147 650287 246054
148 748334 370774
149 832783 697558
150 54385 183576
151 557430 213195
152 971852 50434
153 424997 170517
154 424000 86820
155 715078 298285
156 127994 494888
157 633877 859757
158 889303 415510
159 76353 888089
160 363449 451890
161 857391 330649
162 877178 657763
163 276834 17027
164 644417 115802
165 902963 812031
166 866572 482269
167 840820 341738
168 150286 725516
169 61079 651107
170 819210 796632
171 733677 493238
172 961694 361813
173 512224 724726
174 668422 992523
175 969220 731307
176 726357 716980
177 794595 242353
178 317003 75160
179 372375 630114
180 900148 699481
181 109438 772892
182 267610 918446
183 564607 634755
184 533193 272064
185 347532 164576
186 747087 83830
187 918869 632142
188 725533 140410
189 536054 634824
190 340760 201673
191 644652 14303
192 215653 203482
193 702593 93679
194 214659 922374
195 777130 515530
196 192323 789014
197 303575 654634
198 49544 649847
199 574368 329552
200 636279 371814
201 188672 33597
202 651763 767547
203 86655 712053
204 501327 591112
205 539760 223323
206 860501 450001
207 852983 384618
208 507157 320423
209 469317 612976
210 868901 914759
211 60386 203640
212 635784 975717
213 975903 713490
214 432066 151322
215 545487 13479
216 639083 944941
217 95063 117436
218 341171 194651
219 161320 831035
220 696325 382169
221 624362 601682
222 53472 862371
223 455143 988682
224 153230 327857
225 678730 336054
226 217781 423046
227 784064 622800
228 732730 243731
229 938533 534327
230 426375 892004
231 550733 670291
232 894787 157591
233 598960 258819
234 396528 990611
235 929475 518474
236 167193 141459
237 934245 532847
238 696978 637339
239 419576 12984
240 242987 732172
241 774956 897739
242 724946 653483
243 462746 968791
244 50153 937472
245 518475 82352
246 798122 170708
247 901560 177850
248 214975 482903
249 667436 520625
250 165392 817803
251 569106 140245
252 84870 946558
253 561098 320041
254 698100 130581
255 160053 763938
256 193578 1061
257 15851 344023
258 93881 380025
259 768731 716937
260 942615 116056
261 591382 875903
262 825219 111671
263 949367 26948
264 56588 987687
265 971749 376936
266 939239 288994
267 852930 479048
268 538594 773894
269 881887 380922
270 559602 82721
271 200059 333216
272 994857 402418
273 490970 922218
274 345489 789888
275 228483 188027
276 426315 679749
277 548875 788455
278 878564 280112
279 287315 605821
280 407963 787203
281 438153 317178
282 570979 77332
283 563878 860361
284 6204 613432
285 853053 171662
286 34535 978843
287 488454 754587
288 689741 911633
289 327027 36763
290 233107 669255
291 739633 450766
292 579724 184546
293 938783 622061
294 718015 775598
295 915169 678232
296 767690 268455
297 527869 387939
298 48185 221216
299 844762 240269
300 712676 579337
301 595191 308725
302 556781 559227
303 448394 975548
304 100024 364329
305 849672 256503
306 562096 511716
307 690652 729731
308 19512 169698
309 789308 183039
310 29146 342662
311 15599 765934
312 900755 273715
313 576471 725810
314 422062 929226
315 306193 714193
316 811608 962698
317 187090 976603
318 107158 227916
319 760114 849992
320 165033 769084
321 832752 534975
322 746451 572507
323 662632 1756
324 367699 254153
325 811467 322375
326 799154 915535
327 934076 998483
328 767729 632492
329 121635 580177
330 452068 220478
331 215433 250032
332 199295 80588
333 423750 27120
334 765265 118144
335 67098 17756
336 801999 535155
337 371571 706771
338 543508 100063
339 831858 902272
340 505986 943978
341 604175 841885
342 477157 85714
343 498759 561575
344 763402 106502
345 552852 80038
346 462651 641969
347 782894 147277
348 967085 297597
349 163403 39679
350 28999 562569
351 169897 465426
352 748166 867489
353 718200 957268
354 438378 848361
355 499723 206153
356 869090 15133
357 27324 372030
358 757827 573464
359 467137 52018
360 113503 126153
361 863716 725585
362 89145 504529
363 847858 336572
364 786988 504082
365 988571 586239
366 661685 983497
367 402548 299833
368 74888 589042
369 814560 105127
370 327887 925295
371 94438 711384
372 992998 426699
373 216321 737065
374 552824 278364
375 299418 630512
376 510608 659321
377 51108 442759
378 900883 186400
379 62878 448332
380 792600 129158
381 142708 333251
382 520473 574428
383 111715 157705
384 22134 600624
385 155708 20761
386 20640 188773
387 752599 482990
388 615544 204395
389 674477 646385
390 603645 661458
391 273693 338655
392 711481 859413
393 443531 328434
394 463023 828119
395 188118 917182
396 566907 213936
397 949418 307126
398 904655 905665
399 958785 510008
400 811154 11926
401 62588 906438
402 674719 637960
403 356818 171953
404 947839 191694
405 999228 572449
406 723376 234758
407 260214 875418
408 562250 928771
409 383832 213347
410 669773 206050
411 198920 512126
412 789470 143782
413 958173 114201
414 514053 114638
415 126171 443590
416 256555 482782
417 647156 31196
418 938081 38935
419 78440 836063
420 297163 514759
421 944601 249676
422 158346 982068
423 718262 54781
424 424466 805635
425 348952 790453
426 391611 844146
427 383836 367563
428 755370 579805
429 259281 643522
430 699878 317883
431 93512 111775
432 894531 484469
433 627847 473700
434 76412 278146
435 157155 507468
436 504305 578197
437 864394 879319
438 814438 354773
439 128289 421906
440 388412 378367
441 854920 870531
442 414760 808288
443 350078 144779
444 588251 162687
445 403349 464381
446 962522 800294
447 678907 789694
448 10453 366404
449 385281 279026
450 167629 363488
451 926491 2559
452 417222 970585
453 935533 521079
454 429386 575548
455 17485 610590
456 991554 96593
457 240173 235496
458 355361 293217
459 432867 104836
460 474016 261443
461 88418 797386
462 110516 793667
463 580977 501746
464 160974 893809
465 943786 293359
466 925387 552741
467 404420 777822
468 386813 758326
469 630357 179263
470 452926 56860
471 711912 483414
472 688671 141905
473 375963 165136
474 689778 885240
475 208716 508707
476 205429 491472
477 335239 874270
478 438100 373749
479 598138 639399
480 583771 177207
481 890722 250122
482 122621 960624
483 898678 508139
484 407922 98267
485 859533 190225
486 603439 547627
487 896120 965309
488 56013 596945
489 462146 236246
490 355566 207227
491 903607 521575
492 310037 766579
493 402636 675264
494 430120 443796
495 879144 878673
496 350403 532090
497 319729 262701
498 453421 164284
499 587294 723362
500 85892 779017
501 702989 453531
502 529674 1489
503 605099 683854
504 181435 568659
505 471633 762836
506 943629 154342
507 760255 705097
508 826803 358631
509 930393 859919
510 507203 734393
511 920845 684560
512 12375 80516
513 487235 149907
514 17952 894630
515 360209 372159
516 415510 893486
517 764612 592730
518 263598 749264
519 761319 604939
520 939776 44005
521 744871 570201
522 936592 144751
523 957828 665843
524 519715 239212
525 775466 303513
526 146332 692663
527 363153 713732
528 363506 809502
529 688919 936944
530 737890 855835
531 922534 576496
532 628883 427628
533 17965 373427
534 217750 615504
535 747269 160959
536 838916 691180
537 84452 203690
538 588061 228181
539 321406 298643
540 717009 677732
541 460988 81008
542 156740 504374
543 449625 839014
544 264603 336984
545 574764 890170
546 531514 145815
547 857670 778817
548 205088 53690
549 485748 732901
550 556689 729647
551 344436 221072
552 522203 97733
553 842525 65323
554 535923 858778
555 264107 524492
556 544899 351934
557 362179 847719
558 324321 776719
559 718826 850066
560 222539 964274
561 887679 484848
562 58814 17622
563 816522 617844
564 168977 986719
565 361165 522737
566 692258 462628
567 34535 192516
568 132833 109053
569 718828 309020
570 180053 672905
571 120187 414536
572 114445 610490
573 2491 46665
574 87000 840047
575 962294 587244
576 884712 499028
577 371736 33952
578 37388 881808
579 186536 329686
580 964899 733471
581 346494 226902
582 678725 591201
583 404305 130362
584 237489 751689
585 845228 277655
586 689718 878778
587 887771 635295
588 79562 388651
589 113112 24862
590 980233 934713
591 431308 839291
592 21819 627694
593 176242 465356
594 783902 443333
595 788211 2471
596 871564 967139
597 463791 902397
598 983186 241409
599 526765 479149
600 530927 613840
