NAME : portgen-300-301
COMMENT : portgen N=300, seed=301
TYPE : TSP
DIMENSION : 300
EDGE_WEIGHT_TYPE : EUC_2D
NODE_COORD_SECTION
1 116438 712850
2 131960 445621
3 865211 753255
4 562561 37700
5 687547 865592
6 76059 616628
7 672341 448360
8 234626 414501
9 546604 739779
10 476656 828846
11 284102 755526
12 781396 784413
13 792329 263747
14 843866 26075
15 521785 580351
16 286099 269643
17 816726 775586
18 39945 437759
19 383944 278764
20 386210 986150
21 415600 743110
22 524234 874286
23 75551 638828
24 909860 409218
25 244320 377696
26 345110 199007
27 458224 556412
28 763721 846795
29 896124 356373
30 405675 427451
31 369311 283796
32 651489 701396
33 449991 332948
34 92394 798055
35 372808 595798
36 504641 137386
37 495459 98959
38 483736 85095
39 297302 224984
40 20691 945534
41 367623 487493
42 620399 94334
43 211040 2302
44 618153 115329
45 325595 706996
46 345365 585889
47 905956 790412
48 481509 278214
49 247651 425275
50 390550 990456
51 341526 684876
52 388526 298785
53 10073 857616
54 578607 363889
55 345371 761418
56 228641 780794
57 30778 698678
58 82086 783421
59 377839 861077
60 219887 171777
61 85296 667118
62 407504 382351
63 254272 819765
64 748859 196673
65 88885 626119
66 506487 933412
67 879612 259273
68 716893 586828
69 456715 921721
70 12248 427619
71 624462 757076
72 895442 153817
73 621700 678246
74 178385 523604
75 536140 661744
76 529354 50977
77 336389 764430
78 483968 408113
79 805263 129253
80 581892 423245
81 400901 656886
82 351641 917752
83 136956 471564
84 885352 876960
85 76978 403839
86 605035 854235
87 324936 558142
88 642422 34319
89 330729 643074
90 898383 846158
91 14501 619605
92 614781 665640
93 225218 849600
94 581770 961860
95 122316 245329
96 701475 579755
97 844742 608408
98 822583 770227
99 432140 337299
100 511394 587380
101 347517 535310
102 625221 689981
103 647242 909749
104 436196 670749
105 539211 634367
106 826342 843403
107 6936 336563
108 721769 821145
109 812144 743233
110 95169 366729
111 39424 548053
112 365565 489598
113 56322 69725
114 229014 634954
115 910900 732673
116 598123 659979
117 103862 264015
118 19815 171097
119 612668 278218
120 943870 404072
121 37456 838537
122 866691 755587
123 205904 153422
124 214189 355144
125 552086 752858
126 541213 797185
127 426399 778721
128 989257 687537
129 431448 361205
130 670166 476145
131 297080 157977
132 726878 135138
133 596911 987805
134 976712 251349
135 130658 568346
136 606956 457000
137 191147 342310
138 825516 242239
139 121653 586844
140 500340 368784
141 638276 867808
142 964788 434755
143 435593 440145
144 933101 968723
145 667103 32009
146 194385 361319
147 147559 375524
148 797116 580456
149 647390 524380
150 930071 963665
151 31769 627345
152 854803 183301
153 114581 673405
154 832396 991644
155 343127 549112
156 754436 462724
157 694101 638156
158 281759 935760
159 10418 351354
160 338022 16455
161 340415 452332
162 321278 166992
163 536577 979610
164 602196 7845
165 227728 152111
166 409842 130009
167 243716 951228
168 614348 175551
169 173706 326632
170 152995 499832
171 429727 581747
172 630701 650648
173 691594 742052
174 40041 980567
175 838946 817505
176 978259 639544
177 296651 777960
178 553823 901759
179 383629 903575
180 568953 939030
181 499698 505764
182 838648 843294
183 119384 172689
184 832023 43453
185 946561 539706
186 895719 29850
187 512407 520516
188 38195 700871
189 155680 543317
190 613169 634817
191 595981 698621
192 438892 288698
193 652412 904077
194 291360 400421
195 831843 441659
196 343527 130252
197 380070 613288
198 604113 399876
199 69339 110184
200 612453 990723
201 586372 496723
202 367398 204129
203 221524 279638
204 200652 7952
205 125547 649745
206 610398 983207
207 71731 127294
208 595502 369445
209 125694 225360
210 239181 719508
211 103349 721839
212 430999 955838
213 953334 398995
214 662452 308278
215 298992 758556
216 500218 147728
217 417770 963423
218 24419 612774
219 626889 311598
220 693196 282966
221 778383 66000
222 161240 112334
223 338309 621688
224 699253 424231
225 659953 205117
226 737423 761061
227 811192 853896
228 490504 438644
229 78953 403974
230 179709 608749
231 652749 889053
232 314756 842581
233 871361 544398
234 821966 959396
235 788984 973813
236 670192 701462
237 565406 34063
238 982085 342287
239 910647 577102
240 465334 514690
241 320042 258478
242 128568 690242
243 105807 611165
244 832971 575188
245 92061 480020
246 790807 667492
247 522613 719383
248 612773 76921
249 500593 127177
250 130249 996021
251 711041 122150
252 958897 145262
253 885075 478944
254 632493 120949
255 748089 879339
256 605672 503764
257 311912 699689
258 817941 985256
259 366440 595372
260 229807 794440
261 43804 694789
262 829147 792962
263 262771 548041
264 742564 420143
265 148988 503140
266 709794 789697
267 829013 585994
268 909018 816277
269 946565 428878
270 872301 120550
271 244724 237599
272 345380 297621
273 436215 96018
274 838344 729651
275 456611 64731
276 334356 80449
277 978189 627109
278 286227 921343
279 293137 372903
280 236244 68797
281 532379 203614
282 248647 627538
283 634614 368072
284 158384 14291
285 263473 721922
286 146911 636789
287 138760 165076
288 460083 963355
289 716599 202038
290 506735 341427
291 254904 369661
292 183899 80191
293 970761 506179
294 541050 201474
295 951379 540945
296 657893 932274
297 165405 150378
298 973638 607935
299 98838 180304
300 837537 472860
