NAME : portgen-600-603
COMMENT : portgen N=600, seed=603
TYPE : TSP
DIMENSION : 600
EDGE_WEIGHT_TYPE : EUC_2D
NODE_COORD_SECTION
1 505834 825388
2 664776 725524
3 165287 165030
4 538646 810174
5 75511 980931
6 75166 129478
7 514454 261121
8 346965 314842
9 214647 967747
10 984187 76127
11 243716 721576
12 274569 952239
13 810357 550865
14 733067 250227
15 308163 482141
16 294701 593806
17 278138 132672
18 842540 897269
19 501882 782145
20 36725 528336
21 589146 301837
22 846996 34501
23 380742 486829
24 918328 344688
25 914139 506105
26 648798 630370
27 284879 386748
28 530665 912027
29 547250 532104
30 882983 268017
31 663148 756501
32 773449 547174
33 391785 773328
34 282482 479953
35 880379 860136
36 396514 869958
37 53608 478082
38 427329 613346
39 436697 887821
40 421574 898330
41 3615 200963
42 367243 40146
43 818992 538199
44 820357 730963
45 740887 69212
46 614787 21929
47 901766 176589
48 131822 719187
49 248229 368913
50 607172 767395
51 50132 30506
52 923114 15809
53 502490 447834
54 263126 244732
55 567755 992465
56 91669 816286
57 791216 813771
58 653229 641219
59 854735 596859
60 415352 672597
61 525098 913568
62 872781 112983
63 810003 366007
64 946844 37798
65 975592 979494
66 350219 191964
67 320066 429108
68 806660 187328
69 409746 553472
70 386917 177773
71 683464 223498
72 315610 68289
73 544113 701219
74 149148 788782
75 366586 765814
76 772343 210430
77 393321 627677
78 417176 858167
79 710440 494006
80 209148 315161
81 38088 709654
82 857815 389981
83 309001 868171
84 500676 722927
85 269658 952009
86 492071 65952
87 230273 649538
88 900253 314668
89 520246 245103
90 695807 951835
91 655566 452838
92 828649 660430
93 941406 640564
94 334149 930084
95 120107 938489
96 686652 686819
97 283813 434908
98 685702 617512
99 993224 666072
100 168035 229445
101 180973 904044
102 92975 414750
103 110247 319505
104 381781 732891
105 686270 776611
106 524017 780355
107 373898 270659
108 628509 351268
109 425841 422906
110 704279 691488
111 874946 834603
112 554891 40213
113 771036 588027
114 972976 815523
115 539290 580748
116 932886 787354
117 558833 919195
118 427818 875211
119 78939 557990
120 31920 590138
121 214723 911242
122 225805 428618
123 63542 852048
124 131928 243600
125 663872 97675
126 644536 177701
127 126782 587287
128 296558 393618
129 345210 173780
130 986932 235036
131 240566 823791
132 700970 96131
133 561887 612775
134 554549 945280
135 207117 776460
136 219339 182241
137 759034 606603
138 46952 697245
139 707821 967603
140 743655 377417
141 242816 799196
142 828591 304253
143 340181 109095
144 86384 462701
145 357308 815042
146 320661 133658
147 350872 255460
148 370798 32482
149 152208 619202
150 381666 366296
151 144227 164325
152 499944 286454
153 854859 845339
154 349109 822528
155 247105 187462
156 307233 882509
157 816471 171889
158 914375 106907
159 472918 445510
160 725333 529404
161 460566 935347
162 563614 840820
163 632232 55014
164 682296 472580
165 751744 201612
166 348135 885292
167 720497 556192
168 70183 360307
169 982724 656702
170 389878 233274
171 636177 640874
172 737368 827903
173 354476 385313
174 570044 510052
175 623227 315784
176 350186 679627
177 867457 180053
178 18161 258935
179 443827 943752
180 216270 494551
181 862615 692407
182 432649 13831
183 551285 666359
184 145140 988568
185 817413 529061
186 536862 962866
187 822282 409549
188 179218 780938
189 67890 383560
190 822659 373297
191 611187 738543
192 256309 257192
193 338996 655727
194 452642 706666
195 4907 403824
196 215166 994155
197 839289 860817
198 696411 673311
199 818591 327819
200 648685 573537
201 317423 186484
202 687392 249929
203 704597 611642
204 423318 610264
205 841056 362433
206 806292 737161
207 938844 812446
208 279385 868459
209 853118 571832
210 317419 877973
211 847767 817321
212 339883 243875
213 211638 350378
214 275473 572353
215 704952 567575
216 357620 457625
217 542503 460225
218 567005 874026
219 799698 443863
220 977807 470537
221 802609 880809
222 389247 126933
223 556056 397844
224 654272 595413
225 649178 346033
226 397837 246238
227 622867 81109
228 215916 859797
229 643980 227167
230 682923 830571
231 811944 979454
232 632457 370519
233 559824 925482
234 347913 811911
235 256389 881540
236 214187 257705
237 922654 971386
238 480136 601529
239 194454 258773
240 27959 351840
241 706398 48306
242 889429 874381
243 755631 378165
244 825168 171983
245 900401 641522
246 526112 987787
247 187473 96267
248 256349 544904
249 958155 417860
250 646797 954526
251 203390 395499
252 567453 297337
253 639634 349531
254 356808 748486
255 325478 837750
256 34628 471996
257 326765 41401
258 304458 824156
259 791980 536189
260 114169 14920
261 967326 930053
262 165114 301862
263 678150 818688
264 690251 625316
265 331751 130604
266 244720 445968
267 933294 190209
268 317212 234402
269 721540 848028
270 569922 931474
271 586185 288978
272 57814 885481
273 674195 596059
274 822673 885611
275 418117 437661
276 854652 332839
277 86109 516192
278 709805 757421
279 462204 377244
280 980125 405232
281 627990 508780
282 178563 394003
283 251565 745649
284 414182 441283
285 367205 708399
286 1482 906369
287 118072 676508
288 160267 634487
289 843943 648921
290 592056 920728
291 356483 313007
292 645190 926518
293 502614 735940
294 267404 539291
295 938643 571562
296 820219 280256
297 480823 861522
298 929991 679815
299 170906 381305
300 725214 39708
301 752115 173751
302 293554 497388
303 81177 541645
304 687648 159590
305 13578 973865
306 490016 922912
307 438600 408562
308 585013 347733
309 27956 317041
310 464011 571750
311 574743 32876
312 716069 327496
313 956284 827731
314 612815 620684
315 595330 618621
316 946839 684353
317 635343 618191
318 430711 433570
319 874406 236627
320 341505 154880
321 707983 950362
322 75279 366893
323 996819 787343
324 564187 153326
325 905237 102260
326 66999 550222
327 785975 106592
328 92869 67762
329 538408 675362
330 66676 647606
331 667239 451020
332 818085 858697
333 265881 539653
334 847633 71707
335 411743 797669
336 783546 874630
337 411804 361751
338 504750 24521
339 246901 609477
340 234627 888522
341 289323 937452
342 554007 947723
343 951382 495818
344 866268 776646
345 352310 891057
346 585937 802699
347 824884 543835
348 371334 833353
349 538558 713528
350 862143 972297
351 540442 954709
352 918698 16715
353 812937 129547
354 996214 838252
355 155209 597050
356 201494 761762
357 323052 175618
358 61669 864540
359 626136 274249
360 487363 432527
361 1094 134105
362 209563 439445
363 257227 828836
364 955931 395088
365 548813 375202
366 28306 408649
367 454267 637577
368 687027 527560
369 614400 378388
370 886053 86842
371 869682 592018
372 289282 919782
373 889962 451832
374 593135 385438
375 286607 542497
376 877422 143470
377 164714 486940
378 943991 131792
379 500442 281121
380 329687 285376
381 515147 617826
382 952198 68367
383 727368 609475
384 472479 403269
385 285655 609836
386 271404 240698
387 987641 944866
388 555105 857624
389 969390 722622
390 495454 125434
391 328394 674809
392 65401 263436
393 860055 410480
394 456451 385899
395 910208 77552
396 55081 211130
397 92732 276216
398 815438 628983
399 604377 344416
400 364677 32338
401 482442 870512
402 889983 161172
403 214103 202612
404 78069 901278
405 626885 533511
406 675341 114542
407 370913 252135
408 230295 304017
409 525093 675981
410 252929 98385
411 5098 128063
412 38592 253317
413 127394 400891
414 350714 826468
415 730763 352492
416 779555 68112
417 95737 961943
418 450093 213851
419 303896 813266
420 33140 556038
421 885387 780469
422 132970 811823
423 72454 927017
424 172537 839415
425 148822 414546
426 278268 777908
427 613653 12184
428 252782 414329
429 774775 928040
430 711079 251
431 898716 264803
432 868137 70847
433 648124 894871
434 981571 559089
435 179680 303278
436 131480 685678
437 527158 838382
438 820116 227189
439 514410 26408
440 534 713064
441 626115 422674
442 115388 730511
443 453776 514752
444 199975 24889
445 313819 555221
446 232279 744806
447 633585 729862
448 424557 199708
449 253310 294587
450 991707 845264
451 412607 146128
452 838880 435757
453 788430 855593
454 662519 883141
455 558408 738030
456 214354 749885
457 614220 155858
458 767971 153910
459 631217 138274
460 646289 448415
461 641560 686984
462 567382 334416
463 890670 985351
464 846797 91401
465 49951 964522
466 564669 631268
467 467999 262504
468 498710 876230
469 808454 959530
470 962540 299865
471 883534 61700
472 378600 865404
473 913660 545295
474 177423 299168
475 839192 439206
476 352911 161909
477 244636 27184
478 280594 781338
479 678128 576375
480 937046 912200
481 47139 702989
482 920601 258542
483 854495 152653
484 371285 748816
485 242198 222675
486 976486 332049
487 299082 207082
488 95504 479651
489 442347 540198
490 53821 109332
491 307222 270422
492 154354 137751
493 917382 861680
494 710667 209457
495 408009 346056
496 504945 59637
497 717331 739864
498 323378 551485
499 762618 171517
500 769900 434008
501 102947 637224
502 245346 729859
503 131984 82488
504 7554 106884
505 109801 418913
506 70670 468671
507 168366 590990
508 407255 987502
509 985657 180736
510 935163 303010
511 390035 199767
512 978916 808189
513 119727 339262
514 86702 569222
515 75098 13015
516 472097 335463
517 430397 634907
518 38661 838550
519 102056 563364
520 730495 929880
521 876022 529931
522 274293 104998
523 956020 305177
524 80721 909141
525 620136 984116
526 464782 193396
527 96418 756884
528 961910 767484
529 206827 610438
530 691198 293433
531 980432 444190
532 376388 179920
533 542891 540739
534 194378 63367
535 634969 102077
536 906781 76515
537 560599 951047
538 838227 196639
539 103348 222031
540 846279 352243
541 132434 476263
542 878024 781665
543 32582 27907
544 959074 250476
545 92016 497922
546 644172 38688
547 928394 628417
548 23099 799507
549 969331 323246
550 266771 759381
551 201828 858689
552 62862 267893
553 851682 988519
554 315372 314753
555 724302 934003
556 808410 956351
557 518422 193276
558 649260 941744
559 515795 747971
560 156821 743383
561 571408 871132
562 796596 875588
563 900249 48091
564 13653 292706
565 99365 849707
566 881266 788595
567 497729 912275
568 543832 176082
569 957841 684748
570 132404 90838
571 512111 211103
572 93655 348632
573 926513 773040
574 242092 52806
575 728168 975008
576 785854 676625
577 223881 417063
578 878114 413233
579 360960 150587
580 724060 675599
581 30678 630623
582 182348 633463
583 421892 597307
584 862696 169789
585 266762 876219
586 699651 462989
587 19802 181812
588 957529 894783
589 647250 379532
590 997473 487015
591 687131 863066
592 568645 423765
593 819029 250643
594 606247 864265
595 490383 946525
596 313386 788052
597 417986 256185
598 391186 49121
599 191300 911842
600 391103 31730
