NAME : portgen-200-206
COMMENT : portgen N=200, seed=206
TYPE : TSP
DIMENSION : 200
EDGE_WEIGHT_TYPE : EUC_2D
NODE_COORD_SECTION
1 871430 849635
2 159716 254923
3 644988 600545
4 229024 500001
5 58883 501495
6 278326 170534
7 195517 139709
8 136374 740553
9 551690 946213
10 856737 880198
11 127932 448325
12 401093 887249
13 458843 47601
14 610509 74769
15 88984 982106
16 412532 336545
17 297407 123523
18 363632 323013
19 492540 673396
20 294161 537449
21 228557 828941
22 61776 433159
23 168289 289291
24 648918 591769
25 659443 784323
26 752890 550068
27 552488 205809
28 287364 534884
29 552227 36192
30 891290 321975
31 108004 555627
32 205840 521433
33 272937 449385
34 108757 762358
35 971420 847082
36 91634 959921
37 286770 72414
38 127308 577864
39 895837 195283
40 599884 923959
41 495374 574316
42 183478 767008
43 874101 856904
44 130705 775974
45 850586 914247
46 214255 730182
47 701976 447078
48 445814 268636
49 542171 989362
50 305851 590425
51 393454 453634
52 991884 735483
53 288949 178574
54 366590 785479
55 331708 430460
56 404178 776252
57 185606 977043
58 107719 377822
59 853651 758761
60 75618 4301
61 907213 119394
62 456507 380994
63 453628 638000
64 968036 551286
65 783464 948733
66 211273 110358
67 863575 169424
68 519781 719121
69 388709 206435
70 659289 496279
71 3253 371944
72 700356 846285
73 7033 94860
74 273674 320982
75 993450 807814
76 300600 990884
77 205897 357117
78 379151 283096
79 590059 822460
80 215702 569827
81 789865 160155
82 126190 835428
83 427207 32234
84 75896 339321
85 970009 12858
86 104147 532668
87 765310 267803
88 703700 916328
89 913496 99389
90 1842 170531
91 47941 145575
92 335584 213636
93 158868 51118
94 984168 28146
95 742217 487546
96 643225 49387
97 236425 646430
98 392132 470584
99 606633 432552
100 142584 90704
101 181363 174285
102 319139 822919
103 759873 155024
104 655300 992261
105 198249 328033
106 298928 561912
107 80243 728155
108 926602 740478
109 923729 479759
110 443296 956622
111 425600 643343
112 196737 879305
113 831495 929861
114 213529 942391
115 507929 548676
116 261028 921235
117 901139 673809
118 871602 486028
119 65332 607429
120 287033 418389
121 127388 504408
122 584850 785594
123 61946 999881
124 852649 357120
125 814935 462270
126 257055 664241
127 924623 593907
128 829676 260128
129 273145 645329
130 951316 273844
131 89692 47871
132 705227 779859
133 200644 794520
134 977061 294649
135 666209 926721
136 887828 566609
137 664824 981026
138 699567 761359
139 718720 602830
140 49629 571367
141 656716 568199
142 991075 234085
143 458984 213157
144 216008 121280
145 473165 77082
146 508967 770682
147 941219 360312
148 530560 560779
149 839583 603823
150 86026 300586
151 281161 249818
152 307491 243568
153 805554 688855
154 673165 690538
155 134922 616518
156 44119 151865
157 172164 874233
158 764877 319009
159 106651 344914
160 249298 639864
161 954937 373237
162 208622 365622
163 645559 638010
164 259118 421256
165 175472 10711
166 88193 28182
167 467907 433110
168 527247 504850
169 396034 116841
170 469207 139975
171 106506 871094
172 871981 833300
173 122144 135729
174 562060 575596
175 714752 892550
176 301660 418326
177 428351 75314
178 212392 252979
179 781910 874380
180 716320 300703
181 292821 556323
182 221330 994947
183 510012 173024
184 279884 338863
185 752088 629148
186 756948 531054
187 630161 356748
188 338204 536611
189 944886 133307
190 153230 392580
191 856099 384738
192 704936 874768
193 717890 531870
194 806851 472960
195 923098 354222
196 224966 57170
197 364753 840059
198 383026 575451
199 240932 515233
200 495095 585533
