NAME : portgen-1100-1102
COMMENT : portgen N=1100, seed=1102
TYPE : TSP
DIMENSION : 1100
EDGE_WEIGHT_TYPE : EUC_2D
NODE_COORD_SECTION
1 66457 938488
2 866351 442980
3 522034 451374
4 701119 76614
5 103968 598662
6 507466 135808
7 303244 703399
8 463049 160109
9 977406 72900
10 998287 680078
11 306125 261507
12 261634 875237
13 267297 886201
14 990389 647087
15 455192 624502
16 504279 288
17 679610 547195
18 963385 163149
19 173574 14552
20 25490 695723
21 624244 672052
22 244538 656843
23 93623 480712
24 541592 996342
25 659967 317614
26 706878 617953
27 673955 238859
28 801212 66169
29 258877 319156
30 479595 358885
31 277800 686566
32 51124 408245
33 974417 835413
34 891269 646401
35 609775 982336
36 618516 981063
37 412933 680672
38 973200 688171
39 587551 22775
40 74024 201128
41 627323 671233
42 167492 96307
43 346702 817712
44 949164 271364
45 572777 127971
46 271880 527173
47 404776 43154
48 77206 643180
49 259118 563866
50 683643 405451
51 893160 518817
52 922317 458838
53 690290 35645
54 450461 577648
55 892157 983500
56 117004 987513
57 746378 351623
58 87005 750627
59 281790 7970
60 331039 331237
61 576295 327403
62 962757 204324
63 89175 99699
64 58746 954094
65 990381 937554
66 237710 9903
67 130618 90524
68 84123 639810
69 924854 815868
70 9302 596074
71 535921 941194
72 940325 241540
73 551676 944476
74 564415 200451
75 953978 977507
76 584434 305024
77 573484 746088
78 167740 883256
79 388199 831792
80 374715 50480
81 110790 634592
82 568346 296082
83 447578 175810
84 47187 504838
85 799947 142528
86 186212 81338
87 53992 353531
88 746802 271270
89 753918 216669
90 36583 205918
91 711499 226953
92 579379 939901
93 826763 603118
94 441557 834535
95 642946 908313
96 592622 420015
97 15921 866773
98 409862 454583
99 887202 586793
100 494737 280405
101 190557 347745
102 163868 748059
103 266007 357480
104 725645 633583
105 919324 564622
106 441699 553663
107 188846 466401
108 457857 690775
109 618671 701572
110 886219 992995
111 288608 460393
112 10101 519541
113 951970 838466
114 917470 305932
115 87524 389321
116 545625 120335
117 297345 471960
118 764219 157835
119 38107 112977
120 482043 135988
121 984446 739984
122 948316 649951
123 619704 132228
124 409914 496379
125 914803 571396
126 537113 581269
127 499269 105415
128 734780 70221
129 50400 691907
130 983839 108171
131 319373 612667
132 151539 783335
133 580175 701714
134 605347 538894
135 846696 325629
136 280860 122291
137 786769 314822
138 455882 707339
139 961124 904685
140 784760 881748
141 788065 225562
142 322093 979352
143 69948 932957
144 968796 514009
145 891784 62504
146 552488 499213
147 266280 156414
148 855127 862155
149 953215 633493
150 194069 912365
151 171104 505228
152 711618 33054
153 783330 311550
154 259176 519917
155 35466 801822
156 101425 536390
157 800122 921334
158 555683 820159
159 346387 995125
160 928207 718020
161 748499 971853
162 344825 934330
163 154524 775632
164 410672 753714
165 531492 144331
166 448162 441207
167 869218 982938
168 780322 251675
169 425439 400758
170 423669 249788
171 586570 973670
172 585801 173764
173 314005 580634
174 154387 331949
175 1889 79495
176 451482 199500
177 102001 49737
178 464202 729897
179 636009 728680
180 252732 531655
181 886110 858417
182 96247 785677
183 215252 127754
184 950589 626358
185 607329 975048
186 665772 14437
187 993236 848712
188 266537 548998
189 869852 295087
190 470128 424627
191 139622 681991
192 500982 999836
193 258220 589745
194 344959 83541
195 767685 652567
196 301085 799081
197 793429 448621
198 584016 572132
199 980434 737089
200 907226 765007
201 710782 859300
202 861821 577261
203 939873 769491
204 698518 102164
205 791516 874457
206 384937 552468
207 960995 600164
208 230569 87029
209 64988 647626
210 201660 643120
211 147320 213499
212 719131 842321
213 264265 806471
214 152616 415974
215 908838 497046
216 850480 767688
217 503570 595670
218 39689 587153
219 720996 900818
220 769267 171191
221 524756 697332
222 881880 124565
223 505247 87586
224 79950 951107
225 184355 777545
226 419515 564460
227 828250 410180
228 914527 943093
229 355730 266151
230 537572 352719
231 48494 797699
232 332896 620324
233 349700 687605
234 670588 836430
235 94916 142983
236 7078 113881
237 463271 424115
238 223604 582859
239 385249 308951
240 927794 321172
241 450740 886465
242 878402 556119
243 448552 52780
244 434791 883245
245 245969 352084
246 916565 884566
247 805901 626284
248 164112 410875
249 234061 457764
250 900960 922387
251 702336 770998
252 23312 863183
253 326804 533050
254 686058 272131
255 961627 861747
256 508302 472484
257 20181 185487
258 436154 163927
259 991798 706612
260 456211 938825
261 453543 212823
262 935469 172528
263 440646 236080
264 90568 600087
265 97310 690554
266 896801 113118
267 347323 66047
268 812869 978255
269 866284 692914
270 119964 284624
271 60981 728179
272 427033 307144
273 898540 703741
274 949097 633373
275 185637 928032
276 320307 633973
277 360454 210405
278 25586 589218
279 423675 957265
280 50313 348548
281 666765 993143
282 152167 677003
283 800765 780122
284 45451 713036
285 286946 732413
286 214830 358425
287 520974 528179
288 618517 819570
289 852369 725063
290 146942 851427
291 812405 133303
292 549774 748761
293 23788 903658
294 960950 670320
295 265281 32747
296 932804 153247
297 405968 387550
298 69793 702556
299 207204 898854
300 688626 78970
301 851371 224033
302 486430 334209
303 115627 187004
304 84199 611692
305 186617 121928
306 628267 753355
307 691983 17566
308 415744 513518
309 587175 764616
310 607209 98209
311 572918 146597
312 24409 207975
313 881041 990797
314 871994 186765
315 412551 431513
316 735371 240677
317 538446 25013
318 223160 59050
319 441319 532208
320 333017 510270
321 316482 196334
322 63110 167072
323 459828 786206
324 128837 197992
325 506509 78996
326 830562 20438
327 486302 257113
328 343599 610694
329 685587 461416
330 111049 56577
331 745684 551991
332 278674 676346
333 805445 431933
334 690244 524911
335 557738 629537
336 384680 389182
337 258107 528213
338 267646 552479
339 660295 767296
340 864376 270346
341 305209 410577
342 75715 355974
343 685828 183380
344 962002 862099
345 219568 791227
346 368805 916408
347 974470 703480
348 125589 927300
349 938227 534896
350 899425 907348
351 125911 361540
352 333615 236162
353 773786 419984
354 944722 130327
355 571284 160219
356 648692 823487
357 241848 319822
358 687772 829276
359 577520 575194
360 550757 878145
361 493705 155347
362 625485 650389
363 503625 23140
364 55566 21944
365 754426 847661
366 607757 529967
367 196012 704157
368 621654 481721
369 168728 755893
370 668202 856552
371 605859 386807
372 311342 341423
373 297521 213457
374 290923 324080
375 199854 102449
376 871733 916282
377 780470 51763
378 299591 595943
379 165528 629458
380 614508 292064
381 251255 188829
382 462125 714731
383 554360 261884
384 512145 900425
385 22301 474315
386 538353 253440
387 375340 448307
388 6412 577423
389 374877 573721
390 350798 907682
391 857611 426108
392 407436 462361
393 596406 418927
394 67842 481280
395 149796 359769
396 969576 268303
397 733592 193887
398 318199 352418
399 11467 863034
400 335011 720098
401 838579 717202
402 973282 292171
403 244837 445624
404 508846 318108
405 455357 880663
406 528101 684247
407 479661 254738
408 322488 982952
409 455236 268238
410 396532 201941
411 250417 649111
412 565414 302202
413 635735 821151
414 280158 83168
415 203470 560787
416 68576 56768
417 118363 470134
418 379581 173364
419 946446 152697
420 139873 613453
421 963690 799604
422 84748 947855
423 109352 320465
424 702889 431389
425 558151 497048
426 72260 928298
427 659564 774223
428 651521 781810
429 598838 503148
430 912590 71473
431 499178 356149
432 178235 841903
433 916972 728496
434 599498 531806
435 145386 2023
436 280062 23847
437 710086 899484
438 129681 322118
439 989546 791190
440 650681 853924
441 222312 777010
442 170578 131996
443 61608 712427
444 878533 276459
445 553161 651084
446 573865 414639
447 7310 137849
448 333391 939843
449 89517 185263
450 818174 787233
451 330918 911699
452 780708 704226
453 274735 295250
454 757720 527567
455 712615 939094
456 903277 322379
457 949986 261506
458 497607 84539
459 348838 40385
460 508512 977129
461 638979 414234
462 713632 358152
463 671105 368363
464 243139 5860
465 624748 834430
466 564397 461979
467 78575 711587
468 950647 899932
469 827023 909072
470 634389 977069
471 363589 838148
472 767946 576031
473 12104 159630
474 701006 649158
475 466744 965028
476 696704 83656
477 560515 983743
478 222836 868938
479 833124 69120
480 753578 374802
481 468226 848648
482 893177 735545
483 575505 65129
484 554432 373954
485 249401 337976
486 383532 699679
487 573640 543484
488 280425 555322
489 853719 729889
490 135316 802166
491 535239 174018
492 252281 249945
493 366203 715749
494 568801 343029
495 136082 885518
496 345500 453068
497 659671 296413
498 593536 663909
499 264507 224462
500 295606 456782
501 305911 971117
502 513842 664578
503 429788 522685
504 831375 310569
505 617539 507086
506 300137 490094
507 933038 868060
508 29302 15157
509 188977 596764
510 142009 911595
511 800621 329969
512 78348 792618
513 32064 412414
514 185837 909062
515 113695 757739
516 723947 543150
517 112350 628229
518 502029 45144
519 240979 384221
520 220643 351046
521 526771 972037
522 201019 224486
523 84897 15530
524 374720 867052
525 264348 181121
526 478071 355445
527 110767 537866
528 732834 762761
529 858767 885612
530 162549 384644
531 281706 447153
532 89925 266493
533 980315 328100
534 289074 708552
535 783163 13771
536 640437 321925
537 332415 960887
538 433524 445176
539 219202 540481
540 59783 269303
541 553647 300224
542 746513 729050
543 476033 276793
544 453224 845856
545 647914 173928
546 756069 532426
547 601058 206872
548 710608 204846
549 639621 240132
550 790962 639720
551 796328 834239
552 807268 995044
553 627474 177846
554 608932 381716
555 61832 456041
556 309536 12910
557 237698 988620
558 628575 749279
559 846095 883053
560 555884 775468
561 688479 48942
562 917590 143442
563 217442 806198
564 514657 337371
565 333413 255677
566 836244 837485
567 478648 603742
568 959767 540736
569 62526 757892
570 100475 726754
571 430697 570171
572 289972 872445
573 485449 707126
574 614836 457615
575 989429 904410
576 690189 302249
577 906719 535284
578 803476 958842
579 355590 203525
580 35277 86737
581 115320 851039
582 281241 335078
583 25344 739364
584 722938 365252
585 503170 921448
586 134443 388479
587 893623 651473
588 85278 386229
589 142223 382306
590 339966 258600
591 450607 311131
592 302093 246675
593 140357 985204
594 556244 143570
595 578398 220402
596 817798 697273
597 254721 179026
598 592311 42217
599 676548 638498
600 787166 99220
601 564903 232530
602 117649 730829
603 453802 379058
604 155 660043
605 394927 818271
606 402598 212019
607 625127 814874
608 268939 418046
609 596317 102214
610 742766 983126
611 62816 84439
612 578085 403950
613 356544 901913
614 270830 162794
615 197670 706220
616 386073 482179
617 987378 521695
618 856001 238587
619 686003 487219
620 977736 722311
621 388887 454029
622 400803 595272
623 157586 733358
624 119188 850770
625 822481 690398
626 771387 513754
627 440827 80946
628 713146 82724
629 245151 595954
630 874827 215214
631 693054 512936
632 682307 672616
633 429384 948569
634 811216 29855
635 657288 535580
636 298858 745547
637 279732 52368
638 211739 549062
639 643612 497139
640 690803 273820
641 656761 674876
642 287966 982456
643 13166 873136
644 799872 314762
645 92311 907432
646 427371 656148
647 829930 442155
648 423452 643340
649 174296 348434
650 383532 608523
651 89746 622049
652 159966 548661
653 33636 96511
654 225787 458371
655 67779 840010
656 282851 930388
657 503643 967395
658 787843 36905
659 683005 240151
660 249163 786044
661 774272 462781
662 646322 48764
663 445834 676809
664 585580 731071
665 18732 115227
666 323274 185240
667 429359 850793
668 990969 726373
669 171232 320570
670 194612 976260
671 190130 559721
672 65599 306267
673 133160 964590
674 9826 781166
675 996321 746643
676 57760 443225
677 329702 268305
678 285249 904505
679 192689 309173
680 557692 307263
681 925278 905216
682 263758 91519
683 649879 723130
684 864788 197376
685 834235 823253
686 27079 901839
687 243829 502519
688 728283 331047
689 133078 378017
690 763515 541328
691 484119 276406
692 173379 711468
693 189949 418057
694 921481 337840
695 200914 267838
696 861584 973856
697 486335 371359
698 949180 288291
699 315892 563080
700 577983 802113
701 831511 631808
702 17651 454993
703 262524 781353
704 269845 618234
705 78356 867191
706 983024 854849
707 108259 289853
708 445678 951422
709 418881 892399
710 142338 361587
711 407238 301708
712 619393 32122
713 991741 395270
714 884187 788835
715 239994 946930
716 61201 514844
717 299661 896323
718 558304 629269
719 168147 883525
720 265790 238526
721 999176 29082
722 195501 839326
723 860600 559876
724 354463 454213
725 379618 553910
726 404103 527056
727 323085 631052
728 740911 316667
729 332147 121327
730 896689 633254
731 613205 386319
732 352443 839829
733 868014 953942
734 659347 268932
735 429252 885802
736 596959 964667
737 512781 588428
738 957483 880181
739 978622 988340
740 291210 675073
741 63123 762860
742 892146 606739
743 333724 674881
744 162400 459832
745 28308 604361
746 969921 899214
747 454273 379987
748 641567 34509
749 516300 607073
750 881842 980418
751 581253 366122
752 163003 704544
753 490786 641243
754 634909 716345
755 297327 66030
756 154266 872315
757 93019 292327
758 663332 713990
759 932046 972455
760 198261 833505
761 437641 52274
762 387090 448833
763 304549 230836
764 801664 808237
765 97641 316240
766 245272 262276
767 691013 225179
768 520807 190807
769 669840 599819
770 943406 619734
771 742834 189944
772 261570 194802
773 166720 917647
774 512124 5439
775 75438 410730
776 232845 708063
777 509432 565602
778 735146 318976
779 675108 937823
780 183737 299979
781 971402 35090
782 772938 677593
783 323195 964322
784 610744 898216
785 125607 745685
786 201865 926606
787 897017 787530
788 600660 729577
789 542842 821487
790 713686 985572
791 555727 863840
792 624500 797661
793 344837 210181
794 489337 13419
795 901983 556484
796 580063 771624
797 474211 197721
798 417868 816228
799 292927 474040
800 594142 437142
801 374805 690637
802 291753 89865
803 855002 369004
804 83563 711770
805 220765 524965
806 829638 661688
807 35840 627252
808 719916 199778
809 560878 575217
810 259725 506967
811 671395 136703
812 304074 688464
813 370880 511228
814 634853 807151
815 932527 231655
816 646014 831071
817 600722 188721
818 155934 894039
819 828000 997247
820 77745 145059
821 649302 914120
822 753694 395016
823 885089 443359
824 467550 785747
825 826841 906639
826 181374 485775
827 541513 362486
828 791128 543733
829 89914 103032
830 933931 960963
831 541004 86315
832 634024 75706
833 875662 915518
834 907994 640823
835 742162 276556
836 732227 775131
837 748376 353085
838 325592 185619
839 595190 941588
840 897336 827147
841 421313 531821
842 873219 971563
843 690650 559698
844 197047 525016
845 313058 240415
846 986044 187176
847 255085 801188
848 412831 874171
849 165744 400608
850 69424 699469
851 848169 525962
852 888411 999694
853 485325 649553
854 612555 569950
855 671835 231430
856 346685 564898
857 789973 693515
858 974918 353828
859 831230 832835
860 662875 1491
861 749774 507385
862 571399 42692
863 428387 206265
864 886720 748682
865 867760 676038
866 573064 25240
867 269752 665905
868 480461 856415
869 741847 179704
870 996644 336822
871 728467 364211
872 862141 311566
873 490641 478659
874 615777 212392
875 372801 206565
876 987450 417061
877 532848 393385
878 126405 822929
879 256209 222505
880 519232 628909
881 907706 432851
882 573305 335012
883 502962 982474
884 702757 478407
885 202874 496259
886 738051 618838
887 460034 456309
888 14040 332712
889 974537 178014
890 916286 605458
891 950056 664214
892 229449 238850
893 768332 140212
894 451934 934740
895 162943 497987
896 153658 263440
897 976829 500384
898 598771 109629
899 904176 405831
900 297525 157929
901 504122 437762
902 296105 767342
903 256509 323236
904 187612 293997
905 625052 986193
906 370994 321469
907 59561 21245
908 475251 644265
909 456021 72921
910 736241 393332
911 78297 296925
912 180881 44945
913 992137 300288
914 322732 692692
915 199800 690804
916 145100 680539
917 552961 930093
918 234463 628587
919 604653 208203
920 763599 124066
921 684190 379013
922 198499 769610
923 419689 856732
924 82558 931884
925 508247 298482
926 786896 211484
927 206031 606720
928 12828 823582
929 884800 366012
930 532878 627922
931 718583 979408
932 530398 500985
933 302002 991981
934 122969 289951
935 601555 618518
936 561707 524137
937 564673 437758
938 606435 866812
939 90894 574160
940 32116 168555
941 415487 956720
942 159813 571878
943 972221 165692
944 150141 51976
945 628090 242482
946 505617 314701
947 606648 145080
948 562359 160053
949 814339 760741
950 163174 552877
951 765838 508397
952 899768 339692
953 882995 830176
954 51670 634152
955 634499 847136
956 673440 832824
957 737921 290396
958 122304 403881
959 372759 385317
960 938626 141949
961 177642 362228
962 126776 48678
963 852679 53309
964 624368 224981
965 554763 776259
966 815141 456741
967 939661 184980
968 495114 582662
969 218798 869417
970 449573 568340
971 792932 764824
972 113349 486141
973 64839 143388
974 187925 557969
975 292401 509049
976 535684 589357
977 205977 386915
978 737735 309096
979 568735 714788
980 844577 300332
981 611378 182253
982 184578 66158
983 54204 908615
984 719475 251780
985 225556 978916
986 215956 814790
987 92915 429577
988 606264 588284
989 156250 739861
990 310943 543582
991 484573 909580
992 380404 254430
993 164880 632888
994 272162 873502
995 130775 586499
996 863187 967017
997 643860 470657
998 352384 978141
999 671908 683772
1000 879877 476555
1001 987137 448064
1002 247025 748818
1003 24475 626103
1004 208953 951547
1005 222035 104846
1006 36934 695233
1007 584012 258077
1008 437144 644360
1009 538392 713921
1010 713774 76062
1011 236706 35703
1012 371903 749001
1013 991778 767892
1014 567765 344097
1015 405101 980160
1016 379331 204703
1017 517825 206097
1018 506648 789340
1019 325568 122326
1020 817285 520519
1021 94495 558241
1022 159728 54713
1023 349792 827484
1024 595114 894859
1025 478878 584491
1026 410376 327811
1027 278670 899716
1028 97223 782434
1029 930238 40928
1030 242169 235134
1031 300535 86626
1032 134261 701515
1033 10351 478692
1034 535505 529299
1035 908285 609660
1036 49246 643533
1037 235042 129282
1038 665686 908895
1039 757032 472186
1040 651777 209344
1041 837654 526836
1042 101927 169966
1043 679625 292704
1044 70442 816310
1045 195746 27955
1046 253835 796269
1047 214041 207625
1048 471273 450961
1049 323198 30445
1050 389027 440897
1051 70452 122928
1052 243081 269534
1053 746837 883539
1054 225883 108703
1055 220091 804519
1056 711991 113927
1057 845182 214213
1058 981299 504265
1059 872585 926636
1060 230241 559389
1061 155494 505060
1062 140271 467387
1063 539208 926317
1064 400452 965508
1065 382445 782146
1066 683011 648328
1067 252095 847258
1068 497352 723726
1069 681654 887713
1070 188667 175359
1071 420119 143805
1072 586068 636356
1073 872461 748775
1074 655997 746653
1075 668416 544955
1076 50509 357690
1077 648000 606881
1078 757885 422123
1079 870832 395823
1080 772181 23111
1081 201885 338169
1082 920036 44732
1083 384400 568186
1084 527859 208825
1085 341752 232523
1086 848267 125931
1087 258219 685286
1088 508879 797804
1089 857059 533390
1090 709502 117084
1091 55484 4628
1092 193326 359333
1093 580260 344842
1094 728292 207363
1095 462857 929166
1096 195867 472828
1097 545961 956143
1098 327091 294187
1099 885586 900782
1100 127476 74657
