NAME : portgen-600-606
COMMENT : portgen N=600, seed=606
TYPE : TSP
DIMENSION : 600
EDGE_WEIGHT_TYPE : EUC_2D
NODE_COORD_SECTION
1 797781 800016
2 832321 321020
3 572241 980379
4 475495 132418
5 811153 455587
6 5621 101460
7 940038 123499
8 550068 999283
9 688170 234912
10 98500 558716
11 153911 847067
12 160263 506886
13 284046 957690
14 119384 80268
15 806041 501033
16 774919 686430
17 378748 26948
18 684950 858788
19 403716 432841
20 102790 268821
21 226632 151758
22 482652 711589
23 777813 392604
24 958147 665239
25 16819 861685
26 35920 598231
27 892428 524135
28 766761 111350
29 421267 805372
30 636069 713453
31 576663 42654
32 29627 542331
33 228955 853862
34 618807 228448
35 345686 157463
36 41135 22931
37 218093 236815
38 522795 555680
39 954638 636128
40 740125 172695
41 536422 314011
42 444199 92588
43 924369 732265
44 656803 836416
45 797992 831088
46 239980 175267
47 87155 945326
48 227686 203700
49 933665 245837
50 188794 222133
51 437966 322019
52 925113 844124
53 325262 721909
54 154032 799840
55 599765 34495
56 454547 584851
57 7380 804981
58 473472 401395
59 955499 84301
60 314645 25254
61 920196 372970
62 39654 123552
63 719497 719115
64 97817 373968
65 911552 800885
66 401647 154798
67 36362 705629
68 718148 951571
69 306631 639217
70 619116 522973
71 776766 572502
72 521771 772738
73 910892 867010
74 135612 963602
75 225828 508570
76 105883 559697
77 334284 387908
78 820486 283168
79 285657 219483
80 125975 373690
81 415278 514814
82 180724 76791
83 257729 882045
84 63079 234641
85 894089 606461
86 265783 991896
87 858472 806075
88 919371 360499
89 38685 651746
90 303066 436329
91 433458 878333
92 247992 537862
93 385607 886832
94 974074 959570
95 447899 836103
96 888491 71989
97 745128 12654
98 257190 784869
99 714030 715696
100 853366 550392
101 828325 483865
102 660536 789499
103 75112 227549
104 311704 796422
105 2300 933653
106 309094 326086
107 771583 289872
108 485198 343289
109 769685 168069
110 819601 472860
111 168014 347383
112 381275 343696
113 778135 781917
114 331360 68972
115 730962 691821
116 48795 242262
117 649445 369412
118 127235 107371
119 106749 958120
120 52663 42317
121 117146 806004
122 139969 975039
123 668088 541107
124 690714 401432
125 234519 475273
126 453509 645057
127 984733 161544
128 501597 586062
129 834420 291123
130 662264 967740
131 120799 353583
132 743759 959982
133 816506 503089
134 186117 796544
135 621784 944090
136 652575 368253
137 933550 344328
138 19350 522957
139 362650 219730
140 842098 192073
141 947497 40236
142 406708 763222
143 571022 695211
144 498503 689462
145 552906 624145
146 921253 310205
147 336336 108572
148 389742 748893
149 872454 795640
150 955688 145130
151 178457 470983
152 559333 42446
153 527775 413273
154 238348 221510
155 590522 806386
156 87559 144957
157 738217 38118
158 46487 810594
159 17247 635187
160 570240 67612
161 630634 390477
162 840855 476653
163 765633 181591
164 808919 891104
165 816552 606077
166 284608 141139
167 629207 35712
168 104513 802540
169 302019 368590
170 716735 760427
171 677963 863316
172 119222 485293
173 993511 530776
174 469349 859682
175 342938 208151
176 939973 981350
177 979087 349610
178 860522 37317
179 841776 523621
180 937932 725235
181 111253 869758
182 504775 830094
183 128423 224243
184 25734 252923
185 44606 515710
186 341244 157565
187 292248 362089
188 127639 649284
189 411389 491245
190 616131 728315
191 339814 285297
192 953171 91316
193 494823 414850
194 636363 799112
195 907288 880269
196 776805 49095
197 323983 201024
198 419182 520398
199 571067 757133
200 357654 344227
201 119387 978104
202 243551 614622
203 868336 654676
204 28179 887771
205 854787 445672
206 400953 42663
207 616332 57662
208 948430 62158
209 545775 303751
210 410911 608024
211 653176 268601
212 895269 700379
213 396323 363140
214 914013 677625
215 493752 472962
216 621104 523618
217 636458 170458
218 327362 297151
219 668965 895508
220 142886 432665
221 869075 332612
222 388200 299263
223 227093 508204
224 153825 623603
225 804700 56042
226 606384 893441
227 263380 884691
228 723122 595769
229 341646 73092
230 287260 571185
231 985710 132670
232 744884 422121
233 576596 68341
234 654463 317068
235 830569 440226
236 908332 922171
237 499050 354869
238 1640 759734
239 5220 10578
240 977257 800554
241 21494 840920
242 390365 922567
243 487252 488434
244 778733 214336
245 593861 259021
246 642687 351896
247 64939 702660
248 524332 946903
249 833561 33331
250 297623 467359
251 502983 143247
252 646346 4146
253 34547 765464
254 503076 340812
255 397439 234688
256 817035 127309
257 479230 28239
258 928497 633814
259 67731 42224
260 897789 629692
261 234779 621131
262 19444 363209
263 937243 765085
264 275824 494904
265 320321 236175
266 256657 664408
267 613138 742568
268 983518 894184
269 361689 362126
270 994070 853437
271 420702 736509
272 316546 964168
273 24242 21556
274 332451 701729
275 765416 759247
276 671079 338657
277 713009 61448
278 210702 838574
279 530108 903777
280 20627 140362
281 403774 140950
282 346741 544001
283 813985 80526
284 810763 515061
285 3997 906941
286 301362 366001
287 276807 138542
288 958613 896121
289 908122 957996
290 152507 98668
291 234976 372046
292 474276 179959
293 832400 115706
294 317666 69137
295 928583 902992
296 83421 846627
297 358128 87129
298 552074 54701
299 459701 178004
300 5555 128120
301 113433 374454
302 549222 666748
303 524270 299032
304 864381 533050
305 229047 94995
306 520908 460971
307 975194 117635
308 56941 557147
309 782821 259612
310 991926 759283
311 620824 632758
312 509506 875876
313 793507 926907
314 816778 610059
315 614271 659581
316 31740 375072
317 728949 57511
318 577760 774004
319 396852 356641
320 123017 275253
321 332884 58054
322 77210 169299
323 282167 450662
324 337120 482252
325 293622 625166
326 237923 849642
327 563732 345974
328 96380 738361
329 645505 491711
330 88987 750266
331 902179 507739
332 410032 953793
333 762111 462853
334 383761 805894
335 835467 606278
336 220026 300569
337 965990 366759
338 521360 771182
339 69025 163532
340 779495 55146
341 281402 325066
342 521071 864005
343 757401 524000
344 965039 775155
345 295399 114906
346 390243 590958
347 521174 516739
348 55227 32315
349 92063 710450
350 647938 510985
351 381637 173588
352 702756 238475
353 343764 912856
354 328570 699727
355 588573 572380
356 773321 870349
357 196311 974080
358 360022 311221
359 986565 893293
360 898566 729795
361 370790 673310
362 157955 324481
363 224641 46437
364 597812 727514
365 22995 608504
366 442611 369298
367 574959 207115
368 281825 411052
369 128754 546990
370 503982 446179
371 537434 71746
372 876589 565604
373 744116 716932
374 433002 196692
375 292098 8789
376 434502 364549
377 687454 39434
378 68373 12338
379 598629 495640
380 956650 932711
381 784101 781579
382 195744 142393
383 34945 701574
384 993760 630707
385 229964 643090
386 878219 789873
387 601194 889776
388 295293 6240
389 985856 118521
390 256107 212302
391 447808 102172
392 770864 90283
393 824402 661032
394 173553 432565
395 172169 580251
396 417292 498046
397 317026 860892
398 567959 747561
399 470552 986812
400 270310 737875
401 731076 314481
402 940584 79796
403 560981 332330
404 593685 597170
405 215032 407341
406 838785 166063
407 323470 376399
408 515419 286055
409 464553 334852
410 574434 287384
411 231022 6947
412 360397 492088
413 912014 563738
414 849288 521398
415 328795 962963
416 412555 388685
417 903488 848766
418 373516 281744
419 778701 394465
420 574864 538347
421 196479 838701
422 858131 884785
423 349229 410344
424 137649 824938
425 948878 4221
426 898272 949153
427 658017 307347
428 325320 342390
429 410992 91818
430 706279 279236
431 553629 199220
432 22306 676685
433 210862 84
434 307932 438685
435 27170 105074
436 148405 639614
437 385974 570212
438 389111 281868
439 348930 53050
440 166768 569623
441 152746 757470
442 815119 49558
443 409334 213335
444 366379 226803
445 637903 373432
446 973812 340015
447 367294 469790
448 389941 556864
449 452727 287918
450 495673 67360
451 61414 84599
452 658169 379254
453 851474 140802
454 134033 608458
455 898012 111984
456 976011 184189
457 453914 332846
458 305424 213613
459 831925 552515
460 286743 653998
461 547357 20013
462 943011 959809
463 43659 63806
464 981445 6719
465 718738 248309
466 147834 740471
467 155037 54783
468 593611 968557
469 303555 482272
470 744134 195720
471 381410 813863
472 940059 983904
473 826075 953798
474 397004 407485
475 426131 326135
476 575418 446007
477 569180 247364
478 919525 320943
479 929561 603385
480 785643 882917
481 837246 651760
482 864324 702292
483 730573 162147
484 244129 470009
485 506770 351625
486 816609 424439
487 126384 960608
488 78579 101349
489 450833 695647
490 40283 722716
491 134244 378059
492 221075 835820
493 411063 496073
494 876147 452745
495 324209 431463
496 724427 833545
497 975502 392509
498 379111 956970
499 687479 979451
500 905325 724726
501 502965 701356
502 367201 703415
503 191890 197359
504 224931 733359
505 836300 423452
506 444795 476816
507 279175 354179
508 158490 3700
509 676258 471814
510 323181 773603
511 474668 264678
512 564684 782044
513 848659 115253
514 57238 422968
515 768717 881220
516 876417 717473
517 859346 616831
518 277920 657428
519 98883 866896
520 677330 407362
521 819814 404332
522 129564 550606
523 956795 459748
524 268861 193457
525 543849 263858
526 899732 264510
527 210733 24105
528 848309 785492
529 842009 750369
530 425494 534462
531 98476 358035
532 56029 428938
533 603637 40463
534 347252 728569
535 397383 698741
536 734839 482800
537 927965 59322
538 873870 210157
539 53945 540579
540 933735 63167
541 273243 306868
542 997474 234254
543 782743 518381
544 661443 430408
545 13194 237457
546 310176 370314
547 469512 978589
548 672523 337014
549 476367 70241
550 676736 746638
551 405803 728282
552 259722 480682
553 990614 592864
554 267036 976478
555 241361 329927
556 124048 411601
557 737175 188037
558 224286 728162
559 888523 77440
560 756414 266622
561 564095 277010
562 51832 650745
563 292937 6557
564 223077 447283
565 68707 281006
566 943120 77466
567 299217 603807
568 939118 861641
569 569693 809436
570 9968 54581
571 629858 584003
572 673993 746571
573 673361 33165
574 318481 818766
575 685651 665966
576 113936 29083
577 1533 395730
578 803517 328337
579 429064 655915
580 541563 128973
581 23170 457600
582 966510 186780
583 700069 540045
584 737607 990603
585 514676 191120
586 409680 69756
587 391789 90448
588 152686 535012
589 275477 656102
590 847227 964600
591 577492 567162
592 905720 939734
593 257835 485520
594 110956 112437
595 903738 399073
596 124034 579089
597 294760 818847
598 644900 560102
599 192214 583545
600 593885 138349
