NAME : portgen-400-404
COMMENT : portgen N=400, seed=404
TYPE : TSP
DIMENSION : 400
EDGE_WEIGHT_TYPE : EUC_2D
NODE_COORD_SECTION
1 139974 175073
2 217655 557641
3 503978 413563
4 61027 768047
5 611256 828771
6 688337 321342
7 284055 56685
8 541153 913624
9 804248 579119
10 401410 731064
11 200792 730702
12 856882 493969
13 722319 898095
14 107402 857491
15 948927 228975
16 106913 449738
17 937671 145718
18 962684 783221
19 13572 619321
20 654432 409478
21 302604 923736
22 15110 120982
23 375004 70431
24 276986 748137
25 436344 252617
26 302990 428909
27 650758 273381
28 869665 690235
29 237402 71937
30 594956 720756
31 399990 441705
32 113614 201777
33 526166 764601
34 306232 163073
35 681681 470721
36 636637 56111
37 142775 148792
38 428074 771882
39 79943 583501
40 624304 32083
41 660693 35465
42 262535 228170
43 828984 665207
44 336124 735893
45 619552 198083
46 476989 850499
47 937640 183711
48 772841 246493
49 780961 866317
50 692908 603121
51 990487 693485
52 123833 404260
53 591924 267525
54 166374 422587
55 444396 204458
56 354111 501508
57 452384 396872
58 243767 549491
59 504065 929903
60 428936 279673
61 983640 439914
62 470165 78560
63 480233 943152
64 932278 738514
65 556868 160549
66 605508 657355
67 139105 419846
68 677972 159184
69 583080 865662
70 984403 279493
71 161142 406220
72 306956 339879
73 214443 37075
74 380334 859079
75 703477 829688
76 314215 42446
77 309449 532359
78 997612 333132
79 554380 703987
80 726287 432739
81 684444 300711
82 438184 164903
83 43315 947890
84 194552 112505
85 182429 206692
86 169157 644986
87 226425 599247
88 965457 941193
89 130465 937806
90 80948 147101
91 388772 228291
92 12226 124128
93 476104 304797
94 219171 974201
95 376530 730082
96 964632 470575
97 683233 777711
98 110335 516155
99 179794 707708
100 374421 273250
101 906609 442527
102 778131 556376
103 440916 85924
104 30220 185321
105 56254 692815
106 113960 580178
107 327457 996205
108 468107 213869
109 617478 660473
110 54567 527160
111 768095 486843
112 738083 909178
113 300082 726629
114 866855 670049
115 158331 879533
116 910973 945144
117 881551 388133
118 33140 808593
119 900833 16021
120 656020 262234
121 687319 558698
122 919634 849369
123 961986 477788
124 732491 774054
125 477629 383706
126 649300 509745
127 549377 494887
128 362277 961465
129 560976 389997
130 523235 632323
131 185090 14198
132 529300 794020
133 5495 555262
134 660544 478087
135 34218 990319
136 481378 843423
137 182843 670860
138 877860 258350
139 937465 243195
140 546901 338616
141 165652 476857
142 146814 526007
143 694443 896774
144 415843 87530
145 382637 477878
146 148048 422746
147 981802 665701
148 780855 843895
149 375854 248773
150 971509 703635
151 540322 489295
152 227153 139012
153 218053 172442
154 362931 23369
155 800444 465503
156 545622 473445
157 7360 45356
158 484274 762343
159 32396 863599
160 13164 161600
161 179407 411771
162 506578 330582
163 449996 992082
164 616270 43831
165 452807 705417
166 895419 914096
167 442751 81398
168 792994 692206
169 469497 101457
170 41733 932099
171 864377 552244
172 74365 221037
173 298471 736277
174 916168 651219
175 215704 788772
176 227625 332023
177 795966 266091
178 808216 626226
179 46544 145754
180 346018 525847
181 702945 261473
182 981635 868345
183 601125 993378
184 399080 786323
185 746885 747996
186 846175 381177
187 647894 224391
188 933974 847384
189 615805 240486
190 522366 823769
191 945538 470515
192 697812 926959
193 2472 633945
194 932460 574405
195 480272 799616
196 293126 683173
197 354572 293736
198 85923 483200
199 904349 849973
200 287062 451086
201 120472 675681
202 128853 391935
203 843234 757110
204 634210 869006
205 263618 174271
206 693766 472138
207 665482 546402
208 232720 19771
209 906901 687899
210 782421 117925
211 89028 549106
212 499261 295798
213 627524 170494
214 252324 255959
215 381157 176864
216 213173 746799
217 976868 348094
218 130003 473400
219 805033 151410
220 694239 982700
221 727043 244561
222 791984 362346
223 710587 744020
224 183912 58773
225 666212 915429
226 230875 648390
227 468816 110198
228 237913 373673
229 698813 780758
230 261931 369834
231 952077 482799
232 174766 280918
233 447228 449205
234 680153 303135
235 835814 488700
236 835859 848127
237 21686 866991
238 887049 440638
239 80290 389063
240 57885 253851
241 471680 471565
242 994027 11323
243 224787 730373
244 572032 695949
245 900866 680797
246 793246 501897
247 315595 205539
248 146841 878915
249 222874 924993
250 475297 269949
251 663730 794849
252 888 412361
253 443749 759310
254 654362 457493
255 885410 507539
256 801640 2863
257 879892 581134
258 576588 450179
259 167204 969227
260 134077 568312
261 226330 755160
262 827838 565865
263 824970 41010
264 847239 609325
265 423241 127739
266 786276 622796
267 503652 550345
268 452210 468816
269 591673 412893
270 434734 774607
271 563169 602804
272 561872 332553
273 454467 38085
274 674059 749730
275 380568 105830
276 31676 613549
277 501751 347558
278 483673 40933
279 291196 450542
280 960150 974932
281 167637 241469
282 22758 110803
283 944369 198835
284 440990 547338
285 126666 538502
286 776119 417473
287 588658 28246
288 536636 612781
289 253409 480279
290 82192 784036
291 749813 396696
292 649174 448309
293 960101 544806
294 600038 392848
295 605976 253374
296 27826 44334
297 286226 896232
298 998487 145696
299 14146 533626
300 795917 841685
301 784676 193779
302 667537 596531
303 356016 634979
304 964374 53441
305 387456 938866
306 440894 898347
307 844566 706776
308 947106 123302
309 955242 126526
310 112315 798673
311 184689 907364
312 751421 284981
313 753826 582340
314 749936 992126
315 672229 901656
316 648406 199967
317 92823 143326
318 343142 851466
319 552130 942398
320 501203 836799
321 589564 473512
322 280533 807303
323 68685 120461
324 292913 1245
325 142405 416147
326 395759 22019
327 861396 894260
328 193279 584709
329 100956 524210
330 253389 504550
331 82849 21976
332 552238 550657
333 349301 967382
334 617814 37262
335 638090 826644
336 830388 953997
337 984120 696168
338 402913 162669
339 45968 857160
340 91701 169117
341 481384 225725
342 738736 167679
343 818807 626430
344 647728 542166
345 794024 375760
346 233651 514867
347 304307 674558
348 6410 635567
349 489392 584365
350 404389 906015
351 74493 435753
352 909543 973288
353 934763 170034
354 283282 693716
355 75452 566849
356 936980 558789
357 730186 877629
358 270898 567981
359 717668 877679
360 544246 713734
361 477989 33449
362 632873 732075
363 752151 394635
364 44453 10831
365 761404 232879
366 879387 352251
367 781707 524852
368 232136 922594
369 495539 861107
370 896780 250825
371 908761 770048
372 997919 80290
373 897770 200202
374 881994 572231
375 922407 611774
376 591113 478561
377 822960 171510
378 26627 722241
379 654045 384690
380 741151 12168
381 674494 422175
382 796936 824627
383 658087 166931
384 560869 649895
385 979859 70696
386 685987 145436
387 955272 932471
388 122620 999428
389 210488 461363
390 705447 29909
391 740590 659762
392 269679 749236
393 558384 457211
394 555314 957080
395 866765 65205
396 361725 845643
397 881247 826084
398 564837 763325
399 814776 65448
400 957670 898341
