NAME : portgen-1500-1501
COMMENT : portgen N=1500, seed=1501
TYPE : TSP
DIMENSION : 1500
EDGE_WEIGHT_TYPE : EUC_2D
NODE_COORD_SECTION
1 895493 563993
2 149774 643912
3 646969 892759
4 301973 934950
5 944358 727869
6 257942 409406
7 905904 399730
8 475708 190692
9 956044 605878
10 201945 864400
11 362039 951752
12 58906 643326
13 267936 994015
14 370492 42573
15 672957 137131
16 373260 319299
17 60747 485861
18 3900 45085
19 117471 557098
20 812098 180266
21 409823 711562
22 786862 709577
23 904123 948767
24 837549 629628
25 316450 609782
26 194201 343495
27 478046 511388
28 201910 576194
29 503245 663913
30 640012 601884
31 775287 744875
32 122852 764091
33 318045 546379
34 622544 196326
35 495606 526941
36 353143 326416
37 289427 592162
38 670199 18543
39 473706 547517
40 441415 691742
41 490769 706579
42 402561 71072
43 361844 628384
44 196446 296655
45 167815 457520
46 422541 921145
47 61491 285156
48 827122 83407
49 422134 194699
50 39378 885580
51 475060 290031
52 188213 624708
53 119013 487622
54 940934 406973
55 149544 573525
56 379747 206590
57 496097 182491
58 179343 854141
59 683383 837695
60 936968 234638
61 124245 427844
62 156947 610025
63 51880 63111
64 138203 664719
65 473149 182576
66 77608 66732
67 397972 867889
68 311994 284179
69 210481 220069
70 891729 507702
71 945000 358750
72 359686 933177
73 333275 994696
74 764197 451465
75 233275 764011
76 945204 757414
77 721550 856801
78 807971 408328
79 892058 320323
80 312713 834833
81 277140 720865
82 515243 641842
83 628524 20996
84 846903 562920
85 849216 184646
86 89943 231918
87 604420 172957
88 289433 366830
89 706294 300145
90 802054 643552
91 171053 817879
92 352006 638315
93 905436 356742
94 551488 756130
95 239365 290998
96 437276 647561
97 370853 707082
98 417758 713082
99 754330 186729
100 643743 966444
101 288402 464052
102 649411 589723
103 592958 127324
104 405408 83234
105 951365 451229
106 856839 135928
107 80958 21714
108 397557 629579
109 350012 808161
110 224083 915442
111 266666 660174
112 919177 882771
113 896244 625891
114 582506 14697
115 579999 162109
116 961422 623060
117 348780 350824
118 786712 35125
119 736921 330291
120 240758 275856
121 6730 743327
122 532047 323923
123 24332 777102
124 728384 488081
125 810838 791866
126 130576 739633
127 606729 481634
128 5022 665341
129 115271 298586
130 803010 557833
131 390402 75116
132 842475 675508
133 444498 113512
134 603880 757035
135 997382 620455
136 901195 861930
137 997322 432216
138 784865 527033
139 53444 437542
140 877749 230902
141 510620 283919
142 211686 22166
143 771706 886306
144 780584 673271
145 906326 673200
146 431244 979886
147 332909 620303
148 374661 144799
149 746004 99830
150 539057 497299
151 723657 290841
152 610332 579935
153 281246 846656
154 527946 584562
155 709927 118716
156 884757 441999
157 392260 129809
158 126588 410516
159 742207 222172
160 300847 299699
161 367507 504049
162 217977 500083
163 896798 610354
164 251598 417387
165 150970 938209
166 999086 468882
167 727615 759033
168 346145 68620
169 891659 81877
170 895578 361190
171 144098 558411
172 372424 606627
173 305693 927194
174 761908 832825
175 723504 764307
176 893200 328617
177 948860 600848
178 498212 254774
179 563225 851298
180 233790 212626
181 954997 446068
182 688984 348737
183 974617 326345
184 69574 785633
185 824115 199394
186 648607 909382
187 498667 536540
188 406498 38889
189 555189 617129
190 1871 642023
191 47128 400300
192 183596 938343
193 983211 553017
194 779897 378877
195 784415 19799
196 999045 106026
197 257761 696183
198 712582 234716
199 59744 835884
200 200128 266804
201 372005 144779
202 830953 81481
203 717178 492900
204 145020 10516
205 617636 945194
206 474876 184348
207 66882 213990
208 213580 848971
209 188307 992800
210 636154 739900
211 266601 233690
212 585504 557311
213 827388 503827
214 78428 417186
215 819361 913597
216 893868 544672
217 999493 56677
218 167146 862780
219 333417 969605
220 724763 134240
221 364710 787097
222 742723 44515
223 753198 765355
224 520521 700449
225 868795 208754
226 156288 642558
227 16522 286530
228 372935 827332
229 145286 774276
230 914334 854397
231 159483 175415
232 285753 483395
233 580483 687779
234 441624 22367
235 460792 448225
236 328449 487857
237 124005 427399
238 583612 624043
239 217167 298973
240 184376 55
241 358541 304152
242 502851 964963
243 754114 718453
244 258919 516097
245 476193 479367
246 421155 311049
247 508812 276538
248 805791 876852
249 663092 315323
250 460902 129154
251 548187 221548
252 516073 868739
253 850213 852136
254 139706 51559
255 532416 654482
256 568413 629188
257 298083 434967
258 433242 848434
259 666602 9215
260 677604 703630
261 24686 126301
262 561465 331638
263 900037 106901
264 971783 255265
265 577186 731476
266 484336 165608
267 766556 529893
268 431642 729353
269 6069 67884
270 531721 905679
271 51851 249704
272 838493 772562
273 454680 294854
274 749584 177174
275 376500 698890
276 905069 407826
277 738136 729426
278 644817 382579
279 454991 986179
280 437096 120859
281 846067 71822
282 519837 626736
283 602631 318709
284 790694 525520
285 980286 138388
286 98850 489427
287 632714 978714
288 798561 616860
289 388164 832038
290 686820 517458
291 651909 985603
292 818168 456327
293 885409 412514
294 645770 139819
295 927262 112932
296 938658 480548
297 87597 393333
298 806829 562423
299 616989 859779
300 974000 837819
301 906689 917545
302 490354 859042
303 46980 919465
304 589657 281809
305 844017 232303
306 736809 315171
307 58917 324164
308 182200 365518
309 984225 126504
310 819907 40207
311 701720 930915
312 551519 142467
313 231698 181304
314 999073 773672
315 931733 879096
316 27203 106355
317 988021 454517
318 780649 336737
319 926686 494004
320 274126 519890
321 428288 519265
322 319912 887055
323 411212 7743
324 929028 945129
325 161634 625524
326 563350 843317
327 928046 94904
328 810616 800334
329 929524 35837
330 78393 710243
331 992778 95652
332 7683 324126
333 804014 217543
334 995258 171861
335 912951 174457
336 436489 39095
337 964870 194382
338 476856 858402
339 2869 456615
340 331850 431364
341 251780 963236
342 695278 221489
343 886318 931550
344 98671 663894
345 650502 563105
346 341478 754825
347 581052 99668
348 83401 389193
349 554395 125530
350 410198 552809
351 4873 472413
352 613278 730269
353 373744 600114
354 148038 706556
355 208586 879065
356 701662 265629
357 385334 515287
358 368764 237953
359 514599 908014
360 240725 414821
361 663148 869728
362 761662 360142
363 169583 964075
364 425816 234601
365 820638 876742
366 710363 296312
367 248029 452785
368 729701 986151
369 577901 179990
370 852725 648364
371 416950 190657
372 423169 235681
373 899957 471750
374 993162 220910
375 930085 119325
376 963376 319794
377 304892 533456
378 842446 708561
379 224384 160493
380 567 387592
381 22212 968048
382 853830 560221
383 462115 511005
384 842459 149653
385 615330 897014
386 244791 293689
387 977929 121400
388 451445 343353
389 564836 228206
390 517696 461022
391 739691 265322
392 234033 433045
393 854530 742315
394 442482 687807
395 990670 218696
396 143691 428248
397 564660 955711
398 403573 123261
399 212727 301769
400 784235 556603
401 906913 764955
402 703214 469062
403 379633 698053
404 85760 871846
405 678926 100130
406 266078 536576
407 169823 781870
408 243901 593964
409 403387 898119
410 156648 338853
411 298277 540690
412 365417 58726
413 990100 479835
414 590474 508866
415 741766 753391
416 257593 692989
417 549280 417565
418 194943 203115
419 95499 452162
420 189144 260566
421 338927 544362
422 531159 651816
423 920419 603001
424 62830 505933
425 965611 923737
426 532787 703861
427 560002 30844
428 299010 213924
429 215674 285649
430 274119 176518
431 602554 633598
432 682702 418359
433 761202 721716
434 5416 518007
435 861451 640899
436 531133 897453
437 932508 232910
438 806066 594416
439 980688 334573
440 759716 776175
441 264160 304825
442 234747 565248
443 150837 623995
444 10286 130920
445 656362 473227
446 197699 577492
447 590710 548244
448 729432 441473
449 611854 298249
450 845750 326003
451 622313 728257
452 746217 189435
453 659576 227961
454 469113 994753
455 880007 675015
456 203637 84754
457 629286 800891
458 978819 25062
459 42887 134458
460 688927 319728
461 109861 707166
462 672257 535448
463 18586 802875
464 151236 743072
465 573333 578104
466 125302 985934
467 454566 84701
468 572537 179406
469 675538 433856
470 586429 125775
471 581107 875828
472 441993 336634
473 363366 490532
474 905234 55262
475 529657 926556
476 290237 868781
477 724915 267645
478 200700 636378
479 273691 661516
480 616897 480169
481 552422 35257
482 408324 754232
483 93907 327809
484 642760 292652
485 437525 488286
486 119827 987624
487 604800 762370
488 29490 241079
489 982251 404612
490 334747 382208
491 529184 489719
492 126174 93163
493 25682 90044
494 577609 700334
495 990793 244728
496 536646 382886
497 996331 98142
498 5947 593482
499 271027 679623
500 307143 122286
501 508281 500622
502 720514 147449
503 397372 800518
504 742607 631751
505 241962 110656
506 58768 573357
507 670723 372169
508 943523 169535
509 38926 310181
510 748284 500424
511 56781 963137
512 985509 315238
513 980005 619204
514 267110 457351
515 364997 228972
516 498472 350499
517 162649 224091
518 323439 955827
519 818996 754005
520 149639 856146
521 51118 267428
522 952049 490368
523 187946 573508
524 397377 681092
525 118137 386743
526 326372 813676
527 314625 78170
528 623814 157781
529 337973 496423
530 824010 441545
531 981521 988602
532 482111 385816
533 59537 791340
534 621307 180354
535 184223 370015
536 772158 357833
537 192044 361541
538 174052 243105
539 648512 907338
540 691424 822223
541 281230 770687
542 633340 923452
543 247450 509870
544 868387 776832
545 164553 532098
546 334519 638642
547 569781 779624
548 83987 693284
549 75383 590508
550 316316 944841
551 924996 490039
552 989668 295913
553 105512 555685
554 180335 391172
555 830719 113943
556 289394 561141
557 331869 291912
558 107025 342879
559 418820 702487
560 301828 366253
561 715956 30798
562 864037 239382
563 445018 282119
564 368165 896131
565 256028 618366
566 62769 257339
567 76618 577480
568 532829 720089
569 438817 341428
570 816427 904571
571 91050 165899
572 475003 798300
573 816141 303720
574 774605 330399
575 334605 801868
576 325119 179252
577 334479 697950
578 882071 667656
579 413420 412188
580 763083 385422
581 116867 838906
582 574745 926148
583 22893 123494
584 86137 533569
585 475770 803304
586 568274 88420
587 367881 499960
588 41134 536704
589 696319 166086
590 357310 777361
591 868698 955977
592 133047 870605
593 501499 223862
594 682594 150469
595 554586 409334
596 633951 905248
597 865658 13122
598 336296 2629
599 798018 975043
600 757165 279437
601 607401 608518
602 973089 557243
603 933170 369141
604 46204 463873
605 196451 658208
606 985062 262951
607 857601 353748
608 751471 211619
609 973248 561622
610 589852 20264
611 325476 111094
612 776403 196333
613 195903 959756
614 115331 810637
615 566789 671992
616 490499 232445
617 969635 699101
618 792299 605747
619 98375 779298
620 119134 289880
621 250614 120971
622 560617 534321
623 83858 522856
624 128845 669325
625 817219 376540
626 887297 987380
627 408253 85173
628 788937 374956
629 638882 273987
630 764944 327423
631 270766 266905
632 344739 906571
633 407594 864090
634 702333 323279
635 269890 228614
636 82773 303923
637 744403 213311
638 132967 338095
639 702840 691229
640 407395 820947
641 320873 841343
642 45693 239366
643 401225 223593
644 887705 63064
645 291506 928209
646 903413 775095
647 509408 890519
648 207106 946691
649 376568 347306
650 401354 745763
651 820016 437615
652 261929 996272
653 55667 45953
654 941687 168887
655 683947 565343
656 487250 575817
657 982480 836735
658 424009 495670
659 757496 454219
660 699464 460903
661 487521 355027
662 921924 524126
663 408598 645157
664 41994 748131
665 157644 87013
666 396407 533953
667 7281 842052
668 333696 745056
669 858863 208957
670 815356 905554
671 466097 433485
672 363600 830603
673 440687 548386
674 853170 985282
675 481921 561948
676 904696 628437
677 189662 314341
678 349356 286063
679 430333 419876
680 662575 310611
681 187090 732729
682 353530 778392
683 99246 53764
684 212217 151877
685 396047 875623
686 642500 772214
687 972298 137515
688 556206 859084
689 165365 607583
690 174770 122535
691 214823 622117
692 85555 847033
693 899923 663677
694 180422 228889
695 742806 279932
696 532838 706985
697 812910 939733
698 263054 693882
699 461187 226084
700 274396 581602
701 383020 245587
702 810511 359385
703 347124 282578
704 542881 342628
705 414418 685678
706 105641 201444
707 677070 382643
708 777772 480104
709 919819 413797
710 515337 405363
711 592577 986133
712 877481 814445
713 492602 396912
714 961702 612913
715 790391 273628
716 316203 822736
717 193164 489092
718 16894 13379
719 945047 702912
720 69260 419818
721 743857 766624
722 713551 337442
723 687354 546705
724 829504 998464
725 447130 866142
726 732180 848274
727 435692 768
728 265399 560284
729 52422 321419
730 342491 333745
731 337531 839968
732 273368 994600
733 941820 339016
734 487892 339627
735 695288 231066
736 650600 921355
737 966667 649195
738 673183 744303
739 550440 876713
740 549046 932318
741 344490 640282
742 270421 456646
743 936096 476235
744 549368 198564
745 547271 677877
746 525486 605420
747 7624 838194
748 769217 822502
749 799956 64355
750 664259 943051
751 996265 952791
752 449418 514811
753 521652 91897
754 577852 979046
755 64671 789163
756 10915 853858
757 774147 664614
758 808258 732110
759 832343 435173
760 225382 119317
761 539060 423537
762 675367 752236
763 234801 697809
764 471936 451855
765 127543 581285
766 166450 571393
767 812041 759882
768 921402 490632
769 866134 605806
770 648387 203985
771 643891 114194
772 973181 427954
773 138816 101949
774 930052 255387
775 603392 71408
776 350566 348100
777 936812 82974
778 776600 424872
779 140749 689535
780 593408 31019
781 225762 972046
782 330659 860685
783 145272 896721
784 880676 346193
785 525797 706309
786 802058 576955
787 831780 153974
788 768751 190959
789 486724 592393
790 975635 809929
791 557059 782400
792 858447 96523
793 355522 194404
794 240734 951356
795 614610 24681
796 609955 519941
797 80008 942078
798 401927 66935
799 282413 819206
800 659203 947857
801 615224 337659
802 279751 793463
803 514348 568165
804 489653 840288
805 727451 582196
806 184138 189393
807 74925 568726
808 421064 705820
809 892037 388581
810 458757 78336
811 614307 61469
812 686989 577940
813 91084 464398
814 297203 38317
815 639626 200585
816 701305 646436
817 864941 393439
818 625790 367666
819 707475 289720
820 675459 649701
821 302366 852152
822 492598 536273
823 410374 548486
824 832951 502067
825 850993 937529
826 769731 244096
827 179580 458617
828 246551 968787
829 472717 886312
830 167672 146682
831 860690 199933
832 164828 77749
833 279829 331985
834 696795 538652
835 158352 872578
836 872868 389969
837 537587 521228
838 308605 370210
839 881889 228371
840 331388 122296
841 991680 410891
842 870644 492944
843 339895 501371
844 481607 787192
845 113609 293805
846 670871 168822
847 131367 802881
848 776832 912396
849 314565 971370
850 227667 40163
851 666596 604580
852 170679 728696
853 945849 358840
854 373452 686635
855 118722 745179
856 487180 685525
857 772702 873867
858 475810 691868
859 68565 361947
860 300916 367433
861 17419 725424
862 310984 118188
863 205981 268288
864 219290 808891
865 575378 949765
866 996757 195253
867 109648 586208
868 635116 306154
869 638188 996776
870 17133 648026
871 432806 119659
872 486275 746176
873 276385 945446
874 857837 13179
875 596899 508544
876 693105 505674
877 395991 277902
878 43405 471343
879 494931 584470
880 93580 639694
881 720651 376675
882 669502 470696
883 312373 367520
884 199250 26526
885 597481 530364
886 834030 55386
887 765047 792372
888 674327 511745
889 329433 33082
890 74782 734638
891 773357 634820
892 715310 935684
893 229113 620082
894 525751 638952
895 273834 267595
896 106903 611662
897 399295 486769
898 813995 377419
899 354612 693902
900 71849 764640
901 616013 824754
902 938397 862261
903 735187 58285
904 790363 460307
905 48788 423323
906 945591 855978
907 310635 825984
908 532790 108988
909 977380 182733
910 656700 934954
911 12908 505347
912 954677 832841
913 914351 9275
914 116989 902786
915 57185 616042
916 721382 869125
917 984293 651458
918 789046 917378
919 324185 889326
920 402893 120125
921 642702 343018
922 982252 338880
923 254687 601556
924 656985 566454
925 572418 804720
926 260430 451825
927 636717 455807
928 43257 746887
929 840461 286938
930 73215 817808
931 734099 901036
932 57414 928663
933 780621 602573
934 873726 971754
935 571297 931234
936 452003 410925
937 610315 851980
938 674523 561082
939 868629 498870
940 789583 167463
941 168814 830050
942 829571 239376
943 881942 820345
944 811711 55629
945 870836 186472
946 43652 352431
947 318029 471658
948 668121 231776
949 732702 130272
950 664357 693604
951 732926 158115
952 776870 404954
953 635905 430380
954 622254 397340
955 573864 222911
956 935176 784831
957 416101 886742
958 774156 381668
959 583007 585755
960 260541 548845
961 869870 743453
962 307397 877692
963 198307 293887
964 634055 205360
965 216074 244143
966 938827 471288
967 925005 566672
968 232287 383982
969 413948 942828
970 465220 500273
971 237338 225956
972 795088 321991
973 316601 300199
974 45033 440336
975 273350 374234
976 597720 527342
977 914198 420213
978 754776 261637
979 233110 210197
980 172667 251922
981 16431 679425
982 932120 73590
983 985573 709219
984 989743 94110
985 570140 473957
986 336634 142670
987 312404 886307
988 951125 342528
989 829255 887183
990 122915 936670
991 60777 423857
992 32692 964151
993 227711 259402
994 539168 851414
995 581099 523067
996 394239 319838
997 372688 991263
998 163639 94668
999 913552 908780
1000 370865 974073
1001 470943 157850
1002 317421 336680
1003 313456 173862
1004 494649 950046
1005 192501 495374
1006 722468 381695
1007 629098 649599
1008 857683 696593
1009 306737 940857
1010 909951 890905
1011 795667 80963
1012 723244 596067
1013 3013 178783
1014 825248 975723
1015 572851 777262
1016 847879 879208
1017 694681 627540
1018 214201 679082
1019 794759 383092
1020 106468 531118
1021 952665 598311
1022 941462 690194
1023 727400 313276
1024 596593 776621
1025 988250 984855
1026 269419 937828
1027 335929 593603
1028 126193 591734
1029 463169 689880
1030 122478 634374
1031 379103 111556
1032 843577 661383
1033 542709 124157
1034 440232 938904
1035 922199 544407
1036 99999 530115
1037 952606 925096
1038 621485 857838
1039 745033 129641
1040 469873 411278
1041 715614 135368
1042 853244 938476
1043 398159 736322
1044 35631 33298
1045 84831 90044
1046 238849 855854
1047 460893 562061
1048 431119 422549
1049 645704 16366
1050 68708 869562
1051 568242 466952
1052 306747 576971
1053 269240 134050
1054 84583 397452
1055 195444 389870
1056 556103 429871
1057 605049 32434
1058 395524 523248
1059 650662 281516
1060 230263 120160
1061 478452 423865
1062 870196 52636
1063 976164 633046
1064 223368 375635
1065 655855 487435
1066 773254 347581
1067 934197 80002
1068 855174 285742
1069 530319 820810
1070 542951 874910
1071 85660 754115
1072 803034 964671
1073 611591 814983
1074 985658 408256
1075 585897 798072
1076 199180 270069
1077 360511 581272
1078 96307 220661
1079 532755 226745
1080 721797 983498
1081 603731 263773
1082 854500 320533
1083 304210 801988
1084 626837 640378
1085 420842 580541
1086 537590 242406
1087 695619 432191
1088 920979 208383
1089 63354 288923
1090 956329 755503
1091 100291 996623
1092 653838 672357
1093 883704 509481
1094 493080 613663
1095 775791 53186
1096 658905 889941
1097 399967 962410
1098 337319 843254
1099 58496 370843
1100 43691 403208
1101 751629 696735
1102 451927 830393
1103 697781 202557
1104 616231 688154
1105 697568 586826
1106 727581 919092
1107 450953 668610
1108 324592 713789
1109 863805 892090
1110 983213 460956
1111 743492 255994
1112 596686 17634
1113 828912 840855
1114 790478 865225
1115 734409 718421
1116 592152 375200
1117 591354 369502
1118 27922 181198
1119 545669 985227
1120 347764 169914
1121 645675 600989
1122 630449 314835
1123 309693 402911
1124 293254 382333
1125 133498 496464
1126 52775 193270
1127 636433 325269
1128 811056 376428
1129 105380 82425
1130 802471 516582
1131 656887 631003
1132 340389 527653
1133 941150 126591
1134 288642 136118
1135 358916 921681
1136 420534 481472
1137 758592 486749
1138 408180 550221
1139 619560 271417
1140 206578 452483
1141 735475 708052
1142 62753 217826
1143 61534 961148
1144 34810 63701
1145 428351 901330
1146 892556 409551
1147 626310 426083
1148 749380 164203
1149 842397 143700
1150 906654 759472
1151 783351 21837
1152 175754 681014
1153 760989 344722
1154 130516 418606
1155 263735 849907
1156 341617 41678
1157 654073 901140
1158 624026 247336
1159 4693 914306
1160 778273 776947
1161 284193 144942
1162 229464 599444
1163 138330 398697
1164 305717 77577
1165 725759 63458
1166 419704 200953
1167 7681 356670
1168 110865 693796
1169 53979 161613
1170 593800 814197
1171 956455 120504
1172 285427 651403
1173 617136 747614
1174 180087 26866
1175 287753 350683
1176 858485 764820
1177 417940 843195
1178 339768 582397
1179 14155 819083
1180 570149 67193
1181 290743 968903
1182 824806 449537
1183 893452 221113
1184 756251 2670
1185 284003 876411
1186 67249 977826
1187 626552 427590
1188 918461 519373
1189 727001 386268
1190 259676 555932
1191 384541 486633
1192 507427 658566
1193 772714 450800
1194 376147 558144
1195 463218 889752
1196 937544 51309
1197 877609 717388
1198 746948 978628
1199 493952 857836
1200 732941 97763
1201 20613 793818
1202 767190 731820
1203 966141 371851
1204 257392 759374
1205 70481 888967
1206 206250 456011
1207 355865 680397
1208 129648 239434
1209 91294 107417
1210 702589 914824
1211 727160 898414
1212 269728 186240
1213 855798 273430
1214 210636 894731
1215 461448 546610
1216 261981 967626
1217 315787 370708
1218 349682 928529
1219 130767 827030
1220 528918 533279
1221 359506 268729
1222 855555 548393
1223 162591 39130
1224 781580 691369
1225 861589 473518
1226 767991 599220
1227 396388 186331
1228 835782 52986
1229 478031 396481
1230 382138 37612
1231 241083 430361
1232 230456 537201
1233 529460 937520
1234 600456 807472
1235 517805 90517
1236 457853 399924
1237 245827 229070
1238 146833 127940
1239 502026 83396
1240 350458 802812
1241 795398 814155
1242 512593 423836
1243 305526 831619
1244 737169 778585
1245 841247 412162
1246 328072 323295
1247 309225 438400
1248 75426 959581
1249 22902 626484
1250 401560 34651
1251 537104 698184
1252 340910 58777
1253 678119 953835
1254 86627 972551
1255 880805 4162
1256 315816 699446
1257 555233 969976
1258 709539 917788
1259 121136 792056
1260 461775 569879
1261 914618 973972
1262 405911 483154
1263 553413 759669
1264 59014 187049
1265 550951 192997
1266 41312 529474
1267 202590 346295
1268 486995 95952
1269 258921 542616
1270 714296 387738
1271 710482 945113
1272 316810 271368
1273 497544 354100
1274 917384 826070
1275 884986 315757
1276 900567 835852
1277 75533 208563
1278 993338 7629
1279 495593 994615
1280 571782 582167
1281 694914 544010
1282 258255 493067
1283 293680 370703
1284 382635 283864
1285 472432 355438
1286 403 295065
1287 907069 146017
1288 669311 78765
1289 898439 197348
1290 489815 545783
1291 264075 64399
1292 615267 968784
1293 498082 497302
1294 271219 709523
1295 52615 116291
1296 713316 975056
1297 70184 358857
1298 387334 415416
1299 38043 170792
1300 602056 418778
1301 455661 720036
1302 336254 339202
1303 51682 836168
1304 220585 106749
1305 710480 496035
1306 736410 786070
1307 941999 455490
1308 868850 719857
1309 473826 899397
1310 105733 878263
1311 332659 211843
1312 681808 53654
1313 899777 280367
1314 958810 567867
1315 94335 833143
1316 858180 791689
1317 486867 993780
1318 809373 478004
1319 122399 159776
1320 99933 778225
1321 23476 371821
1322 603790 174352
1323 783632 501473
1324 293248 16530
1325 459080 106967
1326 456606 470176
1327 76456 768913
1328 560597 663971
1329 233168 342474
1330 529829 573677
1331 713768 60808
1332 6815 932255
1333 472559 364589
1334 182280 767647
1335 671858 367377
1336 426608 457295
1337 440316 998765
1338 421656 862483
1339 135386 912894
1340 493056 235805
1341 47198 616335
1342 38037 520657
1343 119374 797372
1344 784874 554612
1345 521220 444783
1346 295723 354752
1347 487917 732555
1348 351616 566180
1349 931504 605024
1350 752695 921148
1351 366086 380353
1352 523473 223275
1353 59768 840270
1354 432139 555798
1355 649538 763225
1356 879097 678556
1357 821254 85045
1358 277954 359016
1359 572891 274259
1360 580638 906379
1361 433084 577256
1362 14952 750710
1363 1290 46254
1364 933822 217041
1365 938997 581386
1366 430343 579587
1367 263356 729831
1368 356708 368642
1369 795080 952991
1370 242703 760357
1371 224480 510614
1372 973974 614840
1373 11699 718467
1374 339800 737207
1375 731265 305361
1376 632357 714463
1377 666026 171308
1378 490805 786498
1379 116997 793642
1380 866566 691126
1381 45189 479147
1382 313095 889180
1383 538744 368482
1384 704582 206414
1385 73345 559487
1386 19216 835684
1387 542994 275276
1388 274021 718621
1389 911229 843643
1390 259904 214791
1391 929257 140180
1392 350474 247870
1393 536197 951195
1394 266492 374175
1395 191086 988225
1396 664059 588666
1397 879645 683216
1398 741141 388796
1399 967619 698697
1400 340818 293078
1401 807237 496156
1402 477302 516473
1403 376104 492177
1404 363988 418156
1405 635111 539609
1406 520006 742822
1407 602555 878341
1408 27066 456523
1409 599502 629878
1410 148039 149948
1411 400863 5884
1412 865596 780267
1413 752249 523060
1414 358381 26521
1415 899171 781844
1416 354633 493073
1417 208531 720295
1418 694785 186434
1419 537624 472132
1420 220803 79674
1421 351693 636613
1422 226136 41137
1423 587362 658174
1424 723070 99378
1425 930966 218081
1426 30414 941098
1427 799525 558974
1428 938445 314163
1429 287624 757006
1430 821687 189669
1431 954553 891855
1432 197352 555437
1433 187915 883393
1434 516686 561417
1435 290979 368892
1436 733452 500124
1437 698912 929958
1438 119534 459764
1439 206359 306621
1440 841821 438085
1441 235435 601374
1442 204833 709502
1443 827290 462777
1444 295721 653094
1445 532379 811392
1446 669748 976206
1447 181153 851911
1448 346221 851569
1449 937701 296178
1450 921603 127597
1451 451815 416448
1452 257556 492880
1453 982646 429039
1454 736264 90023
1455 731683 475667
1456 18442 634530
1457 224627 10295
1458 519921 978347
1459 710702 345440
1460 209216 336346
1461 945692 220507
1462 639814 163382
1463 917076 317004
1464 242568 206031
1465 947311 690494
1466 723500 116335
1467 574938 366154
1468 419642 600904
1469 376747 194538
1470 189580 848943
1471 752075 950280
1472 443878 196033
1473 865699 449240
1474 336392 17770
1475 934835 29216
1476 609001 731669
1477 348866 231109
1478 404096 335480
1479 841509 891402
1480 73238 381741
1481 52291 541725
1482 900442 882740
1483 723592 68162
1484 190652 28593
1485 144595 70680
1486 641954 692931
1487 410605 179999
1488 727345 214022
1489 871641 408704
1490 759285 581596
1491 475494 351165
1492 132793 565570
1493 638202 181774
1494 215892 692198
1495 642561 351480
1496 410252 348154
1497 49942 118900
1498 206988 59144
1499 539675 263878
1500 468688 651677
