NAME : portgen-500-509
COMMENT : portgen N=500, seed=509
TYPE : TSP
DIMENSION : 500
EDGE_WEIGHT_TYPE : EUC_2D
NODE_COORD_SECTION
1 358141 287048
2 81714 399991
3 747382 950769
4 850726 46557
5 358727 441720
6 254252 340710
7 179492 239930
8 649747 869041
9 377574 929903
10 402373 621675
11 57611 122872
12 856164 906624
13 301434 136994
14 628481 908935
15 374655 890193
16 914540 691583
17 459023 445367
18 447030 436362
19 577756 393675
20 966697 326464
21 614599 670975
22 263090 819070
23 272504 772551
24 670659 967423
25 30156 697925
26 852286 304052
27 914993 81941
28 133007 666557
29 828025 636346
30 952960 311019
31 373013 457050
32 79859 32263
33 827121 583276
34 77620 360422
35 967426 877196
36 198381 410151
37 899747 704447
38 769389 753559
39 207879 774223
40 773617 634877
41 308968 992135
42 955974 63635
43 517179 457490
44 611724 426759
45 618246 863754
46 358742 217334
47 426249 89501
48 128082 204447
49 771228 558642
50 49680 518944
51 564672 896436
52 193805 395278
53 388956 860150
54 348077 851357
55 564761 675517
56 54832 401266
57 18100 89206
58 952277 155679
59 30800 990357
60 904181 622673
61 812048 518978
62 310741 448482
63 312524 301945
64 216345 504468
65 315491 909239
66 405481 356521
67 209461 98099
68 580044 907702
69 974035 866768
70 111358 361500
71 426689 621366
72 522578 995573
73 51706 839764
74 906592 977767
75 776977 826137
76 988102 266760
77 243150 140441
78 113462 208150
79 686974 95705
80 815234 481253
81 886115 481309
82 739999 203261
83 248828 433465
84 878687 22526
85 37499 112512
86 249086 53033
87 213380 78044
88 634571 545287
89 275827 170299
90 335019 104373
91 614970 120639
92 689233 834237
93 23123 924172
94 616521 6200
95 849271 146578
96 29014 951508
97 829268 998845
98 112413 373655
99 407986 444533
100 361002 506418
101 563937 736292
102 642747 672603
103 211166 867462
104 577526 408913
105 117318 189290
106 591629 680774
107 246433 668656
108 452239 934607
109 652041 741154
110 90847 875172
111 25479 434154
112 661524 531081
113 548575 512793
114 410286 540776
115 866877 767109
116 967761 866913
117 52981 145729
118 512744 934195
119 874206 20577
120 381998 88515
121 272130 875367
122 915352 974098
123 121098 594860
124 289983 298186
125 450269 599619
126 963369 867209
127 577656 593892
128 538656 697023
129 683311 497018
130 159859 276970
131 993256 556948
132 26915 28803
133 917159 716261
134 765421 272334
135 547557 857378
136 644624 353854
137 290884 491227
138 911803 158269
139 856497 67631
140 992424 851551
141 829482 913267
142 380917 589906
143 773853 410813
144 839998 24178
145 228569 796483
146 168774 601871
147 473020 524619
148 443891 918275
149 584483 424125
150 62295 962828
151 738363 222351
152 305761 598718
153 770137 50101
154 486291 987750
155 820039 127843
156 857025 659132
157 268449 363376
158 108196 391384
159 83928 502296
160 584912 998884
161 131778 341296
162 210039 584728
163 119015 422272
164 48092 692166
165 721090 861701
166 671978 868747
167 247592 864581
168 994526 170350
169 644817 17541
170 481709 382468
171 326884 337702
172 439266 229685
173 664704 827477
174 391831 888291
175 405603 21618
176 870182 892317
177 703034 200594
178 290850 869615
179 974759 441180
180 604191 599786
181 405283 468750
182 506040 437571
183 800958 519323
184 219865 38764
185 698671 280719
186 999553 195636
187 96692 563293
188 128701 239460
189 638262 9445
190 293877 249400
191 447513 606912
192 87974 121303
193 456417 203227
194 362707 810020
195 63622 475203
196 950484 606053
197 318870 200990
198 382915 131248
199 241009 875972
200 100983 425244
201 189215 382386
202 594414 156203
203 574104 263270
204 804342 581730
205 744176 87623
206 506908 164738
207 377557 128988
208 649302 799230
209 149880 305050
210 54656 669709
211 278313 343893
212 937780 273427
213 91504 617166
214 601221 940488
215 989189 865430
216 435118 56531
217 265268 206254
218 742491 282775
219 229354 958986
220 472001 657187
221 53347 57657
222 755364 393912
223 196890 606590
224 668273 45442
225 109486 765748
226 530026 300520
227 886782 235553
228 990125 132683
229 117117 388160
230 413711 291328
231 33916 845356
232 109728 86989
233 34276 449251
234 409373 983645
235 932097 42711
236 130957 104437
237 195563 288908
238 139683 977792
239 457110 702226
240 283301 958820
241 500049 213061
242 526777 697861
243 831513 589761
244 946802 178279
245 171977 293240
246 873401 245708
247 26888 429290
248 526230 948909
249 862093 466456
250 254229 219098
251 149480 966046
252 762141 150665
253 265698 316964
254 773743 188921
255 404039 400364
256 185880 938838
257 216182 120470
258 417927 788207
259 818468 680438
260 560759 85366
261 587157 942917
262 729415 712999
263 893230 164910
264 342296 44898
265 23209 822718
266 204048 268189
267 298187 882937
268 772940 561211
269 996879 406306
270 279934 43306
271 771293 266364
272 617520 86611
273 706082 930483
274 516293 313888
275 536059 361319
276 606613 817194
277 443246 431510
278 15049 881291
279 667858 879204
280 377725 704487
281 320085 367437
282 908987 360733
283 629070 919516
284 321317 129570
285 414388 487443
286 271914 504579
287 144379 199439
288 478753 769963
289 499671 297904
290 697950 11939
291 497051 463091
292 667173 318721
293 502633 836611
294 359201 937454
295 253866 853423
296 239893 867308
297 991918 792490
298 771391 266713
299 121984 418080
300 607857 936119
301 430812 218388
302 615938 524119
303 864267 143521
304 150021 124525
305 928877 178438
306 522089 730404
307 625338 524301
308 464594 452776
309 375518 116496
310 589341 362357
311 797532 903237
312 521713 478268
313 56630 53526
314 888641 620259
315 335172 335231
316 619941 375145
317 369027 519511
318 489849 766647
319 837753 142871
320 854126 49857
321 461092 242704
322 348112 891509
323 55891 336655
324 345595 513650
325 735859 717865
326 378072 501724
327 82907 272626
328 316178 55666
329 849360 96426
330 34269 97620
331 305768 7150
332 270398 879020
333 717346 279384
334 382291 733828
335 468410 127939
336 107180 861868
337 380636 871475
338 984284 295807
339 820329 249086
340 162089 964
341 204165 792214
342 585990 237551
343 29462 612790
344 104746 490007
345 802165 210464
346 384355 103924
347 674461 726187
348 942676 599223
349 862068 476637
350 907224 760083
351 516325 96509
352 351560 734895
353 513699 585857
354 915734 845356
355 243163 703387
356 950919 359352
357 294261 823804
358 713265 201844
359 332689 544211
360 936343 118122
361 417316 905654
362 826604 708326
363 611613 10671
364 510308 645740
365 357776 398426
366 380073 974973
367 5922 458702
368 50044 844813
369 497953 762185
370 524286 827618
371 280101 560535
372 553664 684042
373 793148 478700
374 277320 966134
375 114573 932005
376 88914 216327
377 118861 508797
378 380010 541351
379 90586 892857
380 684851 668886
381 87904 153548
382 321069 415545
383 423285 390384
384 805688 610218
385 30656 234564
386 924524 366554
387 429638 4338
388 29207 200989
389 786793 317806
390 328315 70262
391 920084 617450
392 960889 688889
393 310522 226524
394 653904 590377
395 35416 659659
396 39124 887734
397 731528 289722
398 903094 913546
399 130897 549325
400 654834 592158
401 691907 959513
402 637819 44311
403 11920 471464
404 255437 429971
405 198275 153486
406 887447 500209
407 857441 25191
408 629762 200169
409 422020 31347
410 512451 509739
411 259487 256363
412 955384 438497
413 542657 965010
414 728735 385326
415 992417 557743
416 945551 356822
417 119531 174829
418 182814 419875
419 760008 935697
420 59127 110352
421 804504 622556
422 77926 525677
423 400172 782761
424 932350 293031
425 747064 938083
426 184811 745570
427 556908 97090
428 646607 335085
429 839982 462989
430 861496 592045
431 711455 319739
432 370844 87922
433 348982 264890
434 422283 331764
435 625018 847001
436 267819 128988
437 284282 574367
438 324927 513916
439 699454 858293
440 791890 207572
441 125028 265745
442 523830 400372
443 846288 625811
444 985978 31608
445 825847 917924
446 997592 428244
447 310678 212125
448 842533 675515
449 338274 503558
450 200749 886256
451 83306 74057
452 501141 539492
453 813054 919065
454 221740 156536
455 250802 20795
456 349106 808373
457 637142 943572
458 594452 283210
459 9061 158718
460 245389 673466
461 926616 918724
462 131015 738762
463 763695 193761
464 627847 744790
465 761312 405862
466 292176 542918
467 607490 771094
468 858465 316655
469 628603 580257
470 805919 563077
471 616750 827259
472 786218 152380
473 991307 78867
474 297229 571916
475 448430 648771
476 47667 593483
477 742245 794886
478 594080 540387
479 466566 730046
480 681026 496399
481 290461 641482
482 350616 687724
483 404044 521847
484 22155 484762
485 952264 515585
486 985981 437144
487 710287 596618
488 625799 333132
489 176478 336128
490 144682 223307
491 727195 897801
492 63763 264912
493 115400 650693
494 192301 919766
495 367049 336618
496 294499 143840
497 627993 290334
498 577096 179605
499 116972 189600
500 526580 658175
