NAME : portgen-1000-1008
COMMENT : portgen N=1000, seed=1008
TYPE : TSP
DIMENSION : 1000
EDGE_WEIGHT_TYPE : EUC_2D
NODE_COORD_SECTION
1 918765 400149
2 283289 117447
3 104130 237113
4 13198 312996
5 387185 59450
6 686552 347040
7 968282 682208
8 765831 714307
9 140333 35056
10 416472 225627
11 120020 662803
12 843229 829622
13 758374 472330
14 885803 305795
15 521684 32554
16 124118 98065
17 860495 859890
18 567875 702242
19 249447 626082
20 955462 493850
21 649696 41190
22 660633 441412
23 985385 766434
24 293923 619076
25 775983 509434
26 910366 291635
27 304069 934052
28 403554 820699
29 539653 423398
30 549572 401888
31 987665 387115
32 357534 893334
33 409753 645361
34 686407 526869
35 696823 999397
36 420383 521256
37 259072 907038
38 315260 828385
39 358733 909176
40 426068 937675
41 932677 462404
42 756223 119796
43 44889 737002
44 740531 967160
45 450136 922513
46 15834 722578
47 929259 956065
48 73466 128440
49 782117 753594
50 126151 157000
51 407700 384746
52 193008 838308
53 576757 447961
54 535412 184273
55 889163 666551
56 80167 572492
57 973262 627058
58 386053 265087
59 457856 401468
60 819867 281312
61 863244 932813
62 400718 539823
63 591696 35636
64 328247 420764
65 330281 867299
66 292972 174460
67 20013 759516
68 857507 360184
69 489142 129164
70 733742 779801
71 279146 339063
72 147293 168823
73 59269 83021
74 321859 389436
75 364369 37829
76 800192 361353
77 423313 258852
78 864027 233240
79 364733 433492
80 980800 216572
81 958818 406247
82 450530 109361
83 387405 741104
84 425199 804438
85 567788 303031
86 943227 68420
87 37099 782038
88 481120 501890
89 509499 141865
90 675795 358456
91 670903 894755
92 439963 113708
93 908480 886725
94 723929 910651
95 372111 116402
96 934984 684704
97 561375 430710
98 836574 210726
99 301963 365255
100 687703 557379
101 573521 179994
102 713640 5912
103 366926 905437
104 921390 309605
105 350372 977301
106 509310 454082
107 61381 864398
108 281587 274114
109 844871 19819
110 272787 176679
111 439140 59944
112 116734 10409
113 729509 763233
114 354779 31186
115 415111 575682
116 580500 199894
117 791493 698494
118 849145 216820
119 833374 575564
120 832120 634365
121 41853 704109
122 637863 195431
123 677261 875040
124 567969 550966
125 701200 73340
126 855946 270777
127 950143 112020
128 976878 373627
129 388500 15146
130 156766 150106
131 72062 345825
132 477484 716006
133 935448 805200
134 816219 865949
135 187136 406547
136 706145 293905
137 318618 199446
138 320732 168363
139 109800 4714
140 33530 355882
141 374732 339633
142 874419 265005
143 503620 234675
144 722410 75486
145 763045 43944
146 400601 967425
147 388428 425573
148 928220 747948
149 385490 438416
150 874698 508898
151 765239 563254
152 517435 345318
153 698608 516312
154 396357 685138
155 608400 742203
156 651217 313014
157 252100 112822
158 749504 104637
159 957397 51911
160 787786 187499
161 419710 377802
162 991250 678238
163 641307 142890
164 776469 973300
165 500838 804420
166 772005 424662
167 396313 291326
168 704665 61718
169 87533 761597
170 515500 398982
171 277277 670498
172 287699 575546
173 624234 22798
174 976175 710189
175 784265 785329
176 971479 412190
177 937578 70278
178 736892 340577
179 166941 226109
180 640653 636890
181 428778 634760
182 169638 209418
183 464926 980718
184 25314 676554
185 488587 726705
186 128462 247208
187 267645 2457
188 216020 7520
189 440224 920971
190 941346 300729
191 975949 550360
192 332647 863948
193 375641 137245
194 255023 186895
195 826400 723946
196 36403 410979
197 273010 788794
198 270520 30069
199 402853 285242
200 359525 616714
201 582574 55203
202 768842 483535
203 809380 421118
204 79542 73630
205 694636 599647
206 85553 980046
207 399708 916706
208 600486 17799
209 361750 380843
210 938897 434856
211 577865 740071
212 317028 871873
213 144131 73259
214 478365 784109
215 193076 794901
216 927977 366594
217 226335 341698
218 215176 995903
219 150651 415941
220 263461 357842
221 775494 874180
222 247997 391544
223 146081 296332
224 93950 401136
225 644662 197260
226 551704 618743
227 92166 564623
228 688736 215979
229 828867 427144
230 268359 813477
231 270466 663601
232 810168 336794
233 824152 211373
234 732048 8163
235 770624 304154
236 923848 960613
237 736181 741637
238 883151 959122
239 647905 752404
240 183136 928151
241 244391 51221
242 515750 379599
243 524434 264375
244 556425 889540
245 517546 3802
246 263854 142487
247 645316 959307
248 433993 814881
249 137999 506360
250 508392 186959
251 648426 341545
252 218000 716511
253 952868 500483
254 102993 712566
255 40188 424361
256 659553 939326
257 909598 264557
258 549622 127978
259 18285 850861
260 902801 9271
261 73374 225688
262 499771 583665
263 655727 582303
264 742612 19670
265 788768 382668
266 856129 935338
267 712215 758775
268 268597 305065
269 141623 251192
270 829976 396455
271 246090 705564
272 986739 508274
273 930427 38165
274 642716 61650
275 303579 851690
276 72268 118329
277 717591 125724
278 330830 713088
279 629329 459225
280 447913 647803
281 358860 851800
282 882590 643732
283 178270 953989
284 952587 401323
285 334129 511457
286 485262 956635
287 547281 51111
288 937003 955045
289 508096 374046
290 252835 942638
291 952973 283387
292 571756 140964
293 23807 4328
294 52747 68482
295 580504 314608
296 352477 740299
297 917063 318519
298 911193 289454
299 158282 935628
300 571270 975382
301 530069 268669
302 808814 360940
303 898717 788880
304 546572 576627
305 101916 326501
306 660340 560846
307 878721 133305
308 295326 618560
309 934737 564071
310 732539 888815
311 795707 16958
312 830053 358747
313 981387 216592
314 147820 186341
315 152393 148123
316 408473 931469
317 272130 926333
318 282298 392126
319 404666 438451
320 845638 405247
321 69591 488676
322 335943 691688
323 518900 335519
324 910246 558315
325 337131 694601
326 141634 971941
327 783234 423147
328 566908 598599
329 996539 882480
330 78642 506590
331 384214 108120
332 730988 696669
333 256910 171664
334 224903 187032
335 614404 959806
336 708314 376421
337 226939 37937
338 747181 823766
339 233724 406905
340 791838 382788
341 220052 265339
342 107698 645802
343 763909 300352
344 200481 575460
345 669423 110634
346 167222 217633
347 824047 885831
348 696932 693169
349 261736 298005
350 944506 695134
351 101794 503340
352 766477 954342
353 474548 876295
354 864242 137431
355 659238 266556
356 398118 421078
357 213057 968008
358 339368 166580
359 284073 845156
360 999737 563740
361 909927 926897
362 242525 919269
363 858011 204974
364 609944 272596
365 563389 870886
366 959523 96292
367 747667 525282
368 984670 798974
369 52282 139690
370 306434 597328
371 16278 355324
372 575723 105683
373 200706 240325
374 975107 904777
375 27819 491957
376 83225 989139
377 734616 73620
378 735610 5502
379 755672 241194
380 969672 675574
381 824012 724552
382 830996 61909
383 250277 42793
384 845354 107373
385 767301 99042
386 191473 379296
387 817337 507779
388 480514 920787
389 192280 168905
390 183659 852509
391 449302 368749
392 302924 887814
393 46873 234971
394 265295 685758
395 275004 941876
396 953619 944908
397 372388 207392
398 405855 636981
399 537987 67944
400 625168 279918
401 48044 806202
402 721117 175310
403 42655 714476
404 686215 846801
405 26747 500639
406 740206 69914
407 966190 27795
408 721955 879104
409 352163 623604
410 656054 613295
411 504806 777410
412 482205 487382
413 50998 385270
414 658178 642026
415 465124 766038
416 234572 345478
417 142157 683020
418 112302 379388
419 402559 275129
420 165859 167768
421 882807 641691
422 29704 661708
423 437070 176208
424 462702 885005
425 156393 20584
426 978803 895960
427 602819 859130
428 45346 702565
429 664045 38097
430 63007 663266
431 311917 411085
432 680942 858979
433 617831 98515
434 40209 304481
435 590724 545746
436 416401 467158
437 467210 635469
438 634492 608845
439 174591 623075
440 442036 348432
441 721225 620081
442 579019 801857
443 454121 823486
444 664536 283177
445 65189 13787
446 339178 98077
447 684404 620112
448 751366 415649
449 174480 394234
450 27216 828225
451 1617 839627
452 442968 807961
453 299359 358721
454 316941 800962
455 405009 221859
456 38029 380867
457 972908 49219
458 324088 213839
459 726681 60829
460 107612 202181
461 924034 645975
462 277264 762498
463 544129 576773
464 24189 659248
465 336109 275770
466 291903 373629
467 218065 220176
468 310402 340357
469 647172 529799
470 477768 240281
471 96805 603707
472 175565 863007
473 89752 693203
474 820812 921905
475 75983 174592
476 391460 515231
477 58125 751445
478 536321 627988
479 621561 222792
480 497558 959001
481 711549 787141
482 323193 164727
483 125054 434322
484 205302 109900
485 959467 630885
486 393026 804775
487 984846 933019
488 810720 408803
489 587849 525819
490 226177 916141
491 955211 801397
492 161690 377107
493 564221 504762
494 50435 53338
495 95122 876080
496 135055 537272
497 570332 846883
498 847254 292029
499 618861 242545
500 52287 680949
501 105353 294993
502 695728 159841
503 219380 590063
504 353541 681017
505 187223 31559
506 577552 568223
507 127669 621477
508 823946 174276
509 216808 476310
510 317473 833024
511 815461 962757
512 57613 278518
513 525532 98033
514 109046 825004
515 713639 220657
516 55262 906832
517 338595 194617
518 338589 386988
519 673727 540212
520 553161 389944
521 287953 574125
522 735865 262097
523 60619 172297
524 479658 291814
525 321350 749220
526 182983 793856
527 528906 831629
528 625686 198520
529 956398 501111
530 821252 832392
531 916335 813329
532 127856 797279
533 743605 3427
534 832358 865571
535 560858 651648
536 694618 924994
537 154959 568252
538 650041 21604
539 433851 225983
540 652831 327011
541 141635 607935
542 3751 881246
543 304321 241933
544 778975 541316
545 451011 335161
546 554629 808155
547 979354 901512
548 695326 362959
549 419165 167612
550 612056 39015
551 738446 253674
552 638983 994338
553 607585 575047
554 790105 647659
555 527308 383753
556 419544 415081
557 50099 486090
558 277762 108180
559 833975 226344
560 101952 380646
561 584261 664745
562 253515 521842
563 913201 440943
564 286011 160620
565 960666 74993
566 231499 786191
567 698675 269077
568 907467 726553
569 557836 517660
570 603484 196141
571 407957 552631
572 439363 70364
573 750900 889884
574 554639 457511
575 988310 254382
576 76947 258544
577 206946 537062
578 807516 952255
579 554998 369906
580 86871 881032
581 17211 272444
582 44175 331166
583 975795 866912
584 975718 979734
585 735190 387878
586 553540 376463
587 238033 847569
588 303698 325716
589 457799 716452
590 714326 960946
591 885944 916104
592 73748 79634
593 57782 959055
594 742016 367508
595 293281 40554
596 750834 578101
597 782470 215605
598 642600 31494
599 314597 591793
600 766665 425184
601 432084 838187
602 743185 27363
603 368438 160842
604 184796 127311
605 479279 848461
606 210238 187489
607 76624 46317
608 130197 439109
609 489973 828569
610 688566 944301
611 552315 383924
612 213068 310005
613 955793 715353
614 633278 210670
615 479131 142855
616 140920 330487
617 237173 865865
618 750708 698455
619 839480 27431
620 949437 618673
621 469081 913446
622 678942 348979
623 488238 366910
624 365033 472464
625 259811 927247
626 398215 103927
627 112662 623810
628 284263 101596
629 601013 877319
630 276655 669982
631 321362 157365
632 177874 860606
633 379379 296792
634 508547 727645
635 558078 763286
636 74075 17508
637 568757 761319
638 546086 448387
639 271262 589258
640 25742 854196
641 114339 755958
642 934015 809148
643 821493 983555
644 152613 376566
645 486485 453916
646 189908 111835
647 469352 186150
648 544597 451573
649 344688 917623
650 802893 39850
651 95647 775775
652 446722 405615
653 812907 642256
654 169911 303513
655 802316 300708
656 948983 224447
657 390834 822738
658 480074 209527
659 688012 991723
660 316009 927806
661 952103 590923
662 924751 518227
663 667639 298300
664 570785 163142
665 948411 903829
666 278476 967749
667 786941 725033
668 905213 889891
669 365124 111276
670 329074 611965
671 295542 160889
672 60556 558679
673 501812 598984
674 187083 951124
675 518511 246296
676 880787 181546
677 969211 899063
678 761374 127898
679 988833 721689
680 500401 923015
681 277132 58634
682 974439 190351
683 5166 788093
684 163890 832155
685 320925 881090
686 22444 736888
687 473212 69712
688 47018 770556
689 621712 25688
690 756853 539740
691 309467 849096
692 662741 25396
693 626697 219841
694 993310 596590
695 719866 117120
696 726000 532968
697 790350 447983
698 589521 558653
699 687677 990843
700 511660 731255
701 977271 161394
702 194270 978770
703 936829 31691
704 518804 943815
705 272366 541533
706 134588 392243
707 1822 383281
708 197014 744163
709 268284 526455
710 600829 446512
711 100416 173047
712 320495 589669
713 903819 861049
714 542617 494441
715 132883 15327
716 251752 677897
717 753322 215320
718 405152 917223
719 847273 279459
720 828381 882533
721 951557 466854
722 995760 273354
723 16703 552953
724 212473 200680
725 544164 728472
726 16035 193235
727 857960 496332
728 479503 299374
729 408072 978950
730 573618 19605
731 184417 239345
732 115434 389832
733 589975 667734
734 396482 728468
735 366577 644061
736 531690 67603
737 982291 872357
738 430477 907180
739 315086 824162
740 110166 604444
741 452976 563667
742 920823 113278
743 830910 12406
744 562463 363489
745 625344 737418
746 520741 118805
747 912882 184320
748 350843 883954
749 484562 123402
750 842877 109523
751 237866 388310
752 90514 939719
753 275495 452367
754 272411 744682
755 665421 467096
756 736911 44583
757 353605 836199
758 498864 65611
759 326462 931113
760 38989 706021
761 183171 273079
762 885591 257054
763 406194 143379
764 977088 42572
765 596862 978109
766 634768 570404
767 158741 643069
768 867533 408392
769 210062 84623
770 614414 765298
771 685944 631349
772 324499 919323
773 554246 247661
774 233214 655828
775 778126 207463
776 906865 441989
777 526540 864767
778 474754 667462
779 229569 447445
780 72185 867102
781 242305 187787
782 130268 900123
783 781152 105561
784 720083 434281
785 281953 251202
786 832397 670634
787 152987 831525
788 799155 741182
789 746539 20823
790 782300 738731
791 913810 529642
792 970387 729759
793 735803 446981
794 440136 258617
795 861916 761972
796 688308 775780
797 802670 363211
798 932901 15309
799 478361 492974
800 120167 813064
801 501122 212391
802 873527 39394
803 293653 377222
804 471602 796781
805 128964 27773
806 227325 970951
807 585529 310213
808 178793 466525
809 385117 767056
810 967221 765842
811 627200 227109
812 314114 468888
813 750080 620005
814 797106 113593
815 537872 421933
816 269579 949758
817 891858 754526
818 511406 942858
819 944113 660174
820 550965 269278
821 61863 673080
822 291396 96073
823 134771 461199
824 461666 333782
825 613131 312895
826 218203 364767
827 955101 698234
828 543484 551364
829 320532 119001
830 527987 350794
831 433108 811428
832 245815 859685
833 965909 554245
834 679554 489455
835 175441 717594
836 4858 51334
837 153925 654325
838 547639 262432
839 272007 615879
840 925403 198715
841 299473 678105
842 585606 187077
843 988824 458151
844 703942 32172
845 788617 957161
846 263303 454658
847 484732 833371
848 264419 10529
849 519154 637070
850 548434 872339
851 189191 845786
852 408378 414415
853 13422 540097
854 779161 768024
855 709410 85333
856 847421 288359
857 330383 570826
858 87490 978450
859 326695 412443
860 595266 955380
861 35090 42484
862 941021 303102
863 528403 159072
864 642956 739510
865 640903 7541
866 483271 503983
867 906469 840070
868 351294 11113
869 347721 14779
870 99586 10373
871 131455 291499
872 436906 833237
873 922070 220819
874 513637 181630
875 304968 105347
876 367572 779644
877 996167 540892
878 389067 685207
879 939317 568308
880 63120 2308
881 192375 764381
882 668437 699036
883 953878 555921
884 851452 497146
885 648756 866670
886 464812 145064
887 107475 489918
888 587807 255446
889 46316 400128
890 914034 843195
891 219754 74648
892 676389 638594
893 815166 718889
894 835546 207432
895 886192 795372
896 159660 850575
897 366023 232915
898 545560 986390
899 184024 946987
900 245429 666623
901 174503 113508
902 267595 461772
903 885592 292923
904 103254 357573
905 725726 670177
906 849661 731885
907 682115 267748
908 842648 341799
909 398358 435521
910 153476 967487
911 371897 904465
912 251716 982132
913 692167 351304
914 877469 645702
915 604326 294884
916 152191 688742
917 674402 243856
918 993534 487869
919 392532 408641
920 795946 473366
921 320531 400024
922 53955 918704
923 423474 255195
924 598858 383890
925 540748 194256
926 108921 538321
927 342661 950545
928 514431 485760
929 439106 23739
930 468237 397723
931 900391 694613
932 561627 252359
933 349646 449636
934 677929 763411
935 844273 587452
936 742941 14467
937 894773 959219
938 858565 833576
939 561803 301171
940 467700 206406
941 912197 853729
942 177464 206603
943 394492 457578
944 127115 422042
945 894210 543897
946 809939 629121
947 564367 208493
948 730425 306063
949 505251 94736
950 60139 589898
951 693391 297687
952 916190 334341
953 282058 255191
954 360856 136058
955 556052 56853
956 358645 17063
957 129528 924340
958 587783 271269
959 130245 353133
960 521934 43582
961 944385 583193
962 703272 254374
963 894060 445253
964 98277 560431
965 677160 603374
966 472719 425745
967 745119 410847
968 847761 895133
969 724201 253124
970 618819 123223
971 327332 773981
972 900107 850628
973 599512 226746
974 925849 309993
975 314433 285171
976 207786 944820
977 417575 456765
978 117178 267646
979 552567 505343
980 486580 386925
981 530990 107731
982 517238 432829
983 729520 584663
984 116956 278900
985 324827 361036
986 345420 820252
987 38700 236763
988 835795 999565
989 165618 246506
990 137196 626414
991 892686 592934
992 73850 290235
993 72383 364987
994 908507 312290
995 681326 263097
996 778177 445300
997 928297 257782
998 777802 507080
999 735281 663344
1000 14832 599947
