NAME : portgen-1500-1504
COMMENT : portgen N=1500, seed=1504
TYPE : TSP
DIMENSION : 1500
EDGE_WEIGHT_TYPE : EUC_2D
NODE_COORD_SECTION
1 187440 538621
2 317319 239408
3 53923 708107
4 238822 257193
5 680000 202525
6 188397 381388
7 331487 262108
8 678811 875133
9 429568 873043
10 316259 346989
11 272234 77243
12 944600 197973
13 741625 400841
14 756809 872614
15 170835 156023
16 853478 411923
17 161357 380137
18 846310 6603
19 19305 207793
20 878163 920751
21 47309 561483
22 422519 386666
23 301195 854541
24 877368 950179
25 419130 965363
26 581324 311357
27 85595 648776
28 438005 775517
29 377263 937182
30 393097 47320
31 688802 31028
32 379030 759248
33 155215 626913
34 958869 944821
35 960913 824269
36 997764 479388
37 453912 350895
38 765665 960876
39 991647 295823
40 759967 966107
41 23577 819626
42 479516 123514
43 467221 822450
44 32892 402109
45 224921 219396
46 47733 74483
47 246880 53893
48 922987 567920
49 107570 71623
50 621000 340318
51 862894 581544
52 190212 453022
53 941785 761697
54 831840 962081
55 181554 615555
56 742625 975154
57 712260 173701
58 999586 614318
59 784147 325137
60 836261 587295
61 519342 887246
62 323821 620595
63 961374 416220
64 289176 889
65 409110 3968
66 129036 29565
67 114268 144411
68 223482 48422
69 107365 305815
70 123928 852902
71 38302 707754
72 565847 637625
73 700054 160487
74 750662 626285
75 92518 506766
76 278744 106680
77 662513 617032
78 211281 833328
79 467275 45800
80 229540 893362
81 654331 526025
82 838152 328652
83 577253 34870
84 409307 74635
85 473646 839098
86 863656 157862
87 232619 329494
88 308551 412661
89 224733 706788
90 409313 128045
91 948944 243375
92 771349 515747
93 349636 603010
94 191412 785616
95 567157 188612
96 639115 32730
97 832168 284829
98 989246 880439
99 475135 236352
100 329074 287392
101 935754 43873
102 216972 964472
103 557822 35368
104 335331 146765
105 267395 608271
106 641915 681659
107 478643 40927
108 254246 621600
109 693857 553323
110 339405 696813
111 559734 172954
112 745561 186254
113 903344 819782
114 940890 268146
115 771672 273182
116 77330 77967
117 439392 801042
118 486130 267285
119 764732 730422
120 261500 728036
121 909153 638089
122 446210 870343
123 628878 466161
124 287169 645913
125 381485 169464
126 939549 206989
127 464680 55891
128 210061 857786
129 604481 415930
130 478342 290537
131 270636 604909
132 885264 539359
133 699117 3826
134 235448 608299
135 412049 788085
136 334431 47943
137 171838 169941
138 757264 352745
139 708274 689669
140 976192 45557
141 215301 524959
142 789804 481135
143 2546 472421
144 192703 900033
145 101924 482303
146 31836 156433
147 318372 473415
148 393605 861210
149 466251 276269
150 113079 276133
151 757886 597499
152 669720 335927
153 954163 414589
154 417185 983544
155 53344 737640
156 665083 704447
157 314005 996038
158 258700 114203
159 286536 411849
160 145754 837907
161 537574 959179
162 495219 135916
163 30198 736931
164 378222 835911
165 215778 342674
166 935559 724729
167 636325 238552
168 380474 510853
169 210954 793765
170 222434 888343
171 185884 780853
172 754279 264017
173 944728 72657
174 661213 182455
175 443216 656674
176 482987 630340
177 60491 770405
178 340573 33157
179 961174 431168
180 955452 443310
181 203635 623419
182 761110 165001
183 551755 884229
184 950168 49988
185 51309 186043
186 452989 104080
187 968633 489080
188 354919 907234
189 898687 724814
190 795343 997041
191 775756 947054
192 880458 772468
193 139038 312140
194 963619 471323
195 686797 496244
196 560684 160965
197 742455 36391
198 435354 81803
199 812220 265198
200 909097 37494
201 173969 936399
202 387112 446174
203 880917 535933
204 749881 288023
205 631366 28432
206 69537 489850
207 744370 459207
208 882625 42669
209 880963 724719
210 729647 469951
211 72009 684969
212 140890 13815
213 12073 516590
214 716968 522458
215 608162 818985
216 157352 610664
217 93447 766910
218 927503 285905
219 202683 421250
220 889842 96368
221 431176 238900
222 741676 216845
223 424235 875714
224 20074 728640
225 24317 918764
226 364835 289761
227 657036 90112
228 880141 563304
229 842951 620202
230 518671 595012
231 333250 328630
232 398180 534997
233 597256 830637
234 748174 527525
235 34972 6911
236 22595 152323
237 700401 810883
238 105116 782247
239 27933 50778
240 133673 448769
241 673638 96766
242 3787 13150
243 485735 828721
244 212484 558449
245 169653 96865
246 537731 675158
247 386278 882931
248 73773 278852
249 538498 930793
250 111729 641987
251 847780 969296
252 594966 575547
253 245125 268069
254 285974 643885
255 604377 51420
256 350820 284501
257 450548 421805
258 57280 658092
259 942352 515249
260 461223 318403
261 292139 817380
262 415795 392984
263 159130 53298
264 557356 124853
265 565757 837047
266 496273 384048
267 446400 82253
268 97948 389136
269 646217 581981
270 955869 827642
271 886369 697234
272 97226 851249
273 804726 720351
274 259362 993293
275 723800 20475
276 721495 413644
277 365036 274682
278 145714 463732
279 522896 512713
280 477599 855989
281 621851 703993
282 688015 776734
283 165051 653586
284 187275 599298
285 617079 336929
286 398730 949059
287 791449 440748
288 596907 878494
289 452343 141113
290 247270 695398
291 530401 44643
292 647254 709767
293 215195 792280
294 696032 669665
295 917202 444362
296 201860 46919
297 964902 618940
298 428912 937310
299 905784 656478
300 254341 926232
301 268007 118248
302 746022 28402
303 490073 676852
304 766390 655269
305 59486 353434
306 767700 853230
307 595510 33236
308 654129 574932
309 739090 69075
310 347822 227741
311 747801 530797
312 344956 690846
313 68921 280481
314 203036 763047
315 950674 920055
316 112104 797074
317 81627 893836
318 927697 677171
319 449133 614018
320 55638 640263
321 53189 626956
322 321843 689461
323 696561 671063
324 701962 274055
325 550018 148431
326 734273 142737
327 705803 334286
328 814127 470933
329 36621 852186
330 100704 812902
331 227719 152371
332 599630 419222
333 300244 140743
334 531386 906049
335 336675 983066
336 872969 465034
337 519056 199391
338 493467 605063
339 824993 10670
340 876719 597988
341 243860 350850
342 662342 137772
343 692336 959732
344 197443 662404
345 593592 786954
346 145784 543083
347 277342 72572
348 767294 588154
349 107900 122452
350 195994 91497
351 846069 691292
352 397336 952029
353 904570 383423
354 480394 568031
355 641949 854395
356 273489 374216
357 258593 313749
358 667117 684635
359 875029 527058
360 651928 712089
361 32843 408934
362 710055 245177
363 136996 181676
364 67698 567027
365 294820 110043
366 124669 256962
367 368721 22323
368 324499 869643
369 92256 348592
370 470654 7701
371 84703 670385
372 10476 881502
373 754111 736850
374 833028 32165
375 935575 585617
376 520456 540873
377 827632 85950
378 966828 589107
379 322571 375012
380 627530 34927
381 291166 131801
382 97377 634247
383 769692 603103
384 363740 377091
385 559638 930267
386 851606 842863
387 591482 66310
388 191633 491970
389 581302 624105
390 278349 547889
391 859105 692685
392 939496 259892
393 818877 992867
394 159584 734473
395 252631 721395
396 505903 715165
397 788954 540386
398 156094 241839
399 78902 944165
400 689869 262141
401 155548 208923
402 753815 387685
403 726511 827770
404 601376 567739
405 267073 973961
406 429522 588097
407 122381 906135
408 529024 576001
409 342847 556990
410 478152 527852
411 524201 419574
412 687222 297497
413 774719 642683
414 89048 203796
415 339799 363862
416 890593 13562
417 357031 304388
418 118367 271008
419 570304 33361
420 730868 242875
421 650019 602594
422 256320 724778
423 197194 86328
424 27943 491456
425 765667 513411
426 152790 875106
427 604366 326006
428 371547 141985
429 851891 449427
430 269318 455503
431 257466 568015
432 836871 24197
433 323941 826928
434 331776 397602
435 708940 442695
436 548058 851390
437 791323 964740
438 375061 649095
439 815207 361215
440 925949 632733
441 790791 639620
442 934478 884295
443 106395 322578
444 176690 332833
445 980447 291439
446 939231 172701
447 324420 288172
448 694816 798629
449 811270 291580
450 349716 548099
451 271120 666727
452 565507 132933
453 722620 513170
454 940627 720071
455 219611 48969
456 965294 519057
457 468980 977879
458 516271 84765
459 243594 548699
460 329381 525312
461 15657 40196
462 47885 160841
463 171575 881330
464 285883 658390
465 242120 861891
466 708467 95136
467 141603 876980
468 667439 271733
469 170640 956598
470 368023 21630
471 78983 627991
472 3452 455134
473 275781 899035
474 124815 163578
475 116596 813485
476 512745 152880
477 49460 487824
478 839632 175983
479 525124 688527
480 465494 450887
481 342529 984029
482 352047 197981
483 969985 337303
484 515605 13845
485 702097 617236
486 959949 80015
487 432102 515895
488 12566 862776
489 990736 560061
490 321209 995591
491 356206 597356
492 192895 791233
493 519362 724437
494 743089 943622
495 906994 330135
496 756128 156795
497 254501 750787
498 61680 998968
499 195888 487556
500 442568 413004
501 908298 564754
502 842369 121004
503 457278 915389
504 959984 258226
505 968462 115194
506 432894 581502
507 781532 135358
508 694758 185734
509 729527 601259
510 136301 971017
511 141414 28048
512 571277 289092
513 708937 395195
514 237646 311097
515 58616 97177
516 902792 732509
517 591598 206015
518 562697 774704
519 815823 57537
520 96474 333628
521 994910 141829
522 807320 935977
523 188721 728079
524 585517 965408
525 41849 666484
526 761322 884791
527 428939 345390
528 510212 175789
529 973155 636354
530 558307 682574
531 99565 902447
532 161752 634834
533 120283 291064
534 774181 845555
535 946637 966678
536 600216 764118
537 559410 469816
538 209695 256623
539 599108 225886
540 778880 533148
541 422039 601292
542 752790 376042
543 997611 344
544 570756 956764
545 85731 271633
546 523 970268
547 110899 129795
548 733411 230791
549 582419 337503
550 726281 932097
551 128971 359631
552 186528 508701
553 244444 160030
554 132000 52897
555 347779 509867
556 605032 16391
557 550622 286673
558 682051 129297
559 791547 31956
560 901422 889492
561 708644 436677
562 119273 14539
563 837707 240584
564 577590 50708
565 225371 49665
566 124623 546210
567 878106 269012
568 928115 405648
569 50669 466117
570 693990 868314
571 208797 538800
572 55342 196239
573 562988 563845
574 850994 96360
575 292088 492827
576 653201 531711
577 112132 676616
578 807474 582760
579 481524 917516
580 580585 838796
581 109360 665883
582 358906 479465
583 301070 66232
584 961049 354383
585 723684 118205
586 278303 695187
587 739868 408595
588 236291 176933
589 324545 442656
590 207064 254946
591 759059 660073
592 470122 386575
593 940304 458739
594 187303 398641
595 967941 861883
596 444599 696286
597 742432 575784
598 590010 513609
599 798931 646746
600 959947 386055
601 239300 408337
602 889295 37141
603 733767 993127
604 61588 725556
605 736312 348734
606 395456 82882
607 949575 718702
608 394197 413074
609 923450 783121
610 889454 787461
611 267300 314302
612 394435 337629
613 878905 869965
614 805891 702726
615 674828 243163
616 115345 598988
617 706344 858330
618 859489 676176
619 710498 751419
620 992377 527230
621 535289 404181
622 509187 180480
623 594582 130296
624 301850 404802
625 696878 720045
626 707717 96205
627 971918 716784
628 270710 640311
629 701993 30965
630 177652 57590
631 282629 310168
632 733178 209081
633 813445 991274
634 573695 769095
635 124120 263900
636 111224 518647
637 86243 169408
638 79743 171095
639 342383 677651
640 66919 238594
641 167972 774926
642 525074 617237
643 960534 805176
644 865809 497262
645 44884 868215
646 102481 941403
647 627299 728477
648 416006 16641
649 317938 339778
650 100737 423487
651 787913 624199
652 337883 458284
653 552073 932791
654 571130 354680
655 756249 465533
656 774501 204730
657 986081 309436
658 955108 341225
659 682868 4701
660 793075 796804
661 673335 233916
662 668357 700633
663 475987 487025
664 180764 627958
665 617335 146951
666 599964 987702
667 921401 601385
668 464093 963241
669 788845 215637
670 662129 619309
671 122307 861108
672 704186 248079
673 194879 868565
674 273045 926666
675 252489 928981
676 835876 689980
677 722443 953785
678 823522 800210
679 702797 736498
680 994191 588831
681 143946 355493
682 692551 136940
683 343226 913393
684 500543 738001
685 114557 86543
686 68179 756202
687 752212 864094
688 960928 983355
689 511472 714572
690 877110 675777
691 784227 444266
692 633767 28503
693 3005 244471
694 295150 784461
695 258158 550699
696 462697 50843
697 101079 575585
698 551129 366105
699 108896 840091
700 287151 211523
701 357092 558472
702 49555 576712
703 144753 391610
704 56212 693940
705 950779 579050
706 505059 918336
707 478339 443491
708 126133 93102
709 254413 116966
710 585811 977121
711 804497 660452
712 450850 903034
713 729451 509706
714 706646 175500
715 719341 569317
716 927143 817532
717 763792 298060
718 170718 865891
719 965926 190276
720 902369 909903
721 990058 178184
722 198649 281037
723 746202 802245
724 599993 198045
725 846134 41422
726 659459 933395
727 120750 717833
728 284380 539559
729 794680 751495
730 405994 278861
731 425684 865935
732 791570 40876
733 588991 326874
734 719686 197301
735 697288 323888
736 493109 56367
737 270832 544389
738 317662 871101
739 539701 733016
740 618654 189891
741 715026 955150
742 769505 440480
743 143633 61207
744 25962 722915
745 709068 843843
746 146205 768624
747 492988 578481
748 416793 933690
749 907352 654260
750 963375 875101
751 262543 866976
752 579391 656242
753 326395 704308
754 163889 680270
755 574200 223172
756 513597 71764
757 42426 562150
758 132656 657059
759 372947 213089
760 624083 655300
761 419522 65426
762 233925 822187
763 61344 626132
764 476976 614589
765 217994 613353
766 707211 859431
767 158816 395481
768 676294 643262
769 912723 207355
770 307823 486574
771 688260 812873
772 98832 53767
773 424321 80778
774 534698 670801
775 517136 790661
776 456714 292762
777 436266 350022
778 167889 403111
779 708160 183909
780 979947 683133
781 791584 956534
782 372446 87626
783 534912 700724
784 972931 988659
785 137829 51877
786 122360 702146
787 695952 833421
788 198586 126759
789 629160 883903
790 654297 658232
791 917972 293066
792 634642 534861
793 821768 750676
794 486985 71190
795 860569 975570
796 670330 924064
797 69525 255945
798 364214 986113
799 116921 265411
800 855181 297561
801 451618 650795
802 16503 858904
803 872689 163647
804 658120 901405
805 528253 417213
806 916126 636970
807 323340 4377
808 12802 867520
809 887008 116501
810 723411 548798
811 583802 707520
812 133477 840267
813 600259 471565
814 685642 837047
815 960732 34938
816 468638 727755
817 355650 237084
818 742105 281001
819 969726 630265
820 522058 954248
821 863667 370483
822 347778 311771
823 391767 962810
824 790586 229258
825 655686 892649
826 300471 279873
827 304678 820243
828 828923 723863
829 295145 779419
830 116798 591687
831 193921 27855
832 379346 574005
833 553545 545642
834 289192 11568
835 612609 49991
836 76933 657750
837 460814 830762
838 248327 303929
839 402841 313234
840 11344 876395
841 176419 906222
842 720248 369045
843 841017 440782
844 348408 781644
845 683538 196462
846 991809 958157
847 17655 472066
848 877314 205917
849 909669 517015
850 63444 87838
851 559968 477351
852 217914 779290
853 716229 394248
854 559624 935633
855 979225 388140
856 375454 513500
857 95881 920335
858 599877 235763
859 10199 907279
860 696691 347628
861 635973 772176
862 948124 524771
863 490023 599582
864 439836 681524
865 114533 854078
866 744304 467208
867 334008 623203
868 500940 662919
869 810341 799912
870 769167 605253
871 430583 441129
872 84953 335910
873 560489 219632
874 10033 492884
875 982043 277732
876 766080 228144
877 402481 209365
878 343533 92759
879 143342 594710
880 278349 53309
881 583906 759712
882 166466 373971
883 957557 934325
884 428547 759970
885 359846 380244
886 225730 517315
887 925235 418959
888 581547 407828
889 369695 738759
890 181237 397263
891 456239 845125
892 403174 61224
893 270172 984592
894 300742 960037
895 665646 566615
896 234371 50371
897 440065 388922
898 379523 913267
899 515893 665993
900 754362 152660
901 849937 271273
902 311647 584779
903 821492 920954
904 824970 341257
905 939192 358941
906 792017 183305
907 929064 711734
908 818937 533535
909 319646 777543
910 994447 44289
911 418431 762553
912 5607 207186
913 530307 954456
914 205667 340456
915 597466 660592
916 582858 28438
917 799566 822295
918 605246 272933
919 916061 691440
920 242286 736636
921 664946 523198
922 965589 621356
923 148183 471818
924 44763 232879
925 858614 425067
926 707600 175437
927 68527 93770
928 569801 821499
929 471707 489351
930 979533 548559
931 4893 133530
932 98970 202555
933 693994 268818
934 217716 307707
935 563550 347119
936 488772 86766
937 918929 569380
938 336689 242994
939 694026 911837
940 637384 708808
941 482749 716316
942 360922 48906
943 655699 449328
944 929467 597010
945 128301 336427
946 55216 608353
947 127889 895167
948 247864 578180
949 604269 396208
950 284666 905189
951 777791 132925
952 595495 149806
953 942318 991283
954 814514 19620
955 438070 120473
956 892031 874696
957 361050 643105
958 493343 396539
959 5640 203803
960 954691 115814
961 664549 821507
962 23040 658361
963 569327 355846
964 491271 769122
965 627061 345405
966 428479 674405
967 473767 516910
968 816777 608052
969 355265 717817
970 555563 259160
971 443687 725664
972 642319 12486
973 671878 233708
974 585312 469527
975 325839 892017
976 86908 835146
977 769147 939261
978 476709 103385
979 659158 78584
980 333029 334265
981 636018 96697
982 464056 178909
983 676786 166366
984 232377 348564
985 971227 259634
986 811226 536113
987 877964 62674
988 28906 829402
989 52360 83779
990 181652 465941
991 696688 412686
992 436093 292796
993 709387 331782
994 210349 294857
995 840124 650410
996 375675 6701
997 746589 295929
998 447934 907574
999 847700 579645
1000 983580 842475
1001 181348 501533
1002 287875 859897
1003 195328 674221
1004 399053 476350
1005 229873 144927
1006 893036 364300
1007 238460 682618
1008 958589 629316
1009 350108 168127
1010 730975 769212
1011 318666 652732
1012 364983 128752
1013 78285 309692
1014 248237 18066
1015 867345 354684
1016 430349 576009
1017 853905 36724
1018 572905 332388
1019 174226 753474
1020 334206 80070
1021 981673 42221
1022 563882 70912
1023 331743 722943
1024 641717 617837
1025 217643 138241
1026 659336 829633
1027 712299 628895
1028 412125 605338
1029 647627 251150
1030 286992 862940
1031 499994 645578
1032 142143 149803
1033 163253 850814
1034 800418 167548
1035 350875 235645
1036 987599 732270
1037 950483 592734
1038 109875 489033
1039 940432 736088
1040 716626 472947
1041 662065 997086
1042 731074 4405
1043 854689 784771
1044 433865 704102
1045 873471 722090
1046 531969 6678
1047 402599 98561
1048 92471 249403
1049 91738 971148
1050 961036 842710
1051 782511 905629
1052 901211 744696
1053 476176 662249
1054 98558 707894
1055 774206 627354
1056 171472 943525
1057 377679 564902
1058 330970 493316
1059 242979 43582
1060 57331 913850
1061 759076 829270
1062 206511 508165
1063 453134 81969
1064 831059 205786
1065 116557 447625
1066 390474 232537
1067 961882 89271
1068 301474 718539
1069 619407 166172
1070 673435 361373
1071 541792 390282
1072 646770 959620
1073 963013 702699
1074 800167 894434
1075 645426 10502
1076 418343 885951
1077 854590 513411
1078 452235 549973
1079 943747 811939
1080 443222 757636
1081 42842 932386
1082 34459 412832
1083 85562 781189
1084 296754 418058
1085 601888 628270
1086 693149 348544
1087 398155 46829
1088 495506 873124
1089 974680 693100
1090 55929 903160
1091 138222 19119
1092 762563 358921
1093 404782 458087
1094 198078 549049
1095 3708 520284
1096 421785 201348
1097 564283 45164
1098 668223 193247
1099 992127 599941
1100 464114 89889
1101 728019 107066
1102 838504 742266
1103 872280 399224
1104 123388 495669
1105 108628 994148
1106 351894 394698
1107 808231 922938
1108 335850 841494
1109 368103 989295
1110 744609 892315
1111 789062 696812
1112 953944 511999
1113 900251 586082
1114 510039 655889
1115 174549 96282
1116 749736 479010
1117 584472 61780
1118 551265 743523
1119 210887 839625
1120 23070 563288
1121 89984 208783
1122 804440 111392
1123 731221 724972
1124 247403 52284
1125 144913 82141
1126 683207 336237
1127 425392 367831
1128 340152 249008
1129 522594 776724
1130 191000 128756
1131 188336 283762
1132 472598 545339
1133 904164 143111
1134 590258 696838
1135 191717 610878
1136 594090 315819
1137 844381 662467
1138 209108 452825
1139 271420 586112
1140 171846 651242
1141 63487 733315
1142 464888 45792
1143 907945 465973
1144 6412 39132
1145 157616 408154
1146 153265 514049
1147 647907 412192
1148 969197 774165
1149 364401 141972
1150 902284 278395
1151 453551 661290
1152 880437 493670
1153 18654 949891
1154 871348 379599
1155 459886 874179
1156 242596 483462
1157 619107 782846
1158 975491 674287
1159 635854 60406
1160 576141 129998
1161 778709 448285
1162 794554 913321
1163 157326 932800
1164 435382 350711
1165 643813 259217
1166 581476 891821
1167 126226 297667
1168 408646 580025
1169 114208 682042
1170 70301 233658
1171 830118 946005
1172 462990 27617
1173 629444 704979
1174 719494 734586
1175 254865 36397
1176 338783 13690
1177 498159 643066
1178 696919 561729
1179 535063 582769
1180 85023 438628
1181 835682 189306
1182 309297 226227
1183 44060 296590
1184 20471 591489
1185 153402 270511
1186 954792 901268
1187 805541 539744
1188 791215 765019
1189 950126 151487
1190 216402 595596
1191 397736 852612
1192 265687 205184
1193 423534 392170
1194 582523 899999
1195 253607 112056
1196 559553 522719
1197 528640 799789
1198 278866 928850
1199 140464 923246
1200 236402 864424
1201 754853 568007
1202 518184 659268
1203 638660 486170
1204 748002 292974
1205 219532 304749
1206 979206 635064
1207 329161 972967
1208 879075 312963
1209 660666 509507
1210 947361 115210
1211 156125 97225
1212 355087 288977
1213 515658 386784
1214 383084 146272
1215 901083 305045
1216 17017 657151
1217 931955 911652
1218 616390 762672
1219 523451 292720
1220 326109 110571
1221 731503 73016
1222 952638 138397
1223 955930 462327
1224 167632 239663
1225 284131 892081
1226 545766 994192
1227 22162 931356
1228 847407 97701
1229 636051 606531
1230 42878 875988
1231 962719 455282
1232 966865 108960
1233 573245 906189
1234 682425 190764
1235 17037 416747
1236 145330 421003
1237 225376 55279
1238 569443 161933
1239 75063 423730
1240 441569 417957
1241 750733 776552
1242 103394 25095
1243 342326 561735
1244 690286 822995
1245 338407 710200
1246 80247 332686
1247 275683 909361
1248 965240 310500
1249 847639 897358
1250 568953 793996
1251 387264 743901
1252 798093 866174
1253 141348 769213
1254 890797 997067
1255 589029 285671
1256 407414 813056
1257 268124 332677
1258 795741 630032
1259 179598 57503
1260 143719 262744
1261 58550 785066
1262 621810 223040
1263 29483 401429
1264 622909 359202
1265 913931 800230
1266 271135 77995
1267 834701 155897
1268 10542 937676
1269 508428 770717
1270 229353 712294
1271 382136 632782
1272 679275 75663
1273 651650 295180
1274 710876 52642
1275 879878 563811
1276 687591 488437
1277 983427 768723
1278 522861 309268
1279 909200 642195
1280 855631 203671
1281 260785 120080
1282 767713 876735
1283 903535 774632
1284 133780 192461
1285 681026 500561
1286 919156 126956
1287 177625 579907
1288 575153 570112
1289 801639 853087
1290 700179 720214
1291 492229 980714
1292 503570 710259
1293 539444 151055
1294 310282 957965
1295 252362 235910
1296 803895 315967
1297 89691 728792
1298 793137 255180
1299 455157 99367
1300 500509 81538
1301 493540 857788
1302 352463 159663
1303 71581 706876
1304 984866 273168
1305 229279 371805
1306 998986 951234
1307 389832 619721
1308 399776 944818
1309 30389 38920
1310 83598 648355
1311 319475 34412
1312 691951 599487
1313 7020 61367
1314 774492 17962
1315 508326 868276
1316 585245 528471
1317 623808 328373
1318 721228 540994
1319 590881 883848
1320 310483 594625
1321 120666 271361
1322 874367 604007
1323 916434 769483
1324 624015 490203
1325 721772 731769
1326 480688 437194
1327 591041 632232
1328 496292 965069
1329 233980 24090
1330 438434 530587
1331 115994 101018
1332 962684 634653
1333 251139 727624
1334 76867 785825
1335 703286 630293
1336 320802 540186
1337 317147 351828
1338 167667 882280
1339 443370 59718
1340 103195 41950
1341 827387 750402
1342 579527 977739
1343 752282 484227
1344 565786 989155
1345 77234 993604
1346 464127 805056
1347 180562 680190
1348 273823 580480
1349 954214 522539
1350 436340 34154
1351 326112 564297
1352 387008 679821
1353 904382 730285
1354 857667 613302
1355 879950 12065
1356 399282 244825
1357 946855 444830
1358 66459 310938
1359 920456 282494
1360 360829 670659
1361 773409 554328
1362 349485 669132
1363 304181 756505
1364 153177 637325
1365 447445 437381
1366 24612 830068
1367 179767 91129
1368 642667 582561
1369 803546 134697
1370 911279 441344
1371 563771 283291
1372 628325 406575
1373 220194 909799
1374 455571 511429
1375 376009 517318
1376 427302 316888
1377 75093 998958
1378 9541 496043
1379 384529 295878
1380 37154 321820
1381 926739 722970
1382 702023 438606
1383 448293 115990
1384 616499 540280
1385 224635 156660
1386 855367 409026
1387 906485 843511
1388 243356 456521
1389 479234 350526
1390 659590 808137
1391 371975 857299
1392 600171 125624
1393 510642 301642
1394 128044 741161
1395 642835 526676
1396 966062 263266
1397 910061 754619
1398 585976 154745
1399 376806 784814
1400 163218 763672
1401 430565 105044
1402 851838 567871
1403 145343 570003
1404 716716 949469
1405 488316 707899
1406 367999 643368
1407 653042 510477
1408 355758 663472
1409 812908 947404
1410 852629 293548
1411 739184 831685
1412 377062 460962
1413 726094 750322
1414 557187 338613
1415 698168 673353
1416 739805 529764
1417 862209 951691
1418 440137 728606
1419 204256 89694
1420 769865 847169
1421 488733 180640
1422 888531 349286
1423 787492 134376
1424 886204 449098
1425 28524 835654
1426 597557 38192
1427 86645 489864
1428 23867 900800
1429 242834 900146
1430 127733 416736
1431 365746 627021
1432 179603 641147
1433 219165 187358
1434 754837 303755
1435 722984 221382
1436 777268 363809
1437 918879 16975
1438 695991 700991
1439 745039 887197
1440 437095 825294
1441 507487 657041
1442 210879 281431
1443 307607 112783
1444 350161 221062
1445 732526 252779
1446 973769 900500
1447 366709 548483
1448 69900 124923
1449 261760 871556
1450 653295 86500
1451 389336 999006
1452 12003 203230
1453 328166 940516
1454 827312 805214
1455 182257 911084
1456 550639 21772
1457 167620 874954
1458 442967 465245
1459 260311 631119
1460 571246 94241
1461 925598 883280
1462 650460 636484
1463 832045 778261
1464 351806 715649
1465 688808 755475
1466 873679 939825
1467 704939 526010
1468 274654 485714
1469 489420 335924
1470 838464 842361
1471 852471 719041
1472 649815 638284
1473 327181 90488
1474 250040 730225
1475 716438 291638
1476 773117 546110
1477 182747 897819
1478 212821 449510
1479 294067 485992
1480 928575 842451
1481 451095 491387
1482 966749 339896
1483 58612 831597
1484 371957 529335
1485 547773 352478
1486 215205 530086
1487 914681 279608
1488 321124 379487
1489 700533 752640
1490 423663 382534
1491 484194 865813
1492 787074 846356
1493 304379 382291
1494 973076 365043
1495 467398 443057
1496 113757 960085
1497 788151 485986
1498 627155 322385
1499 804360 370207
1500 317160 947694
