NAME : portgen-300-304
COMMENT : portgen N=300, seed=304
TYPE : TSP
DIMENSION : 300
EDGE_WEIGHT_TYPE : EUC_2D
NODE_COORD_SECTION
1 408386 687478
2 299504 41116
3 272165 568604
4 499409 359943
5 423189 340247
6 6513 588610
7 97925 310738
8 437729 98941
9 20128 6944
10 590969 311435
11 194297 881017
12 667090 339060
13 266018 670573
14 230183 856116
15 19663 599243
16 766316 362267
17 917336 669862
18 882355 399278
19 285778 929460
20 452275 726635
21 53086 593031
22 159891 551374
23 472623 544603
24 949679 729769
25 347000 733277
26 732232 166868
27 65773 693799
28 999816 46118
29 770142 629642
30 158761 872887
31 282825 569949
32 907667 696553
33 287161 413481
34 428719 546550
35 838115 893126
36 149262 290358
37 659944 857692
38 579202 27428
39 815243 973290
40 339243 219899
41 900431 600541
42 697355 146775
43 316417 196367
44 454599 220783
45 382700 468873
46 970558 739228
47 91345 559149
48 577373 762727
49 933087 302198
50 972172 445194
51 729360 976388
52 390525 127100
53 832846 131691
54 469513 918997
55 377382 803449
56 591518 549359
57 246941 689888
58 902329 543597
59 478603 348518
60 119179 524434
61 480394 126520
62 574378 392921
63 163766 172873
64 899832 532843
65 24846 447510
66 557915 896245
67 595908 535794
68 628381 351071
69 353599 7466
70 244446 772819
71 717763 106080
72 101603 858266
73 988478 844037
74 164849 698424
75 395383 404499
76 862894 400243
77 277352 524661
78 887278 833114
79 380480 854731
80 498719 481774
81 778091 462046
82 674550 604562
83 85685 485437
84 447756 388675
85 701409 58291
86 378748 780179
87 953135 714680
88 661540 80150
89 849168 49716
90 505642 330651
91 792392 45101
92 34124 543072
93 669419 95868
94 221694 991345
95 450109 142943
96 903315 964924
97 306057 186155
98 394071 937584
99 152945 386923
100 196725 908328
101 994869 115132
102 192781 64731
103 612107 817792
104 366119 734280
105 855242 791410
106 611419 389134
107 404621 355776
108 578458 813166
109 155989 488395
110 210491 148101
111 332492 60833
112 191949 793080
113 63422 263615
114 587397 888404
115 102572 843747
116 714031 114887
117 194474 714232
118 719232 403257
119 640479 678348
120 964613 856252
121 939879 733299
122 780854 302008
123 810450 842482
124 772975 512976
125 122733 130455
126 350186 264541
127 284350 352978
128 194296 879982
129 920657 478549
130 345498 208849
131 177313 687770
132 769667 998989
133 851530 878119
134 608280 102613
135 545325 735976
136 40191 643012
137 365662 80035
138 797914 67951
139 776483 838970
140 598784 183439
141 342957 108848
142 542905 893723
143 666433 26260
144 345219 195484
145 862702 841112
146 794977 537865
147 133023 228636
148 816060 296867
149 367636 700818
150 504093 742499
151 65998 934004
152 914192 939293
153 787498 241338
154 721635 390626
155 686544 168036
156 534762 725173
157 615847 504385
158 413871 639447
159 554747 541031
160 182929 554663
161 510483 907461
162 598519 802825
163 669977 106187
164 728819 426369
165 292536 556576
166 346315 385856
167 152426 430747
168 648677 617784
169 493000 38520
170 479851 26986
171 471513 804188
172 12555 308038
173 330629 887515
174 939346 330197
175 558658 709872
176 568047 941267
177 408282 947517
178 396184 680142
179 781577 483444
180 290615 169714
181 748337 683115
182 910774 659558
183 696523 730573
184 712617 307808
185 173755 526356
186 700101 224549
187 982372 473056
188 986616 569216
189 499179 651002
190 406640 989835
191 324609 245375
192 135754 122822
193 808239 663200
194 475082 492867
195 734224 918104
196 905166 185192
197 864764 953495
198 326884 246963
199 821815 539498
200 321422 761413
201 388336 288343
202 923556 568822
203 385263 322671
204 805513 285459
205 139278 732984
206 205059 288710
207 749219 372510
208 264547 563144
209 818350 957279
210 332673 449559
211 908757 173118
212 986385 412342
213 138019 411758
214 300992 413550
215 87793 663944
216 763703 213720
217 511724 673656
218 784775 35899
219 496155 763243
220 858275 245094
221 844849 517803
222 160194 284665
223 9346 732047
224 198806 452422
225 815475 915126
226 945970 408265
227 451705 657478
228 997710 174615
229 776619 249900
230 784046 349363
231 826516 42269
232 427183 894183
233 888134 687256
234 128515 464554
235 363164 532499
236 364338 365928
237 141803 417546
238 503589 500492
239 721413 328907
240 414631 963404
241 635138 51092
242 629503 738429
243 837428 721433
244 786536 617540
245 785522 97518
246 907383 31601
247 400079 325776
248 880756 478921
249 375999 742647
250 781076 508854
251 10634 869899
252 37790 852071
253 279987 894877
254 778761 713275
255 820050 276277
256 388078 159078
257 464378 686527
258 441979 794914
259 642190 101407
260 13427 409213
261 311257 385867
262 683478 854309
263 521864 494438
264 328137 289731
265 137558 608711
266 721730 8137
267 508857 138354
268 575325 476060
269 586714 942976
270 296449 42513
271 79242 685129
272 604113 376308
273 786261 521515
274 348123 545769
275 803911 386317
276 150783 86267
277 605089 172365
278 787123 2496
279 361042 899436
280 276746 803927
281 308163 835785
282 416825 777536
283 197034 702949
284 554964 88069
285 900265 920463
286 446791 96420
287 297495 627110
288 258429 224989
289 780778 511113
290 67185 519367
291 133396 428701
292 12985 333631
293 300547 885945
294 591311 731320
295 941319 872375
296 921095 498645
297 42710 375986
298 595721 982822
299 387633 977003
300 117878 561272
