NAME : portgen-700-704
COMMENT : portgen N=700, seed=704
TYPE : TSP
DIMENSION : 700
EDGE_WEIGHT_TYPE : EUC_2D
NODE_COORD_SECTION
1 334737 637859
2 972109 107214
3 199418 948439
4 745880 992360
5 175459 294340
6 733808 519536
7 842446 294528
8 851423 357672
9 156608 295644
10 832732 989953
11 220276 279759
12 426260 958698
13 91220 580662
14 739058 861616
15 736720 118170
16 128704 712152
17 998676 573287
18 203673 935053
19 196954 688905
20 260904 458007
21 51160 915849
22 580767 829805
23 82147 647916
24 258909 803239
25 704377 810639
26 15263 215031
27 405714 12125
28 479213 622584
29 639182 398822
30 903540 264365
31 751484 56975
32 731455 717451
33 243179 817959
34 938769 12641
35 212381 203507
36 98763 353368
37 591267 22093
38 974690 5244
39 874044 414134
40 479484 468635
41 941479 340236
42 958075 472355
43 366685 71728
44 980697 281225
45 330107 385714
46 996283 184313
47 476523 57397
48 359244 697791
49 324581 558673
50 855115 76902
51 773871 844774
52 323754 235741
53 869159 675026
54 256955 933358
55 645439 407484
56 641887 357957
57 68714 517825
58 268081 567171
59 580451 674058
60 358207 545388
61 493377 380095
62 157525 135479
63 429635 253989
64 29614 355525
65 152934 299663
66 748289 940685
67 768695 72000
68 826748 583522
69 271521 440249
70 204273 799513
71 491276 306638
72 923017 784719
73 892337 616187
74 26787 341044
75 627761 105255
76 668177 969056
77 405739 555451
78 328613 833185
79 76079 251754
80 408992 285637
81 403504 816706
82 729084 845925
83 916208 335248
84 434939 283995
85 625488 651893
86 540384 239407
87 46296 252951
88 877210 524321
89 974356 602074
90 806866 596449
91 177910 777859
92 946532 867297
93 896158 931582
94 211600 922769
95 155792 491499
96 148582 987526
97 814761 552379
98 259129 251869
99 260342 670066
100 907508 368016
101 641831 424713
102 534178 31311
103 927345 890318
104 22523 538442
105 659293 397030
106 621584 153309
107 95962 917493
108 137054 415978
109 1945 176704
110 586796 664338
111 74906 764873
112 376486 257472
113 10062 115671
114 705228 14985
115 325606 986892
116 501797 435914
117 942780 409835
118 974865 24600
119 681897 29039
120 730242 480180
121 929637 34896
122 335973 491453
123 416593 383708
124 611039 557289
125 542317 143458
126 546640 245357
127 344460 920616
128 866218 205916
129 481932 124343
130 56446 902745
131 208421 993483
132 808199 179113
133 467392 586688
134 817336 604508
135 500900 753346
136 804938 444656
137 634387 443337
138 117697 829549
139 420413 455870
140 391253 804145
141 633738 580885
142 958538 422860
143 778471 508314
144 627714 763667
145 942442 388176
146 207263 77388
147 528139 976895
148 675242 484981
149 400508 892635
150 373755 587044
151 963294 155169
152 166035 738171
153 509720 965755
154 286818 921599
155 142144 357904
156 578202 718264
157 181900 668269
158 695481 131032
159 465343 831304
160 503871 982411
161 186180 924700
162 230753 913855
163 790051 649768
164 278620 896216
165 933617 151942
166 542730 498814
167 313725 33349
168 225943 915473
169 398985 290268
170 727379 647438
171 42970 796410
172 259796 960031
173 201996 282562
174 846635 614283
175 186844 25473
176 206360 504291
177 959018 221813
178 44314 464480
179 841443 132685
180 512227 594246
181 566769 996550
182 194219 494705
183 314933 781792
184 458468 221868
185 466273 412918
186 284397 851060
187 644459 478397
188 776050 681888
189 965682 8939
190 869541 325571
191 808325 145935
192 383988 339371
193 585172 546180
194 304594 819019
195 718415 444151
196 457005 177116
197 823994 314460
198 363041 191910
199 151950 781398
200 183981 520107
201 316880 837695
202 744742 861273
203 217147 60425
204 120302 619647
205 636640 498133
206 159885 22423
207 414270 68076
208 137240 389653
209 172555 879759
210 131664 123023
211 629841 677069
212 37887 946166
213 96037 446702
214 106318 783186
215 261249 715624
216 561586 346035
217 372298 371407
218 165685 785901
219 731664 315912
220 202131 195519
221 373625 424835
222 687355 595392
223 814309 779936
224 139229 877828
225 218422 916339
226 85592 368764
227 520149 468356
228 958520 970845
229 465396 373334
230 695588 431246
231 328760 804390
232 417515 441121
233 124508 735050
234 335068 818878
235 253766 357303
236 250423 294726
237 661336 215325
238 37431 261077
239 156920 569530
240 987645 125192
241 981305 732983
242 87598 830003
243 386863 757196
244 928519 931177
245 246899 430634
246 450833 912786
247 62145 844827
248 945095 78898
249 763499 472029
250 557960 553232
251 623016 569698
252 890182 93230
253 935033 352608
254 281165 690145
255 81492 201324
256 42326 534219
257 126434 264953
258 980413 415973
259 742244 572688
260 496026 45610
261 971551 863038
262 260917 700534
263 734286 680725
264 404544 568105
265 280291 684823
266 979911 466774
267 488038 786320
268 82866 447085
269 606548 822644
270 849589 970889
271 14951 355831
272 435151 201289
273 459083 587794
274 651869 361611
275 110541 264370
276 674354 195393
277 191738 873137
278 573320 156242
279 81660 103861
280 10363 487948
281 746059 458521
282 840555 110602
283 186373 686495
284 99068 925145
285 805870 392619
286 764104 380633
287 462147 231656
288 371255 776157
289 671300 387780
290 127213 578044
291 599065 300682
292 557741 792343
293 938763 521390
294 626218 377435
295 599947 396371
296 348017 681403
297 16774 456970
298 206785 634318
299 893684 203494
300 830033 682925
301 916493 264089
302 234397 532496
303 665304 373672
304 637651 399394
305 934373 51930
306 530023 704224
307 503914 613992
308 139930 64656
309 441746 383584
310 903817 552055
311 792810 895573
312 95112 122944
313 476125 500015
314 146236 929650
315 566351 997583
316 138505 271905
317 453406 75283
318 48020 894840
319 796767 943749
320 652412 874107
321 79644 242633
322 473617 47891
323 603560 452443
324 586290 893830
325 980845 706770
326 488081 964033
327 637143 832449
328 544419 644588
329 810682 159113
330 484475 770464
331 576904 693902
332 746981 60265
333 972286 287389
334 230606 456022
335 10432 687486
336 478365 547916
337 402739 197047
338 63973 828777
339 258429 262663
340 578524 831536
341 689332 987123
342 445174 795886
343 420679 444603
344 524923 393140
345 102997 760631
346 664233 340744
347 933317 964926
348 395742 531727
349 839894 276570
350 983918 774783
351 194014 323627
352 315305 149308
353 17438 500958
354 518858 841257
355 411770 99816
356 119664 417542
357 56115 723844
358 106231 236160
359 760585 782055
360 664523 440558
361 447495 954036
362 472104 235648
363 493472 154737
364 232611 253430
365 179608 563015
366 309918 417172
367 850893 478708
368 711872 271789
369 931007 721330
370 689655 184519
371 684018 742867
372 728617 662439
373 313136 710197
374 868639 697668
375 471453 241004
376 299116 586464
377 96961 420902
378 464864 776841
379 472734 836596
380 437436 745648
381 569950 797528
382 151602 227250
383 415797 376796
384 688925 393676
385 410708 396033
386 367520 62916
387 310602 423518
388 141442 861030
389 857074 51201
390 770784 716631
391 682003 396014
392 815993 433960
393 993064 512390
394 265570 623642
395 62910 335075
396 582864 537331
397 310622 293621
398 816998 621101
399 432265 305098
400 520997 452105
401 853123 817437
402 926883 754821
403 559001 903102
404 770470 663001
405 427838 952473
406 511271 849091
407 773686 102361
408 162783 32619
409 486905 857981
410 410251 794696
411 944531 383826
412 872678 958603
413 542910 550082
414 136033 555780
415 864517 238339
416 90559 194072
417 623363 818310
418 205360 832911
419 622328 713631
420 271176 960444
421 25484 407589
422 213390 268214
423 390543 199038
424 664652 352019
425 750710 266916
426 485068 876484
427 440581 282657
428 361545 659050
429 194074 108572
430 549461 726089
431 280774 56839
432 391824 467393
433 926989 103681
434 635701 505471
435 711817 963745
436 367966 134886
437 107270 143335
438 309627 68047
439 943245 590021
440 597057 883860
441 356007 27460
442 6318 138427
443 957565 33720
444 802248 155969
445 891321 101678
446 197210 116856
447 1814 307431
448 592478 890597
449 300318 70055
450 958587 322496
451 255792 74631
452 754961 866850
453 910909 457608
454 870165 302153
455 325091 327824
456 856802 38105
457 217251 447783
458 528879 163917
459 55024 84392
460 874915 36391
461 803363 565646
462 546884 389320
463 707953 293335
464 379925 240420
465 232425 852019
466 197881 641092
467 264930 269232
468 27058 317901
469 810208 558535
470 609547 793648
471 978695 717855
472 281053 854930
473 298315 631564
474 569972 612493
475 599478 299142
476 510672 59898
477 837629 106568
478 124615 614700
479 809701 485728
480 839791 593007
481 647399 311629
482 692605 531443
483 349128 138946
484 757052 362321
485 149467 897315
486 593945 442531
487 484914 575773
488 525718 743464
489 728016 440316
490 264705 93252
491 483634 894196
492 400628 639417
493 204619 886251
494 948486 733486
495 920104 888111
496 560849 447887
497 409067 712232
498 199703 536164
499 232940 705279
500 329211 554850
501 903547 129656
502 347787 506225
503 815507 616476
504 659269 198211
505 901948 238363
506 666214 76214
507 565624 951680
508 32158 199512
509 902562 980373
510 331739 812964
511 906005 51772
512 33110 594617
513 993768 464289
514 94743 978688
515 760265 909242
516 84195 529804
517 538367 26341
518 427038 407420
519 328571 448948
520 607259 5106
521 983689 968112
522 401747 107139
523 982106 509076
524 414777 814450
525 718464 735414
526 441420 254251
527 945014 419969
528 470655 373743
529 591288 321446
530 79187 408087
531 287904 210321
532 590952 896842
533 254674 698101
534 674467 458485
535 969574 523081
536 784735 88111
537 261909 596325
538 371543 651753
539 106758 613140
540 123962 620024
541 873000 773297
542 899501 352178
543 621337 873874
544 938852 641525
545 771667 728937
546 732953 870086
547 479374 84177
548 220371 895577
549 706203 805421
550 735595 330352
551 402318 801636
552 690487 98439
553 862413 668122
554 354749 592836
555 798632 596780
556 434890 949763
557 549778 350249
558 675133 417818
559 730946 506775
560 676471 359096
561 991897 869045
562 722889 639221
563 120763 983099
564 397623 163470
565 733911 703421
566 297003 513921
567 814508 527181
568 185134 923237
569 223519 549252
570 677044 203518
571 142927 432076
572 965054 412571
573 737040 863907
574 147196 840152
575 963414 237271
576 497954 542733
577 71509 32174
578 33348 888396
579 987127 163306
580 913305 939176
581 444603 805497
582 915791 595113
583 453853 2813
584 984709 137207
585 613209 811225
586 270621 890794
587 543361 439199
588 861142 449163
589 797535 690715
590 605873 232366
591 995971 234317
592 250164 794735
593 258817 491506
594 598130 219395
595 73328 182320
596 938527 86311
597 936042 865818
598 932897 252132
599 888715 525854
600 551428 287876
601 66372 456481
602 234278 731047
603 241300 263636
604 292568 276774
605 773356 541842
606 290266 767732
607 89977 730985
608 648 358292
609 869454 49973
610 662215 201720
611 114098 458854
612 585778 325333
613 744853 814139
614 656515 812313
615 197898 597506
616 156595 520761
617 917358 64031
618 942100 228238
619 144340 519179
620 794086 900525
621 622051 548157
622 557179 871608
623 68221 479673
624 500532 610709
625 120964 118757
626 595617 76401
627 327956 953922
628 131280 545610
629 539123 170246
630 788947 13062
631 119296 773388
632 482687 872831
633 919790 742109
634 210553 218369
635 662763 520975
636 857759 258745
637 929008 543458
638 606103 37696
639 130898 631856
640 194052 199243
641 275016 486268
642 23366 184836
643 478209 383206
644 38073 44526
645 144241 199991
646 17685 925970
647 856416 273111
648 42766 363305
649 619148 13721
650 265505 30525
651 348775 868676
652 416656 921721
653 843741 109348
654 53035 143120
655 475712 748073
656 507536 494596
657 26005 588956
658 995376 193325
659 916972 209576
660 830065 556484
661 122960 196831
662 952864 632237
663 172199 989082
664 842089 7287
665 699716 496754
666 984660 987777
667 156143 445978
668 691706 780419
669 460262 434410
670 189459 284884
671 466234 828497
672 214461 587756
673 77030 820853
674 973106 224178
675 100911 53683
676 521216 611860
677 314004 768750
678 45864 360997
679 712533 970677
680 230014 63322
681 649085 618625
682 953660 190828
683 281839 679038
684 280135 438249
685 511925 174522
686 220219 692793
687 108664 776382
688 35268 511099
689 882827 184114
690 586373 811202
691 276549 871411
692 777273 636394
693 847669 366035
694 34117 965314
695 164139 12667
696 500283 22013
697 922484 14936
698 64665 773441
699 719833 438078
700 552488 565930
