NAME : portgen-1200-1207
COMMENT : portgen N=1200, seed=1207
TYPE : TSP
DIMENSION : 1200
EDGE_WEIGHT_TYPE : EUC_2D
NODE_COORD_SECTION
1 284624 50463
2 730410 285331
3 765438 988580
4 490817 355124
5 851439 211611
6 73380 155176
7 198681 886644
8 571643 115525
9 550732 423684
10 999249 570689
11 162944 653677
12 260916 287892
13 846412 125099
14 511469 698531
15 880920 285720
16 311906 242133
17 200962 846844
18 447731 816290
19 737757 788906
20 337755 612708
21 936238 419291
22 492518 354931
23 991123 182832
24 935265 215628
25 253778 762921
26 256174 493096
27 938189 47419
28 64554 42491
29 849501 883565
30 837599 949148
31 250823 701911
32 17368 238731
33 275372 654089
34 662657 843749
35 895520 388811
36 180260 335103
37 169905 236328
38 314515 669848
39 715487 213496
40 223338 803921
41 275598 627903
42 860931 931771
43 34897 609994
44 224765 962230
45 571471 793642
46 153633 894007
47 893385 948944
48 432447 601135
49 249386 256190
50 40415 321274
51 467344 721768
52 992289 449857
53 487323 628270
54 632164 6418
55 12522 454559
56 817726 887270
57 312094 43957
58 795515 356815
59 808525 68424
60 806283 674237
61 404703 406466
62 803334 574245
63 921466 458491
64 342813 720048
65 749004 686244
66 37683 709069
67 200974 768778
68 986195 388328
69 315808 816974
70 136256 678082
71 801468 156340
72 155946 897234
73 388939 747166
74 90673 319139
75 27477 973955
76 258321 529337
77 507185 354170
78 283591 758275
79 520794 223511
80 463662 98994
81 312461 815190
82 870161 334440
83 653090 661385
84 731323 414860
85 655018 48348
86 266141 489385
87 40946 832328
88 415916 875365
89 899280 449163
90 290654 163190
91 937697 119302
92 256386 650010
93 373783 222493
94 838907 866534
95 115688 324809
96 657005 900948
97 161955 87907
98 411940 312083
99 115393 323618
100 481318 513573
101 847885 641510
102 28485 864286
103 36257 139018
104 272951 857175
105 980387 61098
106 919367 654259
107 107822 138852
108 441989 411513
109 653234 782253
110 922499 341007
111 545991 407704
112 933542 141444
113 200463 624630
114 460900 176660
115 796070 276897
116 602414 42105
117 468775 229556
118 243822 283438
119 11479 117533
120 208021 962269
121 569258 56654
122 944035 774680
123 778817 249300
124 967406 20511
125 887444 787309
126 851182 938733
127 527548 204420
128 911159 805779
129 172734 798928
130 620463 752819
131 127538 155417
132 649154 18118
133 491839 862713
134 710224 333142
135 360035 192688
136 444106 632722
137 894809 135189
138 489825 607258
139 880156 729121
140 230284 394683
141 451896 661972
142 556196 43250
143 149358 446996
144 392951 450657
145 737716 381109
146 573213 678337
147 757498 15332
148 518162 936535
149 161844 808845
150 284855 171558
151 369144 238284
152 790227 492760
153 335413 189209
154 382536 484297
155 55061 464163
156 412828 722077
157 61211 239354
158 179605 449201
159 397918 633822
160 499955 555304
161 700869 901379
162 48286 188476
163 823544 205822
164 842495 402049
165 799775 300615
166 224721 395858
167 674060 766121
168 981854 729818
169 600760 316842
170 863645 700157
171 49077 759128
172 950702 182412
173 680239 671834
174 630051 569021
175 191788 312340
176 94040 759794
177 9069 984240
178 946836 973286
179 564224 24106
180 510905 605595
181 588449 65694
182 620652 354904
183 415085 653699
184 771374 878799
185 559115 507770
186 819149 828896
187 442033 187614
188 461264 941074
189 892309 64045
190 241639 850258
191 641597 818388
192 891144 194180
193 712165 159027
194 775206 319156
195 351035 328155
196 958443 721961
197 757727 355874
198 881007 220180
199 317095 763088
200 721148 739164
201 779525 566005
202 327382 341530
203 670743 275651
204 868650 814888
205 272074 787809
206 198079 245068
207 673070 182750
208 647151 866487
209 307967 264777
210 473896 194904
211 336604 8286
212 157650 819950
213 728245 253144
214 501514 100503
215 516871 185612
216 72424 77421
217 791971 453830
218 652178 396529
219 145317 708393
220 547029 845678
221 851060 510428
222 845259 156130
223 991550 950156
224 564311 937776
225 627629 627863
226 718666 216591
227 246216 535535
228 666740 702104
229 774034 873552
230 689351 274214
231 130333 160256
232 267858 426396
233 936748 687650
234 399808 516939
235 191199 696994
236 302176 370190
237 637148 846032
238 476238 120013
239 762069 622115
240 153210 26141
241 479109 627962
242 411152 242657
243 55279 912167
244 809562 365574
245 517081 964527
246 996720 628377
247 517194 850035
248 543501 480869
249 873280 999227
250 679892 871537
251 188087 942195
252 784565 601487
253 148754 90704
254 805439 3559
255 480256 754572
256 892541 408459
257 356471 724824
258 277493 501955
259 643062 417823
260 882894 455879
261 814370 400580
262 837047 319662
263 508907 359980
264 585625 35661
265 697278 385533
266 314573 758510
267 141858 398638
268 133599 70650
269 271490 686327
270 965163 553323
271 269105 391738
272 482680 61201
273 150156 596139
274 791330 197531
275 341127 183521
276 895244 837619
277 301949 294358
278 556963 429576
279 800337 385927
280 467888 78104
281 819213 119111
282 38396 926933
283 485466 500803
284 925778 295269
285 574667 681354
286 710625 445531
287 76695 699372
288 560634 976751
289 98631 542688
290 762699 79330
291 559643 199698
292 567773 619173
293 566320 195462
294 720113 214925
295 913171 632795
296 144871 976221
297 111660 283809
298 842697 823574
299 315042 783308
300 500567 173404
301 497508 248641
302 434831 261797
303 623878 695546
304 269845 682775
305 728038 361500
306 709462 585412
307 472755 835092
308 933232 842992
309 7451 754587
310 84235 661892
311 185761 142470
312 794701 401263
313 183846 461983
314 10699 814898
315 75494 865088
316 706905 415855
317 814650 401198
318 369867 974230
319 726942 732680
320 685940 723328
321 188010 965526
322 130689 251278
323 447034 2400
324 181519 710396
325 99963 380714
326 812874 500143
327 707813 635479
328 466498 81652
329 433991 33632
330 891929 649647
331 968604 537165
332 996834 4709
333 173489 743935
334 454722 221476
335 388057 930832
336 661472 297054
337 654623 703520
338 849017 685617
339 434656 159222
340 934764 102193
341 27991 977066
342 922969 425847
343 896483 169740
344 419020 809940
345 227709 625931
346 519508 505465
347 344623 755108
348 61855 890956
349 310903 427168
350 402260 761417
351 567743 22296
352 775632 997769
353 352722 835808
354 577174 281966
355 738995 296757
356 662631 624051
357 805923 265997
358 130138 463138
359 192541 241726
360 942854 282533
361 433032 27553
362 819216 626640
363 363088 639175
364 521422 656854
365 350797 13209
366 108442 152690
367 420227 638006
368 439561 403940
369 171142 656971
370 295708 433345
371 977199 177294
372 867086 945175
373 192899 491955
374 686249 717983
375 392020 422680
376 369533 654048
377 76370 389051
378 652974 415053
379 602069 137625
380 558208 948782
381 664665 920202
382 986258 305650
383 319558 485337
384 756965 860748
385 73098 638183
386 776889 474558
387 849705 520174
388 912999 778983
389 951182 430164
390 973665 948035
391 37106 383796
392 98646 402015
393 348544 188240
394 166431 114577
395 318447 954224
396 646975 310394
397 583873 657525
398 656455 502640
399 327588 346912
400 32175 413915
401 540772 256084
402 744317 443985
403 385573 985737
404 555402 674355
405 40507 464733
406 248621 487491
407 819178 603984
408 301807 354271
409 336329 328733
410 649194 816918
411 157748 410053
412 828572 659182
413 97410 520805
414 730241 405720
415 134600 927262
416 223580 276826
417 389657 508932
418 699413 549614
419 564618 494661
420 100207 994272
421 851911 837698
422 465383 501529
423 796475 236921
424 481821 924690
425 560114 135650
426 772399 921867
427 212311 104913
428 190334 263945
429 866427 235385
430 744571 835958
431 421119 60740
432 574147 46234
433 612822 410922
434 22108 317648
435 807508 64885
436 872449 411638
437 768618 513543
438 44519 235880
439 197741 723659
440 468848 833464
441 654377 494856
442 661149 298642
443 506142 162839
444 702679 343422
445 896109 288490
446 527506 246969
447 687152 35322
448 121823 440272
449 69079 951839
450 457009 560594
451 39179 758161
452 455842 726649
453 481272 277542
454 260718 913669
455 598770 27494
456 561266 523004
457 339276 456081
458 308452 174150
459 373587 538825
460 924411 172550
461 341843 70269
462 860639 246914
463 25705 114287
464 955796 41968
465 32271 766976
466 975162 284072
467 124888 441353
468 272197 131373
469 155580 205067
470 990189 331991
471 789251 163853
472 419011 723558
473 946647 457236
474 386329 440238
475 9616 7535
476 484476 27110
477 919568 690033
478 585432 755107
479 633273 14488
480 454452 349899
481 121962 55650
482 923479 266779
483 238242 397413
484 103992 615717
485 509433 851215
486 787820 933349
487 529209 916875
488 688074 314732
489 150701 170605
490 661482 270598
491 481014 941308
492 587516 682371
493 645014 919511
494 360593 858109
495 203111 874784
496 27380 539863
497 695634 138973
498 544171 855902
499 634644 502136
500 35484 631914
501 306535 215724
502 778755 739018
503 526521 543167
504 439594 237196
505 45019 665920
506 394514 775163
507 811376 579667
508 322518 582099
509 360016 784505
510 722607 382340
511 762768 601855
512 580232 877518
513 544680 572096
514 154593 790191
515 390353 144906
516 875138 913505
517 125586 995561
518 876084 705850
519 129931 7848
520 359853 62914
521 559494 576087
522 135501 820771
523 112015 425524
524 959630 818115
525 594292 972074
526 701308 844453
527 111782 890578
528 756776 393029
529 90137 783194
530 862933 820671
531 413236 431745
532 877342 982104
533 106426 818426
534 639662 990605
535 467652 896993
536 622469 541901
537 190212 750533
538 681031 918315
539 490073 689654
540 120741 151651
541 481958 371399
542 927257 569682
543 731669 443392
544 36162 143481
545 889135 57657
546 66187 139325
547 540196 462859
548 440445 17593
549 385874 384968
550 139739 193699
551 935451 269975
552 697373 442641
553 490115 329909
554 917196 542099
555 158908 313384
556 356867 946655
557 894059 805276
558 754483 273910
559 891549 414483
560 541659 88832
561 432552 254694
562 850866 273952
563 961541 352493
564 844527 747571
565 260417 351122
566 1119 947973
567 530746 807357
568 794783 535303
569 477339 121981
570 815199 457758
571 551842 621679
572 601822 800302
573 625105 811493
574 288459 266243
575 501318 87952
576 173065 638303
577 124551 788617
578 192580 987478
579 739229 890015
580 647857 954812
581 852569 795215
582 726900 701149
583 761541 735188
584 344833 93756
585 180170 942989
586 985451 625306
587 913165 453706
588 915767 794249
589 130143 62248
590 81372 974063
591 613263 954511
592 99713 305604
593 498552 205904
594 221073 829596
595 45816 59595
596 190470 383583
597 941810 872209
598 472307 926536
599 708514 148115
600 884535 830856
601 681350 226211
602 184870 527254
603 474689 218553
604 538589 818946
605 290065 986675
606 766404 909633
607 844199 588262
608 764342 468986
609 853404 854690
610 228841 835004
611 26674 196717
612 209221 349314
613 261639 759240
614 440436 385910
615 979017 697213
616 255659 311196
617 772183 94696
618 207658 703629
619 110312 511450
620 541262 29566
621 352499 366382
622 600754 210811
623 32921 993752
624 174361 592495
625 610570 713067
626 486100 322603
627 169097 187321
628 575197 370153
629 454027 90173
630 319595 771059
631 108241 27139
632 277684 260499
633 634176 400022
634 308878 633388
635 555341 770589
636 294625 260909
637 244119 515774
638 348904 704071
639 27619 21899
640 774117 891485
641 305212 350262
642 66315 207958
643 588971 228520
644 33512 511684
645 460520 807636
646 394751 476924
647 956109 770672
648 734940 91590
649 122263 84980
650 861907 328850
651 966133 152461
652 818378 719085
653 407855 135838
654 256287 961139
655 598350 346676
656 336640 942343
657 629653 511958
658 376308 631317
659 71029 507011
660 525558 542586
661 277759 223898
662 771480 226491
663 804456 142163
664 442531 525034
665 107919 213066
666 447783 66480
667 423549 427440
668 554844 362868
669 720609 554356
670 831650 957653
671 157490 526501
672 986126 917934
673 529877 170852
674 705443 729618
675 966216 592776
676 649059 597228
677 977060 648841
678 881066 899652
679 728911 390937
680 164240 44986
681 415229 701930
682 129488 640696
683 189186 810139
684 956217 711718
685 982080 205455
686 925874 341411
687 540794 932781
688 893526 680530
689 246838 122639
690 345424 904803
691 413252 51593
692 360794 62933
693 797837 745852
694 936992 782853
695 238254 744705
696 406651 8890
697 572276 626194
698 31779 816078
699 985706 53344
700 24407 849347
701 924014 582803
702 384193 61412
703 179524 597465
704 236434 914127
705 851004 135214
706 962660 946058
707 152683 419534
708 638334 406338
709 129654 503293
710 608917 373107
711 824432 902872
712 687311 132733
713 281441 343071
714 957217 479382
715 753256 296061
716 444096 332710
717 271635 210210
718 942143 467193
719 898910 941259
720 424598 391498
721 616198 433698
722 173935 865146
723 920272 503778
724 321579 439542
725 344752 688708
726 858860 506324
727 300087 728346
728 405250 591303
729 311167 173983
730 119268 712331
731 698554 295174
732 489529 459505
733 519016 528961
734 772122 287536
735 499261 134556
736 84759 690111
737 158540 920209
738 514246 318108
739 602785 958965
740 727482 690138
741 31903 783234
742 360113 40925
743 597506 148921
744 843181 812130
745 691193 413181
746 695070 611374
747 441997 290042
748 306738 926086
749 275157 253726
750 350899 602164
751 900993 362614
752 712060 654614
753 656804 75626
754 146210 259161
755 130839 256328
756 748121 499037
757 482789 706087
758 17260 87180
759 853177 199487
760 152766 592929
761 253804 518396
762 936636 897097
763 233562 722145
764 978051 503926
765 263405 438620
766 171898 343623
767 828126 471154
768 942016 532866
769 300444 654026
770 23664 510326
771 295744 643694
772 659363 98263
773 159377 176674
774 674737 544899
775 56479 584593
776 948034 771231
777 990321 912279
778 430266 557370
779 534488 240905
780 712598 123937
781 775181 492184
782 235496 620512
783 960584 104427
784 839673 384526
785 546709 840586
786 412442 308277
787 143007 568173
788 644895 482572
789 528074 24357
790 466831 676192
791 187657 737145
792 791328 139467
793 663438 679713
794 108126 207613
795 510569 837589
796 693192 915918
797 107316 183078
798 97883 987467
799 500686 91189
800 453368 676804
801 648599 650379
802 78068 380286
803 396935 210889
804 979903 850854
805 248840 750552
806 449243 326874
807 730336 875008
808 430744 859263
809 384868 52418
810 522628 973117
811 603740 748484
812 931157 869905
813 191986 762062
814 230208 762721
815 171237 434005
816 502669 677220
817 775517 716278
818 226949 860783
819 6809 916319
820 708723 804175
821 294845 55707
822 684985 537452
823 233848 944708
824 984761 237410
825 991091 335820
826 757258 737965
827 919952 19362
828 174134 971379
829 874862 361790
830 153337 536152
831 204080 63583
832 142131 444664
833 455706 393535
834 641889 192883
835 641159 486036
836 874501 147457
837 61326 186807
838 215858 865775
839 828532 911794
840 695771 220607
841 887199 868418
842 609384 635084
843 229925 439086
844 535089 330852
845 260571 833413
846 218893 813925
847 275159 222686
848 929673 147388
849 994381 498177
850 321593 368073
851 116176 72967
852 541639 770484
853 448621 888839
854 128581 284867
855 789437 735048
856 436289 544010
857 101218 319924
858 317258 390154
859 788424 919444
860 514991 308318
861 399154 143711
862 871290 273086
863 369859 801534
864 605817 290842
865 738186 327019
866 737194 543664
867 122357 960722
868 784317 343188
869 767200 289460
870 317825 839771
871 650661 615645
872 815860 952253
873 434258 75182
874 942634 2073
875 852827 128138
876 541570 703538
877 759991 994574
878 630879 572511
879 950609 580917
880 986166 105432
881 121639 839121
882 967041 949666
883 84386 820644
884 728150 148964
885 885665 242076
886 447519 786350
887 66617 386852
888 766747 695616
889 383720 876716
890 642206 797348
891 850924 24900
892 304676 632754
893 205380 898072
894 576622 172690
895 876336 963673
896 615038 618235
897 403794 75749
898 392251 864311
899 549028 429008
900 185505 738642
901 691461 65918
902 359866 55479
903 277213 516670
904 398862 127236
905 789193 732806
906 995888 777919
907 704581 22492
908 490393 503403
909 435326 891292
910 557414 220075
911 271616 299141
912 963459 147023
913 550614 381601
914 426484 11138
915 109638 250077
916 296753 256483
917 87522 909399
918 801459 73005
919 320319 282183
920 142360 701976
921 462746 685330
922 615276 656260
923 692057 315897
924 654776 256771
925 525134 10650
926 437826 537890
927 319369 935427
928 441888 434978
929 978395 450466
930 254019 204207
931 196350 116678
932 984875 87216
933 270060 310558
934 162642 48320
935 330435 174496
936 848627 178555
937 366158 546763
938 782248 733725
939 979772 28031
940 705134 115636
941 403205 976017
942 757118 905430
943 53727 180074
944 271607 305
945 639339 490900
946 910363 271998
947 951748 967864
948 853349 284191
949 319171 68512
950 874012 958331
951 336124 626744
952 551637 409498
953 607445 461809
954 780771 413939
955 881700 261814
956 163370 978089
957 811127 763119
958 293844 924351
959 164930 17011
960 233867 985869
961 991386 94130
962 174308 372103
963 838371 221882
964 626918 956660
965 939318 320439
966 952954 565833
967 146331 443320
968 952265 425115
969 164890 993999
970 611586 129375
971 15144 254596
972 766438 653470
973 499514 816233
974 97690 579645
975 129493 631466
976 657273 362511
977 129193 553573
978 5377 770291
979 480413 108317
980 457232 182329
981 296918 786772
982 802353 752325
983 246669 908774
984 211651 157656
985 263605 477611
986 826661 585285
987 887518 602400
988 328596 628875
989 964936 620735
990 366725 68079
991 741469 518601
992 499427 756988
993 23520 166181
994 763480 394005
995 196650 43490
996 213464 7233
997 730394 133974
998 302714 429859
999 367078 164037
1000 324874 870638
1001 851297 476955
1002 212919 61413
1003 889996 138671
1004 863083 372204
1005 530052 839196
1006 6811 86407
1007 911666 413741
1008 968865 289685
1009 56378 668378
1010 449610 816810
1011 541696 47613
1012 832782 392966
1013 626314 349705
1014 372366 826104
1015 712404 189924
1016 765791 592731
1017 90682 527529
1018 61267 655062
1019 606934 85686
1020 788123 733835
1021 109803 95101
1022 944395 379839
1023 501794 165850
1024 174451 337428
1025 507660 953008
1026 57493 540973
1027 451633 134949
1028 104847 258565
1029 386272 685389
1030 145 234934
1031 531737 777397
1032 584081 796217
1033 729392 911709
1034 142012 531826
1035 911946 803014
1036 115233 718950
1037 160717 496602
1038 759317 722
1039 595980 697832
1040 288118 367748
1041 963433 686976
1042 825958 477469
1043 658186 988393
1044 8649 294465
1045 798136 149557
1046 513049 75107
1047 173739 985108
1048 618601 390853
1049 934384 447792
1050 620522 501072
1051 569870 476618
1052 49309 139912
1053 989575 370516
1054 715015 974164
1055 476763 116454
1056 249916 91807
1057 887252 850587
1058 721884 456629
1059 603658 598973
1060 177616 338539
1061 977325 694219
1062 911304 410874
1063 233144 638614
1064 669640 20804
1065 507026 388801
1066 285707 621815
1067 221069 171664
1068 117832 871625
1069 799724 975370
1070 755584 201557
1071 384735 409676
1072 116849 459597
1073 172232 818830
1074 163803 762864
1075 751964 979986
1076 721212 913579
1077 940766 231721
1078 215365 948054
1079 255549 877645
1080 22080 117950
1081 570792 739644
1082 218579 275206
1083 731718 840239
1084 974958 427655
1085 678355 903054
1086 292826 840793
1087 847008 197629
1088 617327 63746
1089 753453 679583
1090 195509 285089
1091 383065 791995
1092 998724 389076
1093 818008 546062
1094 403236 945863
1095 439945 277592
1096 896666 372068
1097 297015 852529
1098 908730 543941
1099 562667 919219
1100 842269 108486
1101 65377 484219
1102 567355 466874
1103 596921 929217
1104 914854 551689
1105 413712 669302
1106 544818 309686
1107 437699 744487
1108 221283 198723
1109 442628 366049
1110 366475 187776
1111 277571 55739
1112 585385 569868
1113 837677 808606
1114 273437 380134
1115 600708 688110
1116 148891 201763
1117 265871 526207
1118 740271 73379
1119 354296 254236
1120 167793 619285
1121 103434 37186
1122 579387 252168
1123 21 840927
1124 786683 727146
1125 14852 100123
1126 270504 182533
1127 318510 154159
1128 959594 863613
1129 218348 41148
1130 726603 523541
1131 574920 660617
1132 383896 794427
1133 565867 507631
1134 730298 185530
1135 744466 380355
1136 412040 715482
1137 351197 266351
1138 917272 95038
1139 737228 431225
1140 610274 974064
1141 590258 232288
1142 653530 77166
1143 113189 488273
1144 817867 471444
1145 960339 232639
1146 343080 168765
1147 509770 787437
1148 207244 387952
1149 685988 313035
1150 334896 904982
1151 103699 355457
1152 116872 40787
1153 509865 38215
1154 529002 241344
1155 40970 471321
1156 45745 746904
1157 80809 493964
1158 180461 406155
1159 150847 596458
1160 587182 177915
1161 821643 417263
1162 850633 839483
1163 276655 56583
1164 598609 310409
1165 756486 879056
1166 566035 495883
1167 390255 138952
1168 928318 843354
1169 151479 159566
1170 896705 707034
1171 337425 221409
1172 884261 782423
1173 410996 925817
1174 318131 670286
1175 510781 150661
1176 789342 375578
1177 556548 455839
1178 338947 607815
1179 965202 977920
1180 112468 666510
1181 886736 369435
1182 344638 333936
1183 133895 824335
1184 862642 298386
1185 82967 254643
1186 88023 480560
1187 85676 436521
1188 388572 446064
1189 860714 394794
1190 500536 668840
1191 91381 620689
1192 197941 89976
1193 992320 196599
1194 151245 56318
1195 5056 103982
1196 980711 853093
1197 76599 642061
1198 619010 856865
1199 135733 447739
1200 393850 964932
