NAME : portgen-1500-1509
COMMENT : portgen N=1500, seed=1509
TYPE : TSP
DIMENSION : 1500
EDGE_WEIGHT_TYPE : EUC_2D
NODE_COORD_SECTION
1 674020 163000
2 263226 565234
3 65514 400355
4 466903 127599
5 239403 326951
6 72488 668025
7 40794 699405
8 683982 15867
9 218774 651652
10 506781 817970
11 122558 619727
12 754089 455718
13 864440 412217
14 400669 922683
15 667298 187510
16 320508 566296
17 662374 203929
18 250326 275800
19 855695 292286
20 988270 154894
21 109785 978018
22 815280 515146
23 296314 30833
24 943733 151098
25 923598 891330
26 559862 924459
27 764845 877755
28 831498 107723
29 500626 59296
30 314907 789713
31 544660 174616
32 139328 84509
33 217166 94469
34 852745 525648
35 403091 653149
36 72133 67676
37 728054 615450
38 258108 198099
39 854882 876334
40 624220 756717
41 911590 341373
42 607775 877584
43 642849 145892
44 426968 577864
45 986763 155857
46 423055 330047
47 889195 335121
48 82760 42108
49 249964 199829
50 257037 98214
51 175951 67399
52 526877 166880
53 979739 218488
54 316683 887260
55 234905 685606
56 680754 922762
57 72533 159050
58 366658 214613
59 285420 804206
60 1749 175057
61 844505 652916
62 268610 304877
63 477198 4734
64 540798 561173
65 635711 39620
66 881415 967621
67 641428 938613
68 75962 988828
69 268840 448725
70 510926 428236
71 860471 622761
72 576115 811706
73 311352 770139
74 61436 584318
75 857923 78026
76 501310 688791
77 564117 217417
78 216798 208329
79 425970 588263
80 90918 990910
81 949648 867958
82 376334 806669
83 825135 57992
84 346646 260826
85 847697 596518
86 153176 701102
87 946283 923723
88 673747 155713
89 88798 51192
90 88078 268868
91 578763 952534
92 470254 644800
93 89971 13457
94 591286 834759
95 113478 17969
96 642181 8013
97 601027 914407
98 275059 159368
99 676478 652391
100 137959 155638
101 681341 10243
102 496239 589054
103 499262 548775
104 218536 919317
105 127446 203341
106 617043 591211
107 474784 72949
108 348729 941635
109 266931 461927
110 531609 665766
111 381514 694255
112 122867 692059
113 915177 142932
114 204863 357228
115 424460 124972
116 937177 169480
117 923746 884737
118 651825 987551
119 477750 397305
120 296071 148335
121 746525 129359
122 303149 447711
123 636454 947926
124 885145 908967
125 999229 132126
126 954505 319249
127 227931 12986
128 218460 511860
129 86497 611502
130 937229 511710
131 71025 821230
132 623246 979111
133 456815 487683
134 288061 27072
135 436494 400802
136 56490 357963
137 462697 399482
138 711261 62264
139 466323 109880
140 473598 403316
141 56435 593360
142 419999 912749
143 53947 115947
144 546234 944635
145 427921 164142
146 699490 450677
147 960811 895268
148 91845 388561
149 666662 903667
150 736450 574189
151 481603 775264
152 435368 595913
153 75691 361144
154 899249 315182
155 959039 102513
156 965626 141861
157 183581 773087
158 812220 620347
159 860419 727978
160 887266 68254
161 821021 384394
162 290622 862304
163 919199 281225
164 922594 866784
165 323791 350116
166 163015 151141
167 150841 371085
168 437690 914574
169 409778 646912
170 100528 433599
171 255527 818256
172 57369 359667
173 343120 315095
174 160054 98506
175 976068 810619
176 465966 799878
177 579875 386334
178 411174 330461
179 624423 64283
180 158222 161116
181 951365 252337
182 214653 525440
183 846985 147370
184 84491 823914
185 429966 497125
186 460293 761912
187 751909 76646
188 602287 21142
189 804519 904288
190 451129 588738
191 656802 858311
192 708561 162674
193 398750 910677
194 936488 625400
195 524099 290320
196 830082 585864
197 216946 603403
198 973306 493615
199 66346 980722
200 757379 321978
201 510576 255766
202 647377 387330
203 153816 607655
204 91316 417200
205 987583 500497
206 393973 999022
207 540183 867902
208 331034 365501
209 35391 611250
210 552134 353369
211 81023 103769
212 66534 107988
213 986549 204526
214 114534 364578
215 922830 994631
216 929826 387318
217 916704 950632
218 194764 657780
219 318127 840659
220 831640 33249
221 875286 325238
222 73266 170729
223 209297 726312
224 519330 108957
225 616854 768779
226 379080 701767
227 57891 762748
228 392151 123257
229 339061 696745
230 192565 496035
231 289528 250657
232 585559 954334
233 625211 68735
234 925755 369454
235 658604 604721
236 846171 926433
237 994395 783355
238 974289 379255
239 45877 303785
240 715836 863291
241 865465 417789
242 172013 426795
243 705102 679168
244 801758 962370
245 325420 126029
246 732024 948672
247 182054 226919
248 187078 948852
249 330842 289911
250 196440 830042
251 680435 215544
252 393121 753562
253 903313 961290
254 529754 631096
255 57645 712983
256 321498 376691
257 371324 66535
258 764011 340855
259 68603 358640
260 767256 676358
261 737892 635844
262 173013 828562
263 924285 630626
264 533312 240833
265 880041 12998
266 849500 414781
267 246140 2853
268 541793 488774
269 46465 105477
270 662784 364247
271 610565 443118
272 195114 649062
273 388136 96179
274 775659 353491
275 302633 556451
276 415540 90008
277 409869 183441
278 980541 265654
279 969403 390268
280 211769 414539
281 914825 424277
282 968312 693398
283 102417 878380
284 181576 722261
285 678399 667831
286 565196 715111
287 56007 210804
288 260818 647884
289 225975 989571
290 848021 658631
291 661222 143043
292 29064 465501
293 98173 425223
294 446468 552742
295 900435 663412
296 307197 324203
297 427078 994952
298 799050 895453
299 387110 984309
300 388243 740252
301 870204 786087
302 505470 644001
303 895228 272496
304 60944 944368
305 85268 555318
306 819185 416661
307 489833 548356
308 107342 590621
309 997198 973359
310 894347 206964
311 491270 197267
312 334018 938146
313 797626 779109
314 209641 412005
315 315576 988321
316 586939 281606
317 904303 292702
318 839445 244561
319 653210 480707
320 358158 507552
321 428024 473108
322 658394 693471
323 172142 109929
324 990185 488932
325 197325 19941
326 685812 975104
327 668732 399922
328 153313 588597
329 881783 212767
330 804555 650667
331 619286 580237
332 586209 577716
333 127294 346076
334 758266 796361
335 376214 997413
336 600435 508266
337 776033 874405
338 521151 516165
339 528534 934095
340 784832 209029
341 897325 996873
342 607450 664908
343 369034 6701
344 695396 326587
345 165408 493368
346 486294 856848
347 104493 360745
348 907116 919757
349 697075 783989
350 172319 655976
351 581394 56090
352 704099 988296
353 122615 688938
354 367654 3824
355 30887 146611
356 893200 555195
357 47359 311186
358 164373 762438
359 475744 225464
360 670599 207536
361 649001 974277
362 624042 720237
363 416018 544345
364 804167 787736
365 751790 832212
366 148511 524710
367 903207 638221
368 315828 342130
369 949514 296263
370 500535 606596
371 530957 469932
372 655988 957871
373 844367 512016
374 232806 384255
375 944726 362771
376 115589 909338
377 32199 340106
378 507465 56683
379 152882 65877
380 672468 780485
381 739424 71390
382 503288 424291
383 615653 423268
384 899207 89487
385 466819 652356
386 529632 91488
387 280738 307828
388 91946 739663
389 942078 283935
390 212771 359335
391 391462 738289
392 115268 971304
393 92788 77120
394 21422 478916
395 22567 892559
396 442922 860026
397 829443 848179
398 76964 439468
399 189194 348159
400 865924 104703
401 569938 948870
402 171484 585391
403 971308 377300
404 794069 60894
405 247318 430345
406 35261 673966
407 43310 779908
408 337563 879397
409 241947 655109
410 347327 176185
411 234074 551048
412 223563 362115
413 82418 580761
414 920004 695346
415 336519 714646
416 945593 881184
417 36617 782426
418 324073 717496
419 694978 335359
420 633741 213390
421 835173 366312
422 131589 846382
423 658485 891874
424 636463 467328
425 765760 496202
426 519464 493847
427 11640 151277
428 159110 688754
429 912253 389057
430 261317 253812
431 682321 458709
432 427153 33927
433 595172 668948
434 542377 196928
435 121422 445689
436 242934 774618
437 889348 851124
438 656720 740226
439 539407 72285
440 203005 393664
441 668508 530946
442 434029 82707
443 32325 486883
444 454031 2689
445 187254 655125
446 175119 498050
447 213936 188051
448 970456 60554
449 476964 280464
450 189661 918259
451 352466 564178
452 264323 372096
453 827693 988517
454 59818 928933
455 118952 672226
456 234722 909563
457 201803 606192
458 78692 184270
459 244773 239101
460 63471 534617
461 191984 261912
462 7267 203163
463 93223 678755
464 510295 517252
465 23430 668203
466 680408 610474
467 953332 530778
468 158941 758945
469 329143 827836
470 4014 848054
471 242110 214929
472 939217 652636
473 463140 913206
474 490783 10773
475 94828 291700
476 550258 959711
477 257033 521457
478 237851 741991
479 610845 733544
480 213154 68748
481 659373 231981
482 924918 270897
483 430115 19793
484 970346 549167
485 143051 165486
486 693487 233999
487 144272 771771
488 984359 232272
489 4878 485809
490 965312 351231
491 67910 776751
492 304097 954681
493 8829 448426
494 685555 682435
495 100662 139148
496 788598 779975
497 684785 838528
498 154567 8110
499 70657 167446
500 668276 230868
501 908328 4973
502 45460 743597
503 223790 773507
504 655614 302352
505 512628 789424
506 56435 928410
507 632882 74006
508 280149 879398
509 547196 86390
510 116329 422005
511 949135 802900
512 880890 912183
513 257157 688513
514 188539 400675
515 547981 210851
516 576658 702526
517 973181 175888
518 294795 139500
519 143868 230090
520 674532 129431
521 901230 599165
522 566105 678657
523 190012 985698
524 899085 772602
525 581370 466053
526 819571 669981
527 619464 457424
528 654209 205802
529 31792 869572
530 448801 84290
531 629638 425523
532 627819 383196
533 888193 457270
534 362304 954224
535 883993 294451
536 980313 774593
537 505019 650276
538 602433 279153
539 183435 423465
540 257973 51355
541 656721 318967
542 951873 463691
543 581213 151135
544 74706 589984
545 287694 837525
546 777195 189644
547 346096 380080
548 149118 126636
549 94145 915829
550 76223 910858
551 802263 475619
552 514628 530015
553 809332 500604
554 718108 155773
555 876211 503074
556 131095 441807
557 581877 611276
558 307094 439994
559 79426 247739
560 234078 761557
561 363124 446475
562 878000 973135
563 492188 504693
564 259965 975003
565 840943 101829
566 561045 27662
567 547254 754898
568 920259 214913
569 737089 340597
570 156596 141219
571 71708 826967
572 355906 526136
573 474401 330720
574 311643 372961
575 887892 644424
576 866671 119142
577 74885 974394
578 349812 774600
579 928364 759730
580 609756 594419
581 763515 377510
582 999176 734992
583 431365 304128
584 85901 55740
585 136875 976374
586 128351 706464
587 359846 589653
588 894885 243982
589 371589 903606
590 623322 717587
591 576329 500234
592 365247 246524
593 338313 183535
594 28486 812262
595 323532 616130
596 129012 681348
597 203722 180222
598 12867 365244
599 467120 766252
600 631251 230418
601 959130 408036
602 749639 170304
603 68095 366436
604 753894 828361
605 636080 166277
606 746114 116102
607 436197 993625
608 465407 82166
609 173788 818954
610 722124 66121
611 837008 319649
612 424489 906456
613 17243 720314
614 956825 189541
615 521558 528448
616 490087 543227
617 267525 457044
618 971473 460226
619 64036 371621
620 781117 256147
621 9746 209532
622 90137 257410
623 779122 809363
624 256858 297265
625 162978 292553
626 408418 277578
627 244693 102802
628 740331 415903
629 140511 292594
630 198831 607868
631 302399 382273
632 47244 379933
633 156531 536582
634 25965 178787
635 214503 656043
636 825308 876522
637 655975 429570
638 657703 559429
639 74955 321687
640 166124 601340
641 579803 664230
642 990710 913690
643 226049 107813
644 495983 887592
645 300513 434891
646 434261 885249
647 157117 125073
648 430838 133224
649 553556 660566
650 599707 219693
651 734407 935171
652 131141 561637
653 712750 744187
654 286868 331003
655 876753 632518
656 919919 252918
657 992081 763939
658 173606 417149
659 225155 922171
660 949094 23306
661 983025 365398
662 579079 994810
663 921636 890137
664 745381 94338
665 716820 913515
666 272560 743952
667 444934 533606
668 681420 326884
669 672148 226770
670 740083 808899
671 882657 573811
672 938497 277206
673 451865 68863
674 306170 162307
675 203436 540701
676 387843 459218
677 943746 686191
678 947132 990455
679 490236 597534
680 880217 385866
681 72039 60098
682 590919 67853
683 749860 346108
684 314421 714875
685 312074 104743
686 110979 62848
687 718734 408393
688 635463 523807
689 421651 892887
690 47677 931181
691 399900 147846
692 214120 330954
693 841476 212462
694 153032 377080
695 783746 335312
696 12462 957273
697 914696 635339
698 697919 819809
699 855077 530104
700 641742 928058
701 647211 413282
702 114629 272255
703 140800 239996
704 245097 612792
705 844715 734670
706 837422 113155
707 813788 544904
708 373403 114765
709 145402 955580
710 369934 930050
711 491030 784317
712 73132 384015
713 457532 697697
714 948219 446478
715 267592 395466
716 278709 808859
717 48172 313007
718 93758 286745
719 334058 669216
720 957550 726711
721 67059 197452
722 7146 853695
723 844282 228145
724 884141 530680
725 177807 221
726 871590 408599
727 262512 246276
728 649348 838351
729 365109 801622
730 178497 854055
731 905938 575881
732 655241 118004
733 667610 639970
734 106009 960092
735 700622 145257
736 230623 614722
737 777772 369712
738 58460 82431
739 521804 826855
740 734667 619180
741 332587 146597
742 267980 413536
743 489527 702828
744 153618 930168
745 645396 453787
746 180735 373965
747 968594 812293
748 496087 452337
749 419679 637434
750 795235 761851
751 706340 57285
752 796013 558626
753 667634 724993
754 140618 848975
755 756748 946519
756 684733 434941
757 156225 724710
758 673319 531972
759 607287 842947
760 621916 215273
761 220291 468574
762 164856 938771
763 438916 173337
764 818709 219146
765 702078 333466
766 941812 672829
767 70107 788147
768 934447 897646
769 990371 543269
770 740216 957554
771 95541 310670
772 308251 430123
773 233495 712160
774 209109 29822
775 373377 322749
776 633628 200532
777 935356 461768
778 820038 33511
779 987178 7865
780 624179 769988
781 734621 597348
782 108758 799193
783 850978 374062
784 126690 726102
785 491215 961158
786 322863 577464
787 469570 299166
788 581645 19759
789 533218 703088
790 118732 405404
791 186159 810843
792 594967 932089
793 598844 344463
794 564070 270913
795 937168 560385
796 770956 264268
797 52054 779057
798 634691 518077
799 841100 9084
800 848477 213736
801 178942 506021
802 911090 967972
803 136590 822785
804 605565 3266
805 862923 475574
806 469441 716264
807 70696 63794
808 999032 470353
809 545294 329701
810 164502 332900
811 532962 117605
812 877624 277478
813 782216 816842
814 666373 501598
815 162575 758859
816 414193 529952
817 840164 643158
818 935963 469894
819 740146 531173
820 933057 128491
821 799169 234369
822 106411 604268
823 27422 653350
824 386644 774575
825 996841 817848
826 851703 339501
827 846508 89618
828 799542 648989
829 665856 267932
830 32008 666696
831 82639 74392
832 70208 734432
833 676404 235072
834 609853 466428
835 36371 345681
836 83708 770718
837 332860 346654
838 481197 193460
839 271096 788006
840 477936 133227
841 150985 398441
842 469589 495879
843 676220 339801
844 459744 105731
845 966753 700891
846 860040 273717
847 494802 587376
848 44782 28451
849 901509 759756
850 123071 833962
851 382254 598637
852 296639 863613
853 666862 453261
854 869911 350629
855 413397 459741
856 189245 560124
857 301178 331117
858 806655 808921
859 579590 482832
860 689649 647953
861 333563 850097
862 343357 202408
863 963426 485071
864 474079 469246
865 679792 27935
866 323548 920466
867 374609 18194
868 943981 590860
869 97263 138472
870 689223 867299
871 760211 976911
872 416082 318800
873 367328 9943
874 930359 292393
875 623949 559711
876 554372 432262
877 79964 95136
878 510413 461787
879 224028 278444
880 919632 76001
881 355998 731439
882 661405 546098
883 699530 212333
884 144042 982378
885 963789 796712
886 878561 287196
887 858882 129937
888 93581 901300
889 770132 248221
890 691995 501639
891 261042 195634
892 549613 603791
893 671936 592109
894 259060 828510
895 318664 731648
896 446818 114885
897 174683 892511
898 988737 473014
899 118029 286145
900 225219 466027
901 239810 682138
902 600398 122310
903 298669 358737
904 882648 476173
905 423199 918303
906 202726 395517
907 959779 187984
908 629182 241113
909 556755 768894
910 557360 226515
911 94304 857897
912 757159 497761
913 556901 196423
914 686798 736572
915 831268 734843
916 18651 293959
917 825021 773691
918 298912 865524
919 235855 361629
920 974608 430823
921 35353 490166
922 271150 92149
923 637343 588921
924 357725 676921
925 335609 792313
926 786215 381456
927 454876 490375
928 447376 945851
929 857116 826706
930 823397 433144
931 122881 521019
932 501564 992376
933 882949 712560
934 124367 867630
935 550640 40261
936 883387 879834
937 433285 765047
938 440299 712847
939 403020 266783
940 50385 611050
941 339307 860092
942 913175 398123
943 611961 497632
944 792394 832645
945 890741 586352
946 741156 368225
947 810989 934347
948 547435 155519
949 56880 506102
950 651849 924496
951 185900 90941
952 626536 724559
953 453006 926123
954 468281 56753
955 878413 949744
956 153456 24470
957 935964 237044
958 691987 754656
959 710029 567217
960 444941 727430
961 655680 618264
962 215780 626143
963 854360 792445
964 253297 708726
965 312040 514176
966 244565 346267
967 388370 100641
968 457593 314836
969 924127 676130
970 706135 857305
971 787602 225177
972 387704 163311
973 930672 122892
974 152444 184845
975 79986 754989
976 902222 348154
977 194062 137673
978 679930 839633
979 702571 525895
980 266965 138170
981 1996 792150
982 350617 21108
983 162141 928279
984 636766 772653
985 306372 569095
986 602212 525184
987 487230 689951
988 825207 307526
989 424202 78106
990 946213 14727
991 89874 727402
992 441761 173870
993 512179 452415
994 995649 367262
995 938499 529314
996 678069 151473
997 369757 137039
998 255092 262417
999 737946 697752
1000 338103 623146
1001 698689 74337
1002 238632 65259
1003 665115 174820
1004 906392 20191
1005 625493 227515
1006 843983 335308
1007 587396 737650
1008 460100 850522
1009 422393 213577
1010 766015 899723
1011 190332 939013
1012 434549 683226
1013 870406 527874
1014 286551 421971
1015 24836 650387
1016 401133 404011
1017 452613 718697
1018 170744 754565
1019 140006 704110
1020 713770 661657
1021 30021 782072
1022 601247 38775
1023 338981 739056
1024 716924 686531
1025 266633 727218
1026 975866 315974
1027 672916 687716
1028 222012 294678
1029 621724 519934
1030 894515 910549
1031 34814 202281
1032 306421 963836
1033 197493 61911
1034 734061 548620
1035 398668 721043
1036 133598 735861
1037 946944 38796
1038 923857 874358
1039 266096 746833
1040 461213 575728
1041 906149 766617
1042 527456 114286
1043 615573 198851
1044 97589 488776
1045 521204 108833
1046 20503 591385
1047 305442 992727
1048 528058 294159
1049 835128 562450
1050 114917 464623
1051 472960 970090
1052 225317 690905
1053 821068 209248
1054 788517 558630
1055 72142 23161
1056 197088 132948
1057 998730 785681
1058 890045 443428
1059 896839 313694
1060 435777 903333
1061 226782 171611
1062 433703 934045
1063 248083 163507
1064 510544 256038
1065 217728 714609
1066 85840 707465
1067 674690 438052
1068 378639 773201
1069 767886 741774
1070 224240 172144
1071 302011 783895
1072 52998 617870
1073 882050 848892
1074 157681 371396
1075 744643 364551
1076 783615 579089
1077 344722 400308
1078 378782 765494
1079 295400 787264
1080 312265 47866
1081 441362 46742
1082 334389 899998
1083 721149 413192
1084 79949 380860
1085 903631 41153
1086 285747 525443
1087 569050 71226
1088 119718 647693
1089 826889 33395
1090 555262 482589
1091 868106 723279
1092 943773 169861
1093 273247 39098
1094 373075 774691
1095 716903 965447
1096 693252 387026
1097 838143 183087
1098 886397 776568
1099 214845 981771
1100 498151 234357
1101 22003 124286
1102 816133 262054
1103 496444 60335
1104 635316 174860
1105 127061 339684
1106 392418 520708
1107 70361 346818
1108 354614 54335
1109 208599 151302
1110 13601 944580
1111 198347 98177
1112 882708 669274
1113 19149 161460
1114 709309 306996
1115 574782 59382
1116 12376 652028
1117 906334 215578
1118 90171 347398
1119 652918 596955
1120 815246 218911
1121 830498 221773
1122 761090 772322
1123 767100 595074
1124 504318 168868
1125 163937 724936
1126 67259 907848
1127 406989 438769
1128 221980 369974
1129 217952 600555
1130 171882 149046
1131 407417 38361
1132 359613 908149
1133 509185 170644
1134 759617 298039
1135 579718 759540
1136 550017 39730
1137 987364 288664
1138 877321 290498
1139 691188 443939
1140 447294 649175
1141 943508 108754
1142 135113 425736
1143 651965 974015
1144 292414 998184
1145 706392 919526
1146 587780 354878
1147 17236 55706
1148 668893 790768
1149 234408 472426
1150 895001 476601
1151 903885 60378
1152 721574 514762
1153 781428 958505
1154 772735 981253
1155 786803 247964
1156 77559 219768
1157 894162 252356
1158 561266 52538
1159 21124 303907
1160 239255 718417
1161 936236 287191
1162 403037 103116
1163 855654 489638
1164 318156 472602
1165 507236 918816
1166 517763 709935
1167 657135 199329
1168 571615 723740
1169 214591 882757
1170 864469 599426
1171 952891 988507
1172 758928 987974
1173 983290 300588
1174 951841 914120
1175 200051 179255
1176 472611 761806
1177 965189 976185
1178 958838 193950
1179 403243 522244
1180 943147 57687
1181 743913 889977
1182 116783 187377
1183 295073 89052
1184 460839 906187
1185 269065 260677
1186 100697 107004
1187 103855 60000
1188 245805 174429
1189 322002 426852
1190 144278 661703
1191 86395 795911
1192 529454 449548
1193 174902 627785
1194 593151 469758
1195 904256 482562
1196 262900 308403
1197 613691 603792
1198 498729 845887
1199 884652 698928
1200 742168 808860
1201 978586 524988
1202 769841 538348
1203 92859 676700
1204 232351 515641
1205 801283 331052
1206 600799 933484
1207 617988 460585
1208 794787 435510
1209 276286 512991
1210 688647 449186
1211 204400 761911
1212 164019 460205
1213 282091 575709
1214 337162 565507
1215 967141 569105
1216 942077 806360
1217 625569 813226
1218 60904 152911
1219 177922 68869
1220 654761 739391
1221 351499 80160
1222 781110 455070
1223 278161 500989
1224 144384 153486
1225 321700 923020
1226 508724 319144
1227 731786 173063
1228 866782 172225
1229 899418 956615
1230 477443 939947
1231 498777 163482
1232 860880 61891
1233 979552 520639
1234 152373 162917
1235 182423 293797
1236 291126 122799
1237 191290 765627
1238 940461 885255
1239 30124 990955
1240 593422 109865
1241 676290 380547
1242 88063 27193
1243 70327 778595
1244 945480 563678
1245 833673 540265
1246 537 15004
1247 886446 360963
1248 448265 228699
1249 888869 15482
1250 514608 392906
1251 470864 153429
1252 560063 211834
1253 246729 128176
1254 231081 704593
1255 102736 88187
1256 226744 335740
1257 122941 937178
1258 939410 483773
1259 277036 499916
1260 613626 750852
1261 631769 136891
1262 648309 789516
1263 822932 137697
1264 562735 979456
1265 518898 812284
1266 654174 325531
1267 888218 505235
1268 883121 340549
1269 257605 150885
1270 87782 586554
1271 501559 445564
1272 950051 82820
1273 908495 863646
1274 366695 96929
1275 538031 310568
1276 665963 909412
1277 496584 702323
1278 738732 145333
1279 265210 54828
1280 328713 906179
1281 870571 80196
1282 616810 516182
1283 586627 781180
1284 385688 40121
1285 28682 75764
1286 117077 180106
1287 961885 303058
1288 84889 722356
1289 640306 945986
1290 50784 677599
1291 872486 507907
1292 650742 612718
1293 941713 573977
1294 708721 372035
1295 918607 101940
1296 954861 217484
1297 122202 12018
1298 469476 321452
1299 483679 646993
1300 997931 186138
1301 223339 420709
1302 46144 860431
1303 438081 158056
1304 258670 883866
1305 760609 164754
1306 436611 893174
1307 136221 226772
1308 951318 653086
1309 957994 604792
1310 46706 265174
1311 297501 738695
1312 42189 842544
1313 852425 696368
1314 133961 101453
1315 864976 926832
1316 463686 756440
1317 185376 886029
1318 240988 979312
1319 371685 423969
1320 661399 288626
1321 615983 103929
1322 325329 653432
1323 804439 216166
1324 175294 279658
1325 159592 773108
1326 187491 382225
1327 782016 71098
1328 722451 466899
1329 235333 160115
1330 619443 458769
1331 786370 834700
1332 222466 471983
1333 548771 332682
1334 567845 482789
1335 422333 735152
1336 477792 678336
1337 445199 273598
1338 77683 915275
1339 956678 971090
1340 120092 385526
1341 461035 973846
1342 482010 406207
1343 140461 628986
1344 533973 713393
1345 337258 908305
1346 411467 888896
1347 1636 926247
1348 810834 937646
1349 658729 51731
1350 575748 889163
1351 259487 204203
1352 159565 774066
1353 312072 213644
1354 900214 375809
1355 930637 93465
1356 932925 521940
1357 822857 711137
1358 47301 897474
1359 833063 296219
1360 661148 611124
1361 673952 516113
1362 907040 533169
1363 475664 273588
1364 518770 671132
1365 961525 864039
1366 15061 580868
1367 40453 26626
1368 452600 939095
1369 150989 770873
1370 358905 242987
1371 795923 237754
1372 52244 726133
1373 234352 895353
1374 981855 468466
1375 450582 537245
1376 418876 987596
1377 90205 711709
1378 874102 678619
1379 163750 132938
1380 321465 372977
1381 62655 129341
1382 16903 687649
1383 297542 695170
1384 469695 96723
1385 476784 151948
1386 915618 364596
1387 845637 123902
1388 192248 686355
1389 425908 195331
1390 659067 797045
1391 109838 385831
1392 349666 588547
1393 801384 885720
1394 563965 352804
1395 729084 757429
1396 469399 54265
1397 294088 206957
1398 327369 431326
1399 392117 928341
1400 533885 547996
1401 469445 786524
1402 809399 653536
1403 427407 33045
1404 637930 501658
1405 910325 988381
1406 114653 810945
1407 403854 564035
1408 903578 8389
1409 835253 809946
1410 360280 866216
1411 303053 541353
1412 562838 928788
1413 682503 129093
1414 555197 192100
1415 696495 159202
1416 48425 924250
1417 285006 670685
1418 682392 298892
1419 981977 785630
1420 684969 792994
1421 50467 754019
1422 992524 862868
1423 454376 928045
1424 491427 365300
1425 524453 198275
1426 876128 200016
1427 231846 374682
1428 499571 545195
1429 501518 138713
1430 971144 128514
1431 51068 852299
1432 816688 117330
1433 937914 360634
1434 818421 540985
1435 109659 975532
1436 516961 469952
1437 285492 162004
1438 990087 103037
1439 309507 188156
1440 429216 137308
1441 627574 416484
1442 220956 567981
1443 108134 196126
1444 107561 167675
1445 732770 321757
1446 480470 440991
1447 675971 709437
1448 276032 580514
1449 468526 830519
1450 872780 351338
1451 618538 303271
1452 936083 387145
1453 570700 459643
1454 979060 663865
1455 266547 303444
1456 437633 333843
1457 405942 649386
1458 648043 610077
1459 176328 107251
1460 841297 357400
1461 892107 987902
1462 668204 758320
1463 356994 213690
1464 533869 898347
1465 591303 530443
1466 123976 645642
1467 921608 125772
1468 699674 293731
1469 10542 571569
1470 919937 498057
1471 19798 310
1472 326377 375370
1473 429649 492568
1474 772786 917650
1475 352442 62341
1476 46644 570179
1477 239216 342337
1478 227362 972895
1479 381662 810310
1480 687470 276968
1481 449101 407491
1482 743927 768490
1483 283646 437323
1484 7465 30571
1485 219736 155474
1486 837290 258678
1487 754808 778955
1488 310756 321928
1489 748685 325867
1490 530958 384099
1491 832028 723558
1492 210876 314334
1493 81341 716485
1494 901715 153118
1495 842125 262351
1496 286266 979970
1497 351832 764462
1498 660766 761120
1499 245501 547422
1500 64614 107721
