NAME : portgen-700-708
COMMENT : portgen N=700, seed=708
TYPE : TSP
DIMENSION : 700
EDGE_WEIGHT_TYPE : EUC_2D
NODE_COORD_SECTION
1 724001 937363
2 528835 567874
3 408690 702237
4 328345 88684
5 822982 593881
6 641081 148846
7 409891 444366
8 455560 270259
9 787973 318531
10 985150 966738
11 100536 113746
12 273851 364894
13 389472 789763
14 254147 301670
15 733891 143359
16 102327 835651
17 799490 432321
18 326886 550410
19 66066 556499
20 348990 445321
21 901141 49077
22 94976 732589
23 278242 188949
24 312001 563974
25 507951 951412
26 198093 505513
27 549113 195308
28 794007 888349
29 137873 96513
30 240988 858279
31 636171 771845
32 739693 377660
33 692740 592003
34 53870 677301
35 166123 266611
36 958258 223998
37 810580 33737
38 768644 595023
39 564632 78543
40 570887 501123
41 651890 157633
42 60682 875611
43 507188 330482
44 95958 421829
45 739581 734882
46 496540 388764
47 390375 82379
48 487063 677142
49 238496 61238
50 963944 683219
51 624316 233458
52 993087 6827
53 299522 40460
54 444830 673502
55 688120 463525
56 792391 716043
57 356932 506105
58 361739 247407
59 381470 657313
60 890597 15597
61 353506 992631
62 713357 482904
63 642294 724800
64 230911 803752
65 734215 728184
66 150192 891130
67 390423 107362
68 708731 935846
69 800701 554577
70 513872 259780
71 949011 438644
72 531231 723983
73 381375 503909
74 675406 907470
75 440085 762263
76 446230 434744
77 327023 235759
78 533026 733186
79 843035 885724
80 298095 363675
81 239758 890252
82 159630 428339
83 514513 353746
84 184811 632948
85 124729 857829
86 572000 473999
87 217228 128334
88 569367 918762
89 665608 477597
90 949878 909107
91 881765 345187
92 505657 370539
93 488425 259939
94 731500 962083
95 592848 354985
96 751034 167752
97 429848 656042
98 687780 475012
99 221416 402897
100 154616 462613
101 838300 197808
102 957592 530977
103 880497 101043
104 929087 956483
105 747333 273086
106 1686 880951
107 292875 943110
108 612640 72006
109 460404 503588
110 740559 39501
111 132330 781914
112 478332 662116
113 19529 374191
114 516406 686250
115 247836 468323
116 989675 709124
117 730263 676791
118 907421 813
119 52311 562546
120 757898 416419
121 799535 227912
122 221524 553347
123 222654 969120
124 689420 767732
125 636512 313588
126 958605 535165
127 155061 686292
128 472937 129176
129 467545 280800
130 623555 879684
131 48732 366540
132 198585 330914
133 473551 773774
134 659427 739527
135 720455 643520
136 382585 692672
137 867075 426970
138 80895 597164
139 626852 792039
140 189178 890353
141 906646 235605
142 62694 368152
143 419591 623134
144 510539 399349
145 203240 133647
146 341386 312783
147 842090 114378
148 33833 106862
149 360836 794553
150 472452 625489
151 342267 897381
152 578553 746159
153 406942 722999
154 472470 786908
155 266700 849802
156 618636 68195
157 77560 489908
158 538297 735948
159 524449 84206
160 297080 366688
161 412937 864873
162 267075 94966
163 301252 485204
164 114118 120915
165 20028 357896
166 124694 839943
167 525338 339375
168 271716 838450
169 158045 572786
170 829854 683643
171 98684 426332
172 102269 836551
173 720709 476513
174 45708 747124
175 813126 548629
176 992743 239921
177 774525 114556
178 500795 502323
179 372042 239178
180 474443 568491
181 564954 899684
182 957054 583057
183 751117 192304
184 965926 241009
185 769198 61784
186 690240 777325
187 271080 748451
188 373944 173015
189 90347 152519
190 594170 798928
191 113162 874940
192 646471 451536
193 792941 225010
194 882889 942281
195 588257 79411
196 872524 917036
197 803587 768070
198 993402 321359
199 155251 353817
200 462606 547694
201 386166 893189
202 152953 14197
203 435466 117803
204 593450 322989
205 321614 275785
206 619434 429760
207 650920 395032
208 695967 647918
209 96097 188983
210 589654 429758
211 37052 612108
212 778402 221504
213 675618 797051
214 624371 256882
215 312984 256141
216 579565 767358
217 830904 318385
218 179494 683401
219 224020 251439
220 755569 145023
221 128912 693905
222 352626 158499
223 42359 260415
224 138633 582082
225 92452 196351
226 696988 898369
227 40833 206465
228 968129 618807
229 62284 834568
230 834703 752065
231 893783 342011
232 567419 176591
233 146872 925528
234 77134 492421
235 352672 435551
236 509284 514014
237 96531 393303
238 732769 138683
239 571275 571937
240 253375 56810
241 734767 789802
242 422179 560919
243 362358 237553
244 199939 654313
245 171513 253965
246 606267 731598
247 898766 320018
248 635738 614898
249 597374 959323
250 425729 903676
251 689140 566696
252 328706 35641
253 461584 907185
254 476189 479914
255 844107 730575
256 418868 407970
257 663055 580737
258 145797 162184
259 443245 247400
260 540852 531974
261 328154 117810
262 66691 448996
263 746410 942588
264 185308 60889
265 931718 825584
266 662493 91360
267 727830 522800
268 637941 326796
269 126747 841441
270 415121 200173
271 794308 952538
272 113461 639538
273 925811 488457
274 664906 449769
275 573607 693150
276 429589 536484
277 27604 600145
278 241182 597779
279 838866 805906
280 397700 134788
281 780438 634748
282 64793 643933
283 936266 466330
284 294509 23516
285 654926 657340
286 497277 993475
287 673793 847701
288 102384 791669
289 90205 466546
290 207814 148631
291 103721 379401
292 663189 796930
293 45145 27744
294 26567 83896
295 586533 171611
296 32286 103230
297 186515 757780
298 702896 800832
299 278744 265759
300 537154 134142
301 398251 198360
302 241955 424976
303 589428 50187
304 873295 230674
305 554999 213437
306 571211 754969
307 219372 226088
308 102501 677207
309 448233 307012
310 941037 135433
311 187585 28749
312 486361 520784
313 259089 298917
314 751520 248817
315 258272 52196
316 918373 859531
317 911547 994376
318 577419 348751
319 160029 437100
320 694428 367938
321 579511 719555
322 142859 451099
323 984025 3536
324 616869 665731
325 498691 403978
326 49312 29927
327 7487 484958
328 215768 538720
329 286812 247578
330 847556 240676
331 890158 436194
332 536245 187060
333 633925 851656
334 612110 768273
335 242063 98964
336 60338 782502
337 808320 537058
338 86121 157658
339 21262 1403
340 305015 720369
341 12104 503941
342 401260 17595
343 162037 482179
344 323286 724486
345 360450 725762
346 736641 391756
347 195037 595464
348 307600 797009
349 911234 605800
350 364978 826366
351 982274 615465
352 360715 778322
353 391873 545370
354 628666 989891
355 322920 733589
356 215433 562325
357 887127 121793
358 504035 498402
359 241157 940780
360 879460 836916
361 940421 6310
362 403294 415696
363 116690 444872
364 421786 29998
365 145185 540750
366 528992 31371
367 678482 571426
368 504935 449779
369 616813 279466
370 513560 663635
371 241021 382505
372 845026 523534
373 785340 730330
374 988461 779340
375 478773 862727
376 375223 881236
377 460615 824228
378 297374 950902
379 936983 789288
380 273387 942094
381 928556 349199
382 476331 659285
383 492567 832928
384 717299 363593
385 336452 773705
386 509940 461816
387 462007 16732
388 461693 59185
389 545695 579066
390 118322 165787
391 507888 632497
392 756610 203090
393 612193 179792
394 555040 19196
395 78859 672006
396 732479 253220
397 943013 739854
398 153694 779205
399 920498 828293
400 61841 726155
401 184635 409395
402 661018 312986
403 354838 742725
404 124625 257525
405 212034 117581
406 395862 917786
407 710429 601380
408 209614 675336
409 406185 736476
410 505591 713361
411 912429 889005
412 301751 610297
413 589069 100545
414 800798 149020
415 661893 718967
416 934559 288170
417 367031 741
418 769925 590101
419 922068 155230
420 993475 936856
421 773607 818564
422 513605 365497
423 759577 843474
424 951469 332716
425 150785 53149
426 978407 771477
427 166400 342874
428 791595 896465
429 42364 660277
430 543060 764736
431 820657 969394
432 264049 275177
433 343974 577298
434 404181 344932
435 841803 366140
436 723867 73469
437 585690 452442
438 734954 140952
439 722605 958877
440 818702 692604
441 58181 140520
442 605959 897156
443 898309 965165
444 24120 91853
445 656767 192627
446 185920 577135
447 313427 627335
448 212989 700138
449 232873 61163
450 630542 618624
451 120869 992591
452 514014 458180
453 994967 837886
454 165517 269243
455 444564 826430
456 872344 950510
457 3510 350433
458 578816 243521
459 655967 636714
460 62188 643835
461 344424 343018
462 714389 223178
463 245271 731275
464 559454 127510
465 457474 897068
466 975434 453362
467 514313 992271
468 820260 107670
469 137010 255526
470 318340 654788
471 309197 387406
472 29665 12931
473 848202 842901
474 862746 90248
475 382063 481714
476 140683 105363
477 603688 733474
478 643190 667506
479 478278 521742
480 637920 887297
481 700875 909991
482 950902 789775
483 517233 484938
484 920845 990579
485 502231 735915
486 380775 565718
487 254650 580473
488 503152 239061
489 739329 980915
490 579988 577764
491 252997 37712
492 489589 570176
493 196192 65442
494 502459 724537
495 475038 335321
496 186825 146431
497 753295 582424
498 274013 743478
499 132755 449191
500 509778 609141
501 103571 881831
502 510260 804299
503 228716 102971
504 615773 33511
505 537281 577747
506 165047 753740
507 46704 302598
508 700471 554443
509 156696 368477
510 515762 773754
511 352182 471653
512 480800 893089
513 632343 498943
514 55458 450351
515 351757 400181
516 623288 705818
517 443633 2240
518 412716 499256
519 991007 186991
520 869705 641749
521 908745 133981
522 208774 701283
523 983139 715171
524 665630 860205
525 950081 775069
526 688020 682404
527 97434 109596
528 985852 397753
529 438197 508020
530 391582 729459
531 111963 428781
532 163806 895532
533 669002 31065
534 544965 345420
535 319459 985299
536 888812 296491
537 418396 740693
538 85734 669778
539 374219 371204
540 907237 234590
541 60745 547437
542 58768 622297
543 288218 194506
544 542011 548101
545 333237 381650
546 954291 645587
547 867531 884405
548 752936 612253
549 715584 468081
550 615549 313360
551 340951 294426
552 952968 715490
553 714323 140582
554 623636 475136
555 821377 791346
556 855741 890096
557 174782 9931
558 775168 466375
559 561249 279401
560 142595 56748
561 315481 76883
562 729871 6098
563 644347 594386
564 343523 702906
565 26369 945152
566 46141 899083
567 549826 115890
568 378848 170649
569 372654 48836
570 847129 821842
571 633256 262610
572 405505 276489
573 66169 877407
574 915715 861433
575 240057 158549
576 268730 12678
577 441712 670396
578 267218 441868
579 744599 837077
580 336641 543674
581 767927 574799
582 628007 999534
583 158089 593131
584 484590 898293
585 943761 897760
586 550659 699816
587 39343 984046
588 788018 302802
589 635170 59474
590 738879 202479
591 849786 506446
592 366264 482694
593 177224 471342
594 271076 550291
595 957801 785717
596 686058 474361
597 105074 949368
598 271182 933440
599 223266 421459
600 488471 763366
601 242236 856241
602 122553 37577
603 308763 762283
604 646413 959018
605 493171 795876
606 170792 194308
607 879275 550923
608 857616 293565
609 469724 678638
610 728352 224648
611 369864 63131
612 409822 180394
613 655524 694418
614 577262 1765
615 675283 25734
616 656389 676152
617 566303 943003
618 31687 655478
619 627170 815341
620 625078 883658
621 1617 592437
622 821939 733152
623 415853 622926
624 64539 924679
625 293844 576764
626 356177 221500
627 746176 462736
628 106977 566084
629 289937 179550
630 5890 653284
631 135112 831072
632 333940 609512
633 794258 578355
634 372368 146123
635 135070 234689
636 229026 545045
637 384794 151587
638 868471 148363
639 316955 947085
640 73417 89440
641 404481 397712
642 995875 21998
643 890621 825316
644 342212 956790
645 148744 453332
646 283109 481047
647 680270 390388
648 654632 456572
649 207642 670351
650 864681 267490
651 305971 117454
652 851262 204403
653 172283 958465
654 225625 724177
655 572115 281661
656 223871 333147
657 30806 552558
658 370175 654065
659 150801 943551
660 954880 337686
661 370712 702017
662 281441 867579
663 928718 111572
664 693782 180390
665 979304 910005
666 922737 592777
667 374969 791755
668 865568 71333
669 366905 443316
670 651822 236556
671 674515 398660
672 1909 811057
673 82619 581092
674 199606 812691
675 461669 543059
676 762789 27251
677 691046 954675
678 344752 713193
679 742484 59506
680 338835 100949
681 591559 782309
682 72355 335559
683 607146 825210
684 331237 219748
685 469938 789082
686 454458 338110
687 481881 411820
688 574896 343460
689 10970 326766
690 522826 215525
691 369087 634275
692 841555 878355
693 318446 140428
694 520422 39410
695 184609 40358
696 740095 147157
697 973377 862740
698 782097 336404
699 916778 590089
700 236161 739158
