NAME : portgen-400-401
COMMENT : portgen N=400, seed=401
TYPE : TSP
DIMENSION : 400
EDGE_WEIGHT_TYPE : EUC_2D
NODE_COORD_SECTION
1 848026 200446
2 50111 962145
3 97024 598214
4 124179 445804
5 875614 354115
6 757882 349360
7 858471 194307
8 338050 229184
9 330724 311954
10 287097 248476
11 290597 605212
12 971188 939322
13 248630 491270
14 721085 27450
15 451049 210083
16 626695 357114
17 837061 251443
18 120274 821703
19 111738 968625
20 588367 668993
21 665119 73815
22 379453 443894
23 977932 164656
24 237167 427586
25 333664 897037
26 915867 461048
27 43209 135993
28 633570 490911
29 363384 798668
30 841870 275320
31 486475 155553
32 857436 206621
33 688996 684067
34 969906 414577
35 216374 173393
36 992016 903138
37 978290 390059
38 332608 829549
39 562002 835195
40 305752 757718
41 127885 922417
42 185579 175728
43 723607 471142
44 499678 630440
45 562446 436207
46 851796 697161
47 752251 414974
48 676977 761980
49 95524 989394
50 111285 148383
51 602654 401972
52 121833 575945
53 769151 993450
54 275468 867480
55 412386 162427
56 991233 732944
57 236221 405663
58 423524 789314
59 403301 442462
60 529644 927015
61 588542 980512
62 303291 67991
63 570739 590044
64 781304 402344
65 620907 339157
66 554081 694522
67 422809 143324
68 766485 394940
69 686196 779916
70 752204 934292
71 67840 57216
72 100796 635430
73 847664 871283
74 393869 684259
75 844234 86933
76 980675 693180
77 368486 772128
78 594302 908131
79 979163 978509
80 809460 374211
81 307254 495551
82 115275 478093
83 94587 934016
84 632148 600790
85 557998 552240
86 395444 719042
87 598227 442710
88 946340 895361
89 612026 531163
90 473689 662607
91 610880 802795
92 592883 246696
93 31903 58529
94 579247 944715
95 48737 832468
96 762792 85405
97 221918 199964
98 538847 348798
99 458989 658085
100 689090 952302
101 259257 862706
102 210570 181626
103 476052 177880
104 100297 121789
105 740224 535772
106 328884 34447
107 929772 976992
108 611418 221848
109 273633 915310
110 939245 745788
111 475027 974063
112 911699 605695
113 292982 532738
114 508471 416600
115 966658 768459
116 795064 490236
117 790938 937916
118 333723 576433
119 873023 615891
120 635278 810054
121 784895 663936
122 5470 302948
123 357440 788729
124 173705 616222
125 906982 6109
126 840326 42389
127 691426 920630
128 157237 769021
129 71767 272654
130 847903 899619
131 304856 484406
132 486511 930169
133 750877 664947
134 28976 626823
135 619552 822688
136 48142 657411
137 8328 933136
138 905461 432638
139 282636 991069
140 448457 523961
141 460971 235817
142 568696 67039
143 463602 310658
144 3724 860769
145 187039 668775
146 547456 246200
147 996338 812589
148 761911 127484
149 655607 72334
150 397486 924801
151 506093 182636
152 167764 383021
153 545137 604509
154 473692 624387
155 457027 846579
156 765296 210997
157 85615 179127
158 352162 58656
159 488067 673922
160 168257 623392
161 9339 956642
162 229336 694750
163 316595 865506
164 489646 625307
165 387998 300952
166 958946 658248
167 534041 601878
168 758664 249974
169 150202 389569
170 714877 404946
171 822591 329802
172 692511 563647
173 659436 590814
174 16863 301588
175 495993 896405
176 637838 30300
177 684335 96534
178 965855 847844
179 648595 565885
180 624356 295163
181 454307 84123
182 909510 52081
183 23987 435493
184 518486 521968
185 519691 761347
186 41793 186478
187 177928 271851
188 985553 979039
189 272306 132802
190 728894 468751
191 216910 923761
192 951 92835
193 846645 874822
194 748738 481959
195 577891 323170
196 731487 628234
197 869877 953529
198 363152 636112
199 151873 420659
200 578093 680396
201 318508 884061
202 572694 27241
203 679495 714077
204 29349 591499
205 249888 91032
206 99105 166635
207 987994 301185
208 563675 826073
209 214245 955980
210 688928 387874
211 283620 97826
212 943874 839294
213 442839 157731
214 613784 150687
215 592356 271476
216 949689 680806
217 882913 637861
218 369646 50275
219 935766 699765
220 529160 20572
221 660577 792758
222 793030 190016
223 39550 633661
224 684359 30583
225 510690 205420
226 22328 1186
227 828303 306616
228 730707 637701
229 1147 934832
230 657595 629220
231 778310 329583
232 62339 229316
233 430455 306346
234 373604 797977
235 261635 930014
236 141713 183662
237 445290 483507
238 365545 282434
239 269523 637258
240 108587 805137
241 156584 678951
242 493091 963136
243 493166 620105
244 618467 653597
245 207406 63299
246 676670 137788
247 438130 599146
248 878858 476915
249 347468 309522
250 824470 757116
251 364137 47100
252 921995 705552
253 48836 343377
254 508094 865166
255 813450 110601
256 19233 347550
257 727426 594295
258 952549 640521
259 891453 463192
260 350457 953539
261 958878 64081
262 973507 504518
263 565877 94613
264 261666 739737
265 434671 22168
266 774339 404357
267 823808 997986
268 785903 809034
269 951524 898795
270 10586 852644
271 728652 155274
272 303140 253866
273 104421 612588
274 164281 933611
275 33269 784245
276 215249 607730
277 874851 802302
278 982776 959780
279 223292 924009
280 919648 239802
281 391853 609298
282 854580 960805
283 381949 863959
284 44409 473560
285 489874 339961
286 476240 957842
287 429923 566212
288 738290 351147
289 189230 171204
290 521742 606096
291 871321 337656
292 820088 194869
293 630315 165041
294 549776 863003
295 616036 921944
296 764624 477964
297 408921 670624
298 376404 770809
299 725350 736927
300 515576 753273
301 423358 993076
302 411868 427172
303 912923 877592
304 787642 679982
305 171987 817735
306 410003 360288
307 307972 997703
308 475177 913889
309 200377 183955
310 584400 611139
311 138608 307482
312 957984 736601
313 916603 483163
314 545973 2751
315 653288 860697
316 563505 509247
317 999217 704007
318 196093 511032
319 29683 822385
320 719691 716426
321 964663 365821
322 278602 4897
323 783336 457141
324 519979 672319
325 754021 893241
326 224836 722599
327 83638 654878
328 189767 914110
329 993858 707861
330 231078 401891
331 847908 965257
332 960291 455560
333 853071 44182
334 81686 303075
335 214367 18036
336 393909 528057
337 429933 691159
338 386303 416008
339 223843 303105
340 546833 2493
341 489304 838111
342 771672 251397
343 12788 598248
344 548956 543656
345 850935 151911
346 429345 726608
347 608017 701654
348 322517 436605
349 935887 587443
350 618594 367327
351 233298 216874
352 125486 751528
353 403936 386725
354 950926 832241
355 642089 591519
356 365153 450201
357 856926 79167
358 972545 121300
359 357239 258636
360 133043 416466
361 108294 494243
362 684481 847039
363 784738 177034
364 402571 678405
365 287222 999577
366 465081 391602
367 661015 955314
368 637339 39102
369 981184 692504
370 278851 891488
371 241009 290320
372 410613 434469
373 43616 935102
374 42127 760977
375 916916 145482
376 34033 257482
377 300220 619016
378 902245 841695
379 555858 170171
380 114188 364833
381 405540 258422
382 553389 750600
383 350510 74832
384 39588 422457
385 35550 37443
386 79172 596261
387 341719 987561
388 382432 850812
389 194022 65464
390 944794 943042
391 621175 232400
392 564216 922388
393 594037 206659
394 838212 910415
395 604803 562506
396 999513 558727
397 656954 241408
398 812316 644747
399 948601 423051
400 52036 192804
