NAME : portgen-300-302
COMMENT : portgen N=300, seed=302
TYPE : TSP
DIMENSION : 300
EDGE_WEIGHT_TYPE : EUC_2D
NODE_COORD_SECTION
1 213754 37726
2 521141 310786
3 667529 691705
4 208177 811781
5 599427 690477
6 52877 273956
7 814202 735819
8 635661 642648
9 704446 495501
10 514760 323042
11 254167 464023
12 743294 635962
13 616892 66023
14 972639 636089
15 21078 586648
16 779504 300518
17 516929 740345
18 320748 91599
19 351222 495663
20 408232 232979
21 628095 26417
22 402786 99982
23 874575 274087
24 923133 849402
25 945213 162890
26 140817 521627
27 994073 602208
28 842419 913236
29 520797 780796
30 990037 575930
31 340482 712514
32 403549 366448
33 62381 26459
34 871169 714220
35 861243 361574
36 719514 855043
37 550287 351870
38 182225 732539
39 469949 141086
40 793542 703656
41 545225 191842
42 646051 445148
43 246166 66990
44 896969 150480
45 677963 294289
46 220429 637002
47 634419 46658
48 513464 773051
49 476130 50916
50 917757 142035
51 804137 782047
52 55859 241557
53 617664 948974
54 875576 548925
55 356041 775428
56 16267 370316
57 102832 695748
58 355500 703480
59 78094 356890
60 852984 289329
61 550329 820252
62 796462 719208
63 557436 937467
64 799183 308730
65 734205 233250
66 856963 921023
67 785044 18113
68 687389 174909
69 89010 950302
70 89647 542686
71 988896 540078
72 297495 388633
73 743959 400176
74 840540 915211
75 489221 575996
76 973868 167399
77 316710 684507
78 285072 883113
79 997002 37746
80 554167 442754
81 859964 925273
82 459278 813355
83 786532 476188
84 72820 714198
85 951788 955323
86 862940 162883
87 867669 276988
88 315461 382929
89 503542 111955
90 434136 674322
91 940465 761437
92 754562 291450
93 373285 931690
94 461745 971688
95 231580 211200
96 102089 374811
97 998514 134324
98 679746 826012
99 672408 20507
100 73171 361029
101 896634 728584
102 481074 814898
103 635530 212430
104 412837 25259
105 311221 353381
106 421368 25314
107 806165 342967
108 340665 485152
109 926759 324954
110 133609 960519
111 803780 52313
112 641026 590759
113 58688 134355
114 681808 52771
115 641457 103031
116 970092 478282
117 800733 80754
118 252954 915151
119 955272 411594
120 950784 888132
121 4930 136791
122 838078 271061
123 407420 49775
124 733784 407755
125 75635 545390
126 144204 619637
127 379049 970140
128 390937 418352
129 927851 400320
130 561943 720379
131 257157 1242
132 74474 423089
133 348451 284577
134 187235 535104
135 935547 290889
136 751368 519004
137 249318 588218
138 816315 184143
139 673263 670886
140 199821 640336
141 206503 281488
142 490827 921077
143 845873 968850
144 403807 377643
145 732303 968377
146 727915 420168
147 476047 659894
148 136764 485926
149 887472 249859
150 454745 223277
151 376512 62898
152 207933 435298
153 338887 862716
154 128809 457971
155 124266 422086
156 14544 550207
157 668017 593566
158 992463 836989
159 525194 414579
160 286324 862524
161 397104 937375
162 80358 712270
163 914377 688469
164 311070 814020
165 249331 953599
166 55333 215291
167 546619 777734
168 625791 656295
169 613471 897261
170 928614 8884
171 443655 989227
172 91319 869778
173 571272 790540
174 339809 763777
175 745517 448294
176 174855 73452
177 528 501145
178 167943 161220
179 516278 430198
180 809507 682591
181 249244 231548
182 529357 115382
183 978430 25317
184 458888 798238
185 22293 201923
186 497180 761417
187 669062 838029
188 687668 323652
189 936847 579212
190 544326 753157
191 172191 880872
192 4512 566740
193 704354 823785
194 685934 431237
195 799303 600474
196 197407 815232
197 874968 726690
198 511704 682238
199 320165 253289
200 182109 247620
201 853693 760596
202 219451 992360
203 276103 293983
204 68939 433788
205 796791 344158
206 475285 85041
207 630894 209033
208 485183 434012
209 356579 802666
210 603678 296192
211 705152 205599
212 616128 774673
213 348229 736583
214 541966 676702
215 561926 393685
216 254713 503058
217 782421 200167
218 277871 87149
219 249978 795479
220 81556 270342
221 467205 883267
222 827558 503111
223 895322 991808
224 199104 100295
225 378460 775120
226 140272 643462
227 691363 788424
228 992906 350634
229 978175 19283
230 714488 188954
231 44004 273459
232 352231 526448
233 876952 592017
234 257482 127782
235 313710 493375
236 234907 256284
237 424205 828557
238 155919 61689
239 514235 827704
240 781766 997595
241 758408 522683
242 962213 372971
243 349681 981254
244 150826 255972
245 323215 685853
246 829666 122195
247 481768 588180
248 35434 210921
249 459062 999000
250 347191 833632
251 477572 371400
252 318528 380865
253 16712 617589
254 681249 318391
255 438743 11652
256 199807 722202
257 696067 28635
258 359287 921809
259 791690 764050
260 491014 666031
261 132955 258482
262 780591 480078
263 15802 863507
264 937755 43339
265 811845 538330
266 380439 195844
267 388961 770114
268 797787 36205
269 826615 933578
270 13684 427871
271 189564 386775
272 764958 657183
273 552897 571184
274 341604 1690
275 572378 171927
276 273165 415722
277 187155 808861
278 453192 281728
279 982439 548414
280 583078 980507
281 790973 747671
282 304707 10871
283 822087 813031
284 957244 38883
285 475737 788103
286 580205 789999
287 191672 319087
288 392865 717233
289 71326 971729
290 26885 734074
291 881068 389341
292 460261 831337
293 747356 632768
294 891137 378089
295 948026 984755
296 78961 787731
297 457840 225581
298 847666 399564
299 195103 445870
300 264318 835664
