NAME : portgen-1500-1507
COMMENT : portgen N=1500, seed=1507
TYPE : TSP
DIMENSION : 1500
EDGE_WEIGHT_TYPE : EUC_2D
NODE_COORD_SECTION
1 479388 513249
2 484863 834904
3 460878 523456
4 175670 579436
5 415642 677180
6 118851 353370
7 757071 124486
8 881914 559573
9 903092 140208
10 430572 829578
11 182429 202733
12 830293 752620
13 215314 807666
14 143125 702655
15 668713 174915
16 333696 504547
17 261967 274412
18 688720 968121
19 921139 858489
20 944227 661237
21 684794 411404
22 58175 63754
23 698266 760316
24 917187 270730
25 521811 320943
26 968446 279218
27 693145 786163
28 674101 974841
29 251281 210450
30 146183 492756
31 602317 317181
32 635209 754405
33 992386 707447
34 295195 693317
35 426220 121597
36 642386 632361
37 618397 109628
38 861131 903210
39 509588 44130
40 78519 240473
41 556385 932674
42 556471 175956
43 572598 16515
44 869338 507562
45 282026 981273
46 672926 227821
47 432269 822630
48 18851 52433
49 793006 948546
50 202622 795055
51 250728 873057
52 192211 281337
53 764557 35772
54 722746 517188
55 213565 657586
56 105503 743719
57 928424 164910
58 819829 374495
59 884911 812579
60 735554 939952
61 914440 346648
62 490694 631164
63 870868 769328
64 440149 337060
65 345070 825359
66 180464 992399
67 830564 420932
68 134970 812666
69 4250 391561
70 356127 198102
71 131603 56759
72 772008 342074
73 66833 326278
74 737127 801105
75 951761 249522
76 612283 455946
77 603475 377263
78 614591 258329
79 42492 771278
80 146367 951891
81 31521 331185
82 161061 15462
83 525982 48743
84 971711 586350
85 98077 493550
86 637368 83806
87 860817 486031
88 327668 458493
89 743172 113431
90 16572 612539
91 726835 668871
92 190692 393179
93 793837 849278
94 831337 815102
95 894950 86226
96 840955 417900
97 293483 862576
98 560734 47796
99 195941 285976
100 14405 608339
101 583106 623695
102 784532 339221
103 522686 943412
104 265254 210296
105 583426 765313
106 426992 227390
107 876328 60140
108 110936 613621
109 37701 298485
110 454727 478185
111 852802 685734
112 571945 489737
113 910444 13672
114 299273 521595
115 963345 384256
116 193238 532875
117 530005 251259
118 185547 499445
119 792542 130552
120 282242 180215
121 811576 532851
122 360374 416764
123 233424 155220
124 845955 803746
125 952132 547061
126 748523 674345
127 322630 630148
128 415101 50230
129 93690 533273
130 153674 23241
131 150869 134702
132 928053 403210
133 953736 894140
134 867016 459563
135 826716 955715
136 767666 233955
137 346353 907666
138 729662 178456
139 363103 941796
140 74636 860213
141 919981 766000
142 367921 940103
143 233386 58536
144 604821 126794
145 297522 291406
146 632428 332979
147 303835 326527
148 412549 577621
149 186497 452708
150 687102 54967
151 792116 904158
152 729109 91918
153 627079 982522
154 306424 382527
155 396761 356564
156 445409 966896
157 235751 862267
158 390812 817889
159 830866 601526
160 990661 376115
161 707642 414308
162 772461 771749
163 163599 863508
164 504845 254434
165 280586 747139
166 872032 980576
167 545034 718072
168 414804 953085
169 530249 505653
170 549291 415496
171 227670 3295
172 136133 921407
173 583764 218120
174 560518 532086
175 162927 549041
176 72775 932063
177 172121 939962
178 182934 811539
179 359123 11037
180 677114 673994
181 452273 800770
182 833236 981264
183 128893 442113
184 830762 314344
185 278503 172692
186 257371 298779
187 438598 441620
188 303339 775579
189 242186 832498
190 588815 352059
191 504384 493808
192 577320 606592
193 294865 71262
194 147340 563770
195 589178 972690
196 122323 215905
197 227149 376598
198 158125 928890
199 564696 694513
200 618067 808184
201 975933 728019
202 943271 810868
203 44656 578966
204 354742 565529
205 645096 111671
206 664199 795353
207 421858 704424
208 551670 236368
209 573620 456637
210 823139 200002
211 877417 136249
212 696276 470319
213 196759 529352
214 355508 627730
215 396963 724373
216 420836 676657
217 187401 477143
218 687860 709030
219 71949 872895
220 54921 58497
221 497642 690703
222 740630 389176
223 95272 986073
224 519628 756830
225 179839 628773
226 573382 936965
227 297549 893694
228 387347 299276
229 540617 466127
230 123007 335626
231 507017 481846
232 510608 586599
233 614029 973496
234 54723 32682
235 609151 565597
236 716740 816789
237 276798 194366
238 626620 940452
239 838700 802582
240 82971 897482
241 988734 889380
242 504722 61337
243 217355 938989
244 166048 600802
245 863114 714364
246 654307 39267
247 263743 489323
248 341756 680852
249 413904 546264
250 762555 154820
251 147373 717045
252 673859 282356
253 640038 684002
254 432242 236212
255 676338 448358
256 133227 939815
257 603013 408643
258 681318 467750
259 218102 21284
260 244843 933176
261 559591 508459
262 270126 454331
263 418223 999695
264 142929 994441
265 554327 942617
266 508209 602487
267 126244 634613
268 764255 48918
269 286366 96079
270 380018 749605
271 720886 144764
272 355958 929937
273 154772 145848
274 769140 809412
275 71100 342061
276 537922 419463
277 991936 819938
278 646610 544885
279 590800 39246
280 518101 591119
281 397635 336163
282 856193 926732
283 727471 988462
284 583856 673076
285 253871 535470
286 698609 408690
287 950184 902782
288 395254 140128
289 516522 450188
290 807720 873338
291 408894 103683
292 476340 963207
293 544982 172045
294 746294 199511
295 907142 775792
296 465062 613289
297 842208 844547
298 50995 312196
299 194580 453176
300 534683 14644
301 629325 318951
302 1691 197761
303 933166 434239
304 943122 28728
305 274955 474564
306 798591 391289
307 132104 742308
308 126057 784345
309 493955 11645
310 875737 415274
311 793882 130679
312 138393 239226
313 906144 379658
314 406999 752422
315 969615 961015
316 197005 487793
317 175233 333156
318 74746 17605
319 971579 734031
320 837150 760636
321 678090 734648
322 323774 491867
323 981910 334382
324 474896 602981
325 938402 671337
326 905196 442157
327 483561 573667
328 817639 141531
329 143718 668535
330 123015 915561
331 462659 209091
332 191578 514318
333 796474 63943
334 67514 640236
335 760398 791674
336 309449 890974
337 73242 204399
338 510077 351724
339 647118 564725
340 421587 764612
341 235939 738464
342 629407 54054
343 498355 987914
344 296215 660914
345 536681 10803
346 950090 331342
347 973632 45476
348 451187 787116
349 661405 119374
350 981789 630185
351 687264 910171
352 181394 173789
353 435397 166732
354 812750 429507
355 75312 829725
356 845316 482804
357 131853 112212
358 965471 131317
359 235458 146102
360 63130 9357
361 402538 948140
362 658447 130213
363 104410 399277
364 709579 899452
365 769002 343345
366 538974 217611
367 489413 591862
368 919296 753135
369 606611 517195
370 88583 367038
371 752455 150113
372 597783 527323
373 608264 1950
374 672895 843419
375 941066 51909
376 77536 761952
377 350372 638444
378 91210 469653
379 420758 589531
380 254493 682262
381 560121 295555
382 340924 708273
383 77269 695202
384 885020 604529
385 503947 963520
386 458421 392038
387 205035 11221
388 931821 640586
389 597767 20003
390 39002 634756
391 978519 120047
392 644959 86739
393 783223 243419
394 876687 781139
395 514592 224094
396 868114 2082
397 13247 125062
398 908616 360417
399 945077 586562
400 595502 967678
401 404182 652891
402 804416 306309
403 73389 957488
404 116992 263632
405 855220 847791
406 592965 639618
407 74938 30399
408 814147 558039
409 282307 215861
410 799657 716852
411 750124 298458
412 9026 536268
413 559338 805530
414 587622 898726
415 937831 974332
416 523593 334135
417 164783 191211
418 41791 338901
419 45109 614560
420 272592 225184
421 961111 660825
422 981481 797740
423 473969 569655
424 993055 476979
425 565723 103086
426 772794 46350
427 648730 621169
428 444085 70046
429 488108 613205
430 264517 734488
431 912379 502431
432 991040 630035
433 886679 932140
434 658136 277198
435 556430 244492
436 564984 805327
437 650138 696571
438 944057 703773
439 649727 387857
440 92182 489292
441 317421 974416
442 634208 203342
443 61953 21161
444 343095 534747
445 304531 109650
446 680764 767910
447 58130 28099
448 660200 155784
449 10686 284910
450 853683 770195
451 919927 605198
452 384796 76431
453 785664 798378
454 412142 445388
455 559215 422923
456 726951 953361
457 308674 154867
458 53724 144468
459 444301 962940
460 969835 730895
461 921453 373225
462 423514 786234
463 324564 959785
464 420530 573707
465 910906 145678
466 291631 204339
467 828641 669259
468 762340 364060
469 665742 479341
470 149618 917484
471 576859 380154
472 564911 573635
473 188197 307538
474 344396 271895
475 703535 700414
476 735253 436979
477 374004 708004
478 478563 715588
479 776557 715537
480 314090 421604
481 132636 932800
482 295770 641731
483 846063 346797
484 388449 735038
485 966669 746186
486 800072 172406
487 259404 269421
488 995642 484474
489 999221 715510
490 307671 608975
491 183228 704993
492 259616 489302
493 13042 358831
494 908569 186910
495 823195 415543
496 975610 930703
497 512671 403431
498 117412 404453
499 120749 295490
500 577993 703722
501 308316 628886
502 964224 94560
503 517185 30260
504 177362 884701
505 694961 119732
506 807019 589646
507 892342 898547
508 445993 201932
509 420128 892338
510 524318 441610
511 226047 92959
512 157045 262946
513 437869 171186
514 208182 164844
515 752235 965382
516 307111 114519
517 20548 187939
518 801956 593581
519 812650 361069
520 43308 811110
521 938702 16231
522 662591 381585
523 189496 882651
524 773658 249724
525 965562 946226
526 196271 955905
527 543254 612611
528 396610 193797
529 608337 776284
530 292603 923603
531 217609 816292
532 841392 883851
533 181029 790787
534 927055 510757
535 709051 563342
536 428274 170403
537 926775 578092
538 245338 270141
539 549704 544434
540 866336 244072
541 562848 431897
542 872240 828631
543 747772 490818
544 273126 136696
545 6909 11168
546 666526 301893
547 652018 479966
548 382835 768298
549 89455 84499
550 136247 919354
551 332946 229224
552 383388 721490
553 383377 764374
554 83665 714622
555 864838 905792
556 920670 471641
557 769375 281435
558 257077 915715
559 164274 361426
560 501015 412731
561 701332 842556
562 374510 789697
563 230395 199050
564 787015 205285
565 194714 480963
566 186476 835081
567 679595 960544
568 323401 91207
569 662521 590805
570 571554 832057
571 326544 911700
572 635680 594177
573 309836 823970
574 927383 862321
575 249570 183785
576 981283 884169
577 889784 655283
578 732877 497864
579 549628 422844
580 398088 292170
581 101853 492859
582 143068 32781
583 579247 8970
584 835960 175197
585 971599 433107
586 988331 301953
587 111855 317230
588 431447 817162
589 952771 719226
590 56819 732531
591 649421 364170
592 807197 902544
593 379110 693617
594 692013 646813
595 381296 314431
596 255246 487323
597 619206 138447
598 843725 24590
599 799845 318450
600 162729 492673
601 871198 208157
602 805501 517039
603 534363 617113
604 76972 987239
605 276173 39260
606 805851 902814
607 41548 83656
608 36923 614529
609 873653 4621
610 189056 554657
611 209125 517510
612 12468 478925
613 561908 780174
614 496452 594815
615 782866 814334
616 740190 965532
617 443053 17558
618 926680 746606
619 322621 723540
620 865621 764580
621 819963 687392
622 457757 826638
623 105306 737736
624 474855 140280
625 576538 63550
626 528138 205029
627 535583 348394
628 752483 905666
629 765103 787943
630 590359 787757
631 294491 353431
632 121618 511592
633 219297 118459
634 445057 214910
635 978350 299186
636 139674 733372
637 428082 125505
638 26519 4095
639 981926 664073
640 726442 656242
641 15070 708508
642 4455 995109
643 519843 386758
644 843913 931460
645 798261 808220
646 301549 107711
647 745190 566434
648 624905 86591
649 259309 332251
650 800119 101210
651 755809 810782
652 413838 920296
653 48479 819629
654 200573 540474
655 828551 365724
656 61752 833643
657 989681 782138
658 486207 186780
659 608241 555183
660 886687 132706
661 859149 112805
662 414791 877139
663 543376 328892
664 319534 507786
665 77026 206889
666 803522 441452
667 835521 360718
668 594489 181427
669 718827 222317
670 508901 333063
671 778517 288730
672 44773 665555
673 949071 188743
674 692920 868051
675 23057 296013
676 767056 751523
677 255225 593229
678 297688 314357
679 975260 53120
680 325806 867052
681 100801 978256
682 31572 495488
683 587206 773022
684 788870 324125
685 833067 297463
686 493859 740189
687 532125 590673
688 365649 107626
689 857580 821561
690 579451 229019
691 353631 266414
692 181979 209973
693 106088 825265
694 409879 340032
695 773511 821467
696 392556 394701
697 389249 211437
698 839203 38327
699 756604 454099
700 299906 841444
701 331163 871358
702 288600 794038
703 942381 500642
704 569543 45251
705 487141 472422
706 904477 635227
707 279608 504339
708 474495 706100
709 589006 820134
710 656285 548878
711 16417 334771
712 24219 991623
713 966299 622501
714 451589 738087
715 648292 865006
716 538083 812328
717 334420 107028
718 324542 718403
719 986805 677640
720 735478 399987
721 236259 589745
722 683747 224632
723 805050 57785
724 370482 397626
725 245138 216702
726 586737 18517
727 805807 434899
728 303361 518834
729 536937 181571
730 469496 223978
731 513836 891902
732 309772 87153
733 236163 314732
734 951480 54976
735 699288 416709
736 335617 191380
737 574996 439583
738 962140 997899
739 528963 589320
740 688261 447465
741 85563 270018
742 268590 424313
743 351170 646180
744 502555 247267
745 870865 9809
746 766923 931829
747 978351 318768
748 64370 44878
749 14748 244164
750 262491 807151
751 528822 781162
752 709364 797672
753 131138 316719
754 749927 381493
755 83729 657180
756 16278 289670
757 310706 459686
758 457054 582007
759 913551 991004
760 22783 191284
761 299983 707315
762 792484 892137
763 887887 554455
764 482015 777323
765 308444 645421
766 247972 147470
767 505590 31081
768 431186 795892
769 959312 808904
770 967259 769162
771 732629 511551
772 224484 679580
773 709825 59608
774 139344 86214
775 430881 509914
776 562862 237424
777 935720 617070
778 559179 381351
779 275571 678283
780 366486 335246
781 357407 941023
782 414234 314566
783 924551 504727
784 65186 631125
785 749860 397446
786 442662 827337
787 560123 512868
788 628421 62559
789 771595 175414
790 332958 506535
791 278884 803732
792 410837 973198
793 288014 306949
794 733236 191024
795 106529 926459
796 730705 328187
797 59043 569812
798 326500 905292
799 951428 711615
800 51159 647266
801 288012 963930
802 753255 924345
803 231030 759130
804 826587 962521
805 329055 252229
806 648115 84547
807 571754 440027
808 604540 29220
809 881980 844421
810 988066 19259
811 553298 353571
812 579965 102594
813 109433 478731
814 74081 635778
815 281838 869291
816 235971 809073
817 846358 80728
818 858420 194337
819 231978 970809
820 368658 258794
821 424969 888815
822 202957 87269
823 373160 377134
824 748221 956448
825 460379 847768
826 831210 315650
827 429776 181868
828 411295 478939
829 117572 672527
830 65924 36692
831 527151 855777
832 593863 70261
833 827260 759300
834 881589 484484
835 66866 227405
836 280998 925531
837 384041 140297
838 188049 237648
839 923794 398097
840 691299 630494
841 361159 401554
842 569853 245145
843 342139 380194
844 215209 776096
845 253467 99119
846 312748 747493
847 903943 141252
848 977795 499437
849 504773 62660
850 899220 135512
851 453339 350123
852 265149 829884
853 486608 429656
854 745796 184631
855 839728 31100
856 263729 341475
857 419059 966804
858 723944 779658
859 951834 452610
860 92466 327823
861 254527 818928
862 585264 931353
863 774065 930875
864 660382 554157
865 653688 758392
866 491851 739163
867 558369 660198
868 366765 19684
869 982494 603048
870 521201 562481
871 428359 762598
872 683630 925644
873 844592 493819
874 162229 972589
875 367187 46919
876 839055 950615
877 408971 140827
878 643661 714176
879 791754 604950
880 463119 466924
881 447161 142748
882 663430 277247
883 602741 501130
884 657844 493415
885 122212 230125
886 617429 979244
887 85423 45546
888 488767 303911
889 409957 444436
890 287692 59889
891 139121 55431
892 91038 186764
893 311230 349102
894 75733 281121
895 57457 865635
896 361839 489079
897 480836 291075
898 945051 449115
899 677175 638084
900 436876 540680
901 83861 717792
902 684897 307297
903 907798 783624
904 859577 222206
905 829596 294558
906 638442 510633
907 547493 597484
908 105084 958082
909 661911 372354
910 332195 153625
911 823955 19759
912 56538 581531
913 146264 899636
914 294346 778125
915 137747 705143
916 444334 187751
917 614839 993133
918 421446 628488
919 507937 493553
920 81679 353148
921 687190 703379
922 948925 903832
923 41679 342080
924 432540 899304
925 144811 45415
926 154769 899049
927 500336 731733
928 96346 896110
929 102952 691764
930 885851 279310
931 275686 366023
932 140527 476448
933 607367 935063
934 561707 643661
935 555804 763004
936 525541 762607
937 227542 286780
938 998855 924906
939 519422 324805
940 485184 250153
941 796684 602581
942 892274 858436
943 429457 78310
944 47223 138391
945 385765 486382
946 66780 864276
947 937749 318675
948 827607 924583
949 475836 662145
950 904976 116773
951 822657 107735
952 414119 894657
953 248731 552187
954 6774 641900
955 302276 18036
956 848886 964561
957 305999 399469
958 212529 411409
959 428274 821851
960 648841 682783
961 459227 899562
962 738684 439030
963 940347 417806
964 348487 332884
965 38049 446667
966 918131 877522
967 22529 467148
968 401267 832123
969 296582 492805
970 645906 18047
971 650036 225372
972 489550 702981
973 27154 167218
974 125591 498718
975 378327 409800
976 576096 142951
977 624096 458308
978 198642 945134
979 85205 946971
980 493390 416608
981 255605 513969
982 995993 284228
983 367999 623514
984 475010 603017
985 372314 45311
986 285817 929555
987 443524 239040
988 106687 316276
989 275465 280376
990 240388 995213
991 332600 401516
992 839494 621440
993 191062 404161
994 881529 738300
995 99149 777752
996 357112 693564
997 120490 600595
998 732229 720480
999 781847 250509
1000 596294 710877
1001 891752 845215
1002 258329 383114
1003 77200 174580
1004 303456 2655
1005 267245 794480
1006 63604 346905
1007 847821 715637
1008 59495 562040
1009 393479 395397
1010 551999 647519
1011 841666 224500
1012 6723 661436
1013 153558 440601
1014 671226 60409
1015 161839 932106
1016 12819 272810
1017 13130 445908
1018 931608 985694
1019 553694 123856
1020 561945 629022
1021 10682 486132
1022 186301 451630
1023 936086 132611
1024 686841 459053
1025 447037 291627
1026 49254 721438
1027 88670 664188
1028 698058 618942
1029 832085 812421
1030 451505 91505
1031 620886 179600
1032 440710 638223
1033 783797 577472
1034 160604 396191
1035 779551 926884
1036 875198 934425
1037 948359 260371
1038 598264 120228
1039 135830 342535
1040 963378 534615
1041 608515 858805
1042 608903 70333
1043 311219 833219
1044 832100 374906
1045 662110 354135
1046 825090 157502
1047 344304 635060
1048 753823 76257
1049 537772 925929
1050 853365 815858
1051 996780 344306
1052 495674 912421
1053 683111 190449
1054 112534 18336
1055 352968 864838
1056 786842 457178
1057 150310 97370
1058 266415 463383
1059 835295 805649
1060 884399 707540
1061 39700 234674
1062 542826 963693
1063 930103 530892
1064 438750 35937
1065 577260 407815
1066 7694 117494
1067 989567 98540
1068 747773 151337
1069 708494 511533
1070 803918 847835
1071 997923 26450
1072 490507 954570
1073 314435 590415
1074 614675 380611
1075 704956 222931
1076 637506 501834
1077 348669 445549
1078 808163 879285
1079 354739 397134
1080 164648 531774
1081 481954 601000
1082 214417 505132
1083 866914 760391
1084 966671 195739
1085 782934 676000
1086 848708 454683
1087 100692 661467
1088 70033 537865
1089 886005 97277
1090 155529 50817
1091 176152 41615
1092 871289 45485
1093 925861 406693
1094 903076 484434
1095 231625 987382
1096 184665 512755
1097 728599 127918
1098 999127 543240
1099 925757 829039
1100 884536 776569
1101 704409 517398
1102 225082 654138
1103 46778 595891
1104 630544 303184
1105 519687 401470
1106 976208 870304
1107 165509 177266
1108 347109 969199
1109 872400 86499
1110 506004 323674
1111 834633 137631
1112 311202 6364
1113 971590 331309
1114 229601 446553
1115 614689 474142
1116 907320 582821
1117 577589 754059
1118 74609 305848
1119 876106 694023
1120 698376 956662
1121 534292 816577
1122 978430 907950
1123 152748 47033
1124 201552 722234
1125 156327 667818
1126 313638 479204
1127 214350 410394
1128 869249 121588
1129 939809 471022
1130 579529 740930
1131 719785 936521
1132 604807 563025
1133 867177 159631
1134 891874 257558
1135 24517 300075
1136 767646 150166
1137 930171 838185
1138 10036 355429
1139 923281 900808
1140 137115 850002
1141 391500 758578
1142 867023 873758
1143 754357 970798
1144 978013 14563
1145 886882 914977
1146 413974 618547
1147 669505 398300
1148 189015 384126
1149 886405 140244
1150 897914 797319
1151 123752 300743
1152 585119 306325
1153 276318 555059
1154 612180 340591
1155 656036 898450
1156 143574 925245
1157 584140 664552
1158 326956 101238
1159 267016 206507
1160 374010 483050
1161 273225 751629
1162 359644 227198
1163 176323 466903
1164 565046 623845
1165 561867 454976
1166 743248 582689
1167 244772 238664
1168 706427 466254
1169 174438 202471
1170 546802 653119
1171 703782 771506
1172 640553 403832
1173 641752 662344
1174 258902 442306
1175 221977 722112
1176 819080 262559
1177 578377 442937
1178 54070 541062
1179 55971 346454
1180 599898 810064
1181 380621 409709
1182 793789 2917
1183 194668 372067
1184 284692 180308
1185 22800 664611
1186 842335 824709
1187 984529 651898
1188 663969 10665
1189 173251 916706
1190 173127 635260
1191 410932 218591
1192 23947 751802
1193 74355 333539
1194 788900 241854
1195 43996 334359
1196 181561 994129
1197 179671 882191
1198 810784 879072
1199 786977 988655
1200 739862 631086
1201 489093 342195
1202 269178 586716
1203 311179 600488
1204 238612 826574
1205 368582 720531
1206 752161 814116
1207 302457 265538
1208 628502 386491
1209 230038 911597
1210 192133 315595
1211 585090 296037
1212 440446 391714
1213 175518 500139
1214 555531 397813
1215 340718 63481
1216 772053 346677
1217 548123 452596
1218 883098 596815
1219 916134 758409
1220 123300 687863
1221 103501 877302
1222 49721 728401
1223 749269 885524
1224 553683 787957
1225 706672 310644
1226 323541 389163
1227 647936 676380
1228 859032 142415
1229 794071 816581
1230 703617 714364
1231 684354 480202
1232 703274 680719
1233 617029 874859
1234 764394 574056
1235 516268 742977
1236 832808 442081
1237 204925 881488
1238 992054 195926
1239 648100 764065
1240 532681 33102
1241 706067 738949
1242 694195 626354
1243 379126 291851
1244 643402 867404
1245 835567 8239
1246 832421 342077
1247 242141 380322
1248 855055 661420
1249 672377 168233
1250 736346 553342
1251 237424 789617
1252 255275 673570
1253 604577 584591
1254 694968 21582
1255 297253 567181
1256 499012 926667
1257 981014 695377
1258 881942 342276
1259 238061 322951
1260 825663 955609
1261 202481 596161
1262 837709 962926
1263 505552 43190
1264 186805 531354
1265 276911 407463
1266 500958 626517
1267 466811 965500
1268 534089 779400
1269 757934 998817
1270 744411 36850
1271 53790 320451
1272 41741 879957
1273 805757 236259
1274 504367 279214
1275 874769 811865
1276 474614 141022
1277 891321 328883
1278 52383 610907
1279 322806 289775
1280 139480 825176
1281 826657 696150
1282 277171 260403
1283 513390 178561
1284 884925 101057
1285 889620 645683
1286 837909 958846
1287 448181 13798
1288 480994 61459
1289 704839 508826
1290 910542 894645
1291 720383 897030
1292 391873 451734
1293 580805 804808
1294 349345 206407
1295 452109 355528
1296 894474 656877
1297 109197 98727
1298 198940 94943
1299 872270 27943
1300 398962 744298
1301 531420 995541
1302 368672 980124
1303 91481 577584
1304 749148 439586
1305 748077 247575
1306 261561 116398
1307 837666 783952
1308 930701 169779
1309 586952 178443
1310 61463 418447
1311 306290 856982
1312 702094 145321
1313 114263 842368
1314 590173 468057
1315 922316 903410
1316 312310 265252
1317 760749 662967
1318 633084 603985
1319 59364 607921
1320 521033 411026
1321 217856 170902
1322 144944 33662
1323 49237 37492
1324 954783 963876
1325 984464 356572
1326 504769 404213
1327 105626 495552
1328 431988 266167
1329 234792 705705
1330 347039 487496
1331 518220 141227
1332 918553 337051
1333 29718 90659
1334 971453 804003
1335 734714 893208
1336 214996 623076
1337 193978 704890
1338 913677 902077
1339 751355 206541
1340 713333 848095
1341 607575 884468
1342 121017 434820
1343 385189 171082
1344 346698 423697
1345 633248 542425
1346 632531 255360
1347 873206 627824
1348 196029 594780
1349 976923 440054
1350 119985 147159
1351 286137 748241
1352 250542 136368
1353 748996 620301
1354 283195 670806
1355 110362 260905
1356 919468 811094
1357 72456 804614
1358 854965 262859
1359 268020 290729
1360 141021 434938
1361 113735 531399
1362 684018 587554
1363 607071 466755
1364 372533 57609
1365 955893 293376
1366 618882 80548
1367 96179 452428
1368 928627 796481
1369 812012 316402
1370 579855 122330
1371 903062 55969
1372 282676 198310
1373 428689 101131
1374 571341 285651
1375 20752 729274
1376 222246 919313
1377 484161 826609
1378 528277 205589
1379 652061 798114
1380 207741 952514
1381 808288 966792
1382 90951 988032
1383 357842 863498
1384 528417 874146
1385 375925 753833
1386 691517 982368
1387 269976 411746
1388 212691 194422
1389 47238 857409
1390 59277 401482
1391 814693 574418
1392 849868 3378
1393 485087 652089
1394 989597 108146
1395 94585 65128
1396 268064 937865
1397 940477 826021
1398 430812 920693
1399 785992 870930
1400 985618 234267
1401 53893 713932
1402 226374 619270
1403 914581 647828
1404 69444 480782
1405 341521 876188
1406 215991 543914
1407 703529 142612
1408 684450 870422
1409 26315 264929
1410 557219 437149
1411 77506 657486
1412 888527 141657
1413 699940 977585
1414 755993 650705
1415 497164 564863
1416 124977 566455
1417 515887 183088
1418 185490 270778
1419 870888 707256
1420 318928 614664
1421 625773 724667
1422 550927 657435
1423 987622 610578
1424 49338 798819
1425 126081 453227
1426 164699 135286
1427 373765 420755
1428 109289 487437
1429 198045 43286
1430 433780 643803
1431 776939 362188
1432 161854 726857
1433 250415 491324
1434 992987 46093
1435 154989 73872
1436 821084 227495
1437 138847 103992
1438 272449 942219
1439 283720 467772
1440 32368 212502
1441 779540 712707
1442 216925 853361
1443 787923 762789
1444 404601 789030
1445 932673 694166
1446 277790 824795
1447 552266 245055
1448 793579 398277
1449 585820 446934
1450 384986 45403
1451 326857 581565
1452 766451 913579
1453 673687 451992
1454 918361 520404
1455 632831 346500
1456 82835 409014
1457 110613 739614
1458 366013 952144
1459 809921 916798
1460 933277 852137
1461 905503 546053
1462 661107 109586
1463 747014 239519
1464 461044 225268
1465 430305 820456
1466 23857 763315
1467 834941 685867
1468 129666 370525
1469 602093 477311
1470 487348 835779
1471 952867 487802
1472 855752 80536
1473 788662 731736
1474 163687 442680
1475 498040 554060
1476 937233 360551
1477 16628 564530
1478 21545 563541
1479 746624 80583
1480 783912 303162
1481 849899 441049
1482 33056 797052
1483 393632 595032
1484 553261 30077
1485 950951 634276
1486 788456 367241
1487 418757 379216
1488 914903 544951
1489 529424 96576
1490 88040 183473
1491 492895 380460
1492 441355 127143
1493 970557 582807
1494 730259 37888
1495 292234 534633
1496 817263 572016
1497 526359 853071
1498 47322 585626
1499 69045 476536
1500 165632 243710
