NAME : portgen-600-608
COMMENT : portgen N=600, seed=608
TYPE : TSP
DIMENSION : 600
EDGE_WEIGHT_TYPE : EUC_2D
NODE_COORD_SECTION
1 992413 449768
2 610684 51350
3 176877 857278
4 766727 680580
5 634914 105358
6 959257 416114
7 223761 698418
8 352137 455577
9 3853 746356
10 174709 547109
11 94041 264061
12 84059 209985
13 933172 562241
14 376928 300296
15 804626 513627
16 761731 748180
17 779155 956465
18 246557 166467
19 338272 866638
20 146833 762478
21 651622 718373
22 239757 162981
23 375861 663121
24 984694 545606
25 418606 432072
26 627336 243472
27 964128 615727
28 924158 244233
29 670613 654218
30 804793 10410
31 519006 900089
32 533746 872436
33 453735 240884
34 176357 60779
35 322557 689015
36 470883 458246
37 327749 742637
38 919773 850569
39 299932 468332
40 285827 688939
41 891628 722709
42 495502 794216
43 994621 861641
44 214433 906718
45 502729 5672
46 990109 277492
47 544080 457817
48 291595 193376
49 390623 497119
50 243208 525292
51 363188 516361
52 259779 729667
53 540444 904626
54 747969 169912
55 621105 62516
56 29799 763894
57 151489 799120
58 20301 241513
59 356008 75928
60 580840 260359
61 850261 679237
62 817570 797265
63 325826 954521
64 198466 598082
65 202193 15146
66 102599 130020
67 847226 223310
68 659140 127734
69 571220 696381
70 773915 753107
71 505633 138505
72 325878 242370
73 155411 310871
74 459922 746815
75 131990 337074
76 994909 792541
77 294926 228062
78 422692 233168
79 669135 36468
80 70527 412710
81 333405 51587
82 395996 867998
83 556882 891294
84 438015 909118
85 643709 709429
86 781591 609192
87 943937 243766
88 265449 57720
89 384311 589508
90 374572 92658
91 285385 161997
92 527554 789483
93 681741 51011
94 734023 979227
95 666428 767846
96 689718 662102
97 52672 64486
98 971515 896441
99 194567 82111
100 976920 97691
101 926560 870413
102 372243 39332
103 51688 832912
104 264986 505443
105 546321 371681
106 499144 689907
107 370040 302681
108 722991 671303
109 998915 331510
110 896482 660441
111 696726 355904
112 932197 546018
113 782869 911177
114 236949 904605
115 192078 432537
116 792733 878867
117 43187 2890
118 593513 595478
119 791956 224873
120 66491 10437
121 52095 402512
122 82744 5986
123 71119 333814
124 729904 506654
125 281616 60338
126 659491 289961
127 890033 544383
128 304957 47692
129 827226 369352
130 445818 456210
131 40955 40112
132 438952 535883
133 319585 96632
134 607163 364054
135 231562 389177
136 941399 492261
137 49893 836144
138 949 406765
139 465870 387814
140 241061 735176
141 83951 867596
142 458786 735867
143 391582 752621
144 439915 507303
145 683305 496881
146 988314 427902
147 993311 677313
148 69038 559834
149 352619 246599
150 5036 664353
151 867943 342089
152 265593 546440
153 976386 791895
154 831174 154165
155 152800 552335
156 607776 319922
157 686047 948937
158 467895 613052
159 46800 761638
160 466845 759751
161 744013 360563
162 359017 567208
163 521233 599309
164 226668 503453
165 859758 209054
166 575590 311704
167 235013 688725
168 127399 764028
169 181549 509849
170 267972 778530
171 705820 678277
172 40458 923553
173 752868 627751
174 68885 426103
175 156079 469729
176 333165 849165
177 386841 795982
178 88762 556239
179 107075 576867
180 419040 212358
181 610346 321325
182 886193 374270
183 846515 929499
184 279463 762494
185 196069 840143
186 544166 620697
187 605558 997115
188 426586 894847
189 973721 563034
190 478445 964994
191 492233 649800
192 84412 647399
193 598708 254265
194 425511 860743
195 842209 197900
196 484564 419054
197 313779 427829
198 234363 85122
199 72718 43342
200 496967 858020
201 654029 505851
202 947657 191085
203 977495 683364
204 764753 739442
205 197273 834497
206 130727 246332
207 734657 221140
208 727793 191291
209 7546 458363
210 139906 761392
211 856781 236121
212 265527 338048
213 186113 38315
214 673039 414473
215 19620 743221
216 130094 234279
217 365760 643947
218 834266 245901
219 915142 863271
220 919605 407417
221 246719 967147
222 720836 80817
223 341118 248443
224 153527 975730
225 241715 196048
226 412082 658244
227 23722 753745
228 727926 419750
229 140090 303710
230 356818 731594
231 768222 901481
232 819836 789856
233 587778 163580
234 525495 653840
235 880022 479350
236 37763 31815
237 216648 943858
238 349309 198536
239 212398 511781
240 610122 766363
241 898225 369329
242 57655 288025
243 974999 228612
244 414443 575904
245 56168 670686
246 720405 261302
247 983249 440255
248 369654 214903
249 750499 776978
250 731508 142581
251 36044 641746
252 365608 475352
253 297822 42753
254 600588 735696
255 778746 499313
256 5306 564185
257 247541 686131
258 11189 506919
259 918231 379580
260 420202 372874
261 413080 748517
262 922332 737440
263 443305 396016
264 666206 741296
265 646035 306556
266 597948 476701
267 733034 110808
268 761056 334039
269 121788 371524
270 276836 468079
271 310381 34862
272 155701 683293
273 257606 971887
274 338970 245809
275 996949 973637
276 548697 9203
277 130942 424952
278 544633 559343
279 908711 254799
280 714295 963783
281 920964 229064
282 458860 310666
283 188932 970444
284 408483 564247
285 428525 39301
286 167949 672422
287 382630 446565
288 824177 403877
289 617575 497380
290 192807 883962
291 487304 411406
292 27000 682252
293 385591 368883
294 17841 422367
295 921876 790612
296 925556 557541
297 942999 237534
298 300130 637958
299 652231 709136
300 859116 853728
301 354312 841590
302 53002 112987
303 486332 137290
304 982203 448689
305 39360 175749
306 541502 486344
307 332923 923683
308 38226 363422
309 286065 221326
310 10536 550973
311 318212 699346
312 705131 574796
313 684989 326359
314 619420 269642
315 960232 686887
316 421674 168885
317 458019 17057
318 342459 960
319 78483 103317
320 644025 22169
321 82818 796514
322 411830 370903
323 472400 226209
324 852410 368202
325 552545 973771
326 18538 382589
327 748904 172228
328 432054 185426
329 383570 35944
330 770528 485372
331 58806 878886
332 804664 17191
333 92931 744987
334 74513 962019
335 451282 812017
336 511012 917862
337 668781 36765
338 532434 935623
339 950442 532902
340 142741 499562
341 942788 583475
342 499114 474860
343 628080 542788
344 364221 440828
345 924126 597472
346 926447 116463
347 652034 832008
348 511156 164956
349 127733 375065
350 838468 536777
351 275767 319507
352 225461 52982
353 30982 435062
354 883474 274044
355 544148 889266
356 821205 942741
357 111818 173055
358 558924 942343
359 226851 972655
360 506034 927974
361 617253 699448
362 123550 914505
363 536249 191505
364 692400 615798
365 5783 97371
366 52148 676397
367 988753 253474
368 678356 47
369 471657 326059
370 915935 685737
371 315936 391565
372 934794 996151
373 980219 226999
374 992913 737528
375 295758 319651
376 472555 511935
377 369281 741097
378 484628 599369
379 330753 971986
380 374625 30934
381 963404 557415
382 358109 858411
383 573330 429639
384 7947 115666
385 192836 331925
386 949429 489323
387 676897 186383
388 455419 105318
389 330166 382453
390 429876 936880
391 860751 720413
392 241173 974848
393 133966 494733
394 318288 130342
395 680144 248716
396 992100 355991
397 133222 584009
398 736307 826613
399 714668 748410
400 540732 874900
401 896832 610459
402 307651 358878
403 458900 752141
404 270762 394432
405 607130 989895
406 281080 200411
407 291842 125908
408 38834 607413
409 424192 774099
410 122103 746717
411 714971 259536
412 574933 317935
413 435093 338970
414 181671 318018
415 727483 703277
416 834555 935734
417 775322 439981
418 655799 660339
419 428571 115264
420 936014 526553
421 70540 544188
422 8238 933426
423 533745 732563
424 781057 815286
425 148915 397337
426 644941 396649
427 20926 837455
428 40345 961098
429 835136 867670
430 703078 798560
431 323570 155497
432 458418 80577
433 919355 736892
434 192172 358415
435 592162 306271
436 826355 608906
437 625184 724766
438 101775 318321
439 238610 737478
440 277590 473995
441 503833 314000
442 614939 928923
443 379706 679057
444 477315 694745
445 520626 918907
446 468167 70155
447 523101 629742
448 700197 461634
449 919004 283472
450 831651 215424
451 493953 43579
452 537696 674920
453 893504 330941
454 781710 92003
455 457749 361287
456 483782 140391
457 347044 784171
458 330392 253415
459 632396 828676
460 380379 457720
461 817887 908699
462 526764 376738
463 812318 782776
464 71210 950264
465 831262 770834
466 536611 146606
467 279729 916303
468 990212 363441
469 966956 830768
470 598530 126290
471 46661 648639
472 314365 62905
473 101019 559467
474 543391 146363
475 817424 917421
476 390424 968740
477 452210 60817
478 678813 347346
479 763850 621392
480 684707 530062
481 363984 950941
482 493472 331458
483 314626 835143
484 826026 284138
485 683152 770925
486 710024 486033
487 11252 462958
488 67296 849147
489 456489 465946
490 697925 464971
491 18925 449817
492 265556 301200
493 406850 585669
494 653134 948270
495 601677 155068
496 537415 682818
497 147615 827605
498 416266 560627
499 637387 851406
500 995608 251871
501 102977 77444
502 448437 352452
503 898495 940606
504 703183 151009
505 653967 93144
506 694212 815579
507 19715 529638
508 992646 681166
509 803326 665867
510 915192 753998
511 197756 974619
512 288529 431280
513 667947 632580
514 37595 658799
515 564463 126689
516 145963 305480
517 811979 604780
518 770759 203346
519 430101 735917
520 308553 725683
521 782343 987266
522 33078 847679
523 957312 562796
524 394288 716335
525 159657 783685
526 523032 978587
527 286943 868918
528 105908 797497
529 265464 843657
530 581692 695148
531 510505 967265
532 842456 928283
533 310801 706945
534 782501 172036
535 572326 429850
536 286877 86990
537 506209 131506
538 230965 219169
539 687676 419611
540 325372 870450
541 367115 193938
542 77107 869314
543 616184 178697
544 463023 883696
545 293979 63813
546 420845 258064
547 163591 878703
548 438806 695352
549 481057 901571
550 616713 738142
551 875120 974677
552 390962 289207
553 416569 329093
554 901479 417628
555 252734 927210
556 334473 381767
557 549677 517878
558 274303 252440
559 803674 963753
560 489477 615448
561 225887 880929
562 555323 834183
563 554729 312200
564 696027 217001
565 714936 901871
566 317689 270047
567 166876 398162
568 535976 985347
569 644261 559228
570 595010 363743
571 375023 499270
572 394219 678530
573 837926 539915
574 702741 329407
575 323973 126605
576 999324 264056
577 186634 714841
578 420453 605073
579 807800 992800
580 753231 431222
581 684832 342251
582 822617 888990
583 552187 835203
584 987548 871146
585 679952 734388
586 549699 474267
587 639780 362871
588 616124 961831
589 694294 840482
590 413730 949656
591 504400 703226
592 463770 283714
593 217038 975438
594 447429 277885
595 845974 700772
596 997799 773114
597 879276 860622
598 814043 900755
599 859489 31347
600 62406 876094
