NAME : portgen-1500-1508
COMMENT : portgen N=1500, seed=1508
TYPE : TSP
DIMENSION : 1500
EDGE_WEIGHT_TYPE : EUC_2D
NODE_COORD_SECTION
1 576704 838125
2 874045 700069
3 263196 461906
4 821287 353517
5 327523 502066
6 95670 10698
7 898933 411946
8 282948 787720
9 60933 895930
10 468676 323774
11 152493 911230
12 792191 604169
13 39877 609942
14 271897 312669
15 168005 181213
16 827102 535422
17 962170 239171
18 969523 621961
19 888417 75388
20 966249 908065
21 897289 694711
22 936728 289450
23 497290 395575
24 930460 710914
25 222704 106136
26 764154 601838
27 228995 831959
28 752799 41282
29 875954 634873
30 730545 641235
31 573488 745898
32 387268 419457
33 604776 400958
34 73970 609482
35 914655 887373
36 857259 350018
37 673225 362539
38 559620 550655
39 682235 960232
40 851369 998595
41 733988 637023
42 582123 526770
43 607724 81203
44 148153 542713
45 634395 568565
46 547991 278934
47 160732 78875
48 50805 547271
49 21485 574188
50 729830 946635
51 713339 970228
52 859544 224109
53 372148 127130
54 19715 702224
55 224235 671596
56 893128 333240
57 478 161980
58 93243 294554
59 585166 308392
60 368651 57504
61 379472 499782
62 879652 968020
63 174033 887031
64 490474 449116
65 990391 432489
66 530939 980010
67 735996 179773
68 105466 400747
69 636545 420143
70 433526 313169
71 496037 839760
72 174061 576890
73 189092 48209
74 399281 192711
75 904842 163774
76 56796 572369
77 583796 297340
78 415695 733329
79 234231 679771
80 118642 971401
81 490585 599572
82 268698 911065
83 175558 53368
84 159178 423588
85 972887 45034
86 895272 392454
87 403550 204877
88 708 807103
89 915985 582312
90 552325 440703
91 652799 810703
92 330473 18989
93 941904 931367
94 711312 824930
95 4214 52097
96 241568 212956
97 447255 388491
98 417897 103582
99 436209 969184
100 576182 381989
101 132223 816969
102 640386 464138
103 510974 246093
104 241895 564807
105 355436 484327
106 22017 409301
107 675556 66544
108 729832 277628
109 152316 880206
110 493168 71976
111 617158 189994
112 847406 590898
113 912810 78302
114 752068 939412
115 693902 754614
116 565208 351178
117 226875 67998
118 418686 243498
119 135146 263928
120 289157 664275
121 779051 831105
122 331761 932238
123 434939 51573
124 365550 856356
125 475680 339594
126 351514 496797
127 275281 821567
128 816780 781045
129 590093 572388
130 45451 267476
131 110947 977966
132 275650 691160
133 705276 190911
134 77539 743318
135 631605 678259
136 912078 295959
137 404525 153574
138 720461 120360
139 914713 25838
140 774117 131765
141 488208 179680
142 893960 426426
143 643667 587242
144 75528 535715
145 362721 227774
146 165959 391828
147 632323 610897
148 752197 483091
149 426580 178187
150 211776 314578
151 136859 339711
152 82239 343915
153 851385 171833
154 602836 848854
155 177900 229538
156 705517 54378
157 209666 817677
158 101516 719118
159 345642 664752
160 938963 222184
161 764331 899351
162 531541 317026
163 541399 572367
164 213720 60609
165 302188 548628
166 517524 65859
167 847938 544578
168 426247 433830
169 970014 76283
170 324909 924548
171 241599 410775
172 596751 140537
173 463442 266607
174 860286 315296
175 69498 179830
176 269371 365970
177 875998 663148
178 797054 71000
179 491773 537660
180 917668 417555
181 201819 526553
182 523944 253352
183 987939 294741
184 457627 69129
185 354234 834908
186 858832 30346
187 595254 759133
188 952813 398361
189 23352 868393
190 519972 470398
191 80593 676059
192 142940 884633
193 346808 990970
194 541914 594585
195 556639 131505
196 976202 900884
197 722048 490000
198 65715 211253
199 815521 837617
200 187723 65081
201 243254 991893
202 795324 599099
203 99236 593311
204 223029 991365
205 316340 806084
206 529086 897188
207 981021 786163
208 441352 300935
209 804505 33943
210 187636 776686
211 479220 620009
212 881405 289153
213 591654 866939
214 235021 996154
215 659897 359502
216 175331 31987
217 552053 713887
218 941312 183405
219 695038 356777
220 443280 45873
221 186464 507970
222 406948 779952
223 652284 356193
224 19479 432894
225 898346 198776
226 976231 819366
227 177720 828221
228 889749 211266
229 439839 81436
230 657786 915830
231 898272 866252
232 548084 270467
233 619620 21115
234 490239 201068
235 133878 85159
236 281455 371611
237 135597 988860
238 800454 659853
239 442288 53184
240 399403 380387
241 427099 153585
242 338368 744066
243 461229 309079
244 483903 281586
245 94267 920196
246 693165 493969
247 222899 358121
248 764417 814852
249 372373 418087
250 979498 992431
251 913904 966294
252 33490 517959
253 771676 822646
254 480998 433654
255 366991 580670
256 727362 158253
257 987169 737589
258 222664 404302
259 643353 189962
260 506049 804767
261 648742 72151
262 221570 141447
263 171254 315161
264 338120 617637
265 217184 977808
266 178855 8634
267 686192 818733
268 653024 268846
269 166416 600778
270 521401 56926
271 665726 293941
272 775536 289499
273 271454 621013
274 272399 81451
275 186866 449256
276 476731 754736
277 200903 1689
278 813576 905270
279 280102 214757
280 864935 502829
281 656230 880220
282 912253 310065
283 914944 433421
284 382716 697669
285 466135 601651
286 131903 561901
287 3095 56793
288 328036 894006
289 871248 219880
290 327871 265984
291 35058 123363
292 752702 714354
293 321577 298634
294 96381 376126
295 903788 219602
296 886129 468746
297 134643 919750
298 925023 103824
299 290845 718743
300 961463 377448
301 749765 52519
302 753580 920881
303 414197 353367
304 2033 486548
305 680111 514941
306 808888 903975
307 310968 645332
308 616700 187483
309 745577 992502
310 385042 811119
311 142576 663973
312 736205 88686
313 851885 79383
314 808320 82214
315 642595 974668
316 891972 384700
317 539768 812929
318 457096 131083
319 812394 107369
320 97654 134094
321 553057 103878
322 991084 92669
323 77026 222156
324 732541 45956
325 67864 845639
326 295504 208631
327 76147 986795
328 485476 365064
329 512751 940651
330 463785 283114
331 540973 894664
332 388893 546017
333 961884 705010
334 912890 218299
335 568306 394543
336 454942 699620
337 924638 539402
338 515614 933945
339 587826 749410
340 603210 486821
341 566632 867668
342 618428 359481
343 433695 997308
344 995806 993750
345 851045 752086
346 218192 594095
347 539063 703110
348 679152 853436
349 179240 451681
350 577054 143081
351 634329 983130
352 442746 581043
353 279006 427835
354 590202 716665
355 553100 488168
356 369258 519000
357 89606 711699
358 64922 946877
359 355601 685783
360 866865 108447
361 525769 461208
362 641244 425225
363 760214 471811
364 256873 343594
365 260396 87779
366 343742 871161
367 196310 115041
368 117562 47632
369 778062 906729
370 294559 486817
371 641706 310023
372 126885 742597
373 226316 756983
374 952850 113837
375 942896 207340
376 596563 835645
377 191285 489275
378 799338 763168
379 786820 327704
380 463480 231373
381 649772 683473
382 422106 66282
383 846461 59235
384 392114 347008
385 485383 307938
386 994027 241763
387 742887 659524
388 511884 690124
389 269923 151969
390 625887 997046
391 684991 929168
392 880114 29022
393 438006 660269
394 449054 130027
395 268580 58326
396 655518 431054
397 421345 986620
398 492790 399942
399 567136 467361
400 230713 536191
401 487060 800881
402 487950 945850
403 522349 667394
404 955531 162263
405 51269 139068
406 314113 656792
407 59124 405153
408 575855 218718
409 262127 435485
410 573492 446518
411 492099 924753
412 116294 949191
413 820878 193146
414 753813 797036
415 137175 844489
416 734593 107659
417 100700 486818
418 682932 28198
419 870044 474960
420 453166 219287
421 398142 13569
422 556535 822061
423 566227 730764
424 314759 472154
425 165741 299644
426 646129 770099
427 330185 386223
428 801597 379400
429 700180 1131
430 262917 494150
431 797350 480570
432 709096 831981
433 740926 300544
434 100256 237063
435 838926 845090
436 903959 789973
437 269743 273847
438 800389 722000
439 594567 730071
440 147594 441478
441 492965 752681
442 534118 643024
443 47139 254022
444 398563 268718
445 745892 382388
446 927941 632980
447 636033 608075
448 315328 608169
449 743825 282687
450 21672 844227
451 136197 584688
452 324559 724263
453 806679 893447
454 235980 687160
455 339084 547575
456 980837 431462
457 255238 880529
458 566208 164369
459 844537 101020
460 516653 132756
461 556718 817569
462 215390 994699
463 708893 319270
464 465413 545479
465 467168 906941
466 486019 907407
467 390986 600018
468 460640 61502
469 497442 653589
470 76816 882769
471 409485 297542
472 752064 613135
473 825669 110372
474 417589 641334
475 899182 996057
476 142755 198345
477 815519 114731
478 358207 228790
479 193701 724541
480 263622 745176
481 396005 582391
482 610344 456314
483 138089 683295
484 679397 642103
485 54860 455836
486 746779 203202
487 201838 520596
488 990000 358373
489 2049 100659
490 636492 480103
491 125569 740872
492 281857 721992
493 510936 903628
494 297062 934672
495 461928 777345
496 382104 855339
497 598728 620980
498 135989 206282
499 95703 231468
500 623135 467295
501 108322 316929
502 4842 419078
503 870487 401883
504 916488 93527
505 603794 454578
506 931727 259028
507 262612 486276
508 363071 540665
509 983662 989364
510 320324 931807
511 587591 447929
512 18968 587565
513 347513 429849
514 198360 782759
515 650108 588116
516 441885 908522
517 496864 181913
518 548376 866540
519 478259 795580
520 358920 970270
521 919966 307698
522 614348 530121
523 189754 934174
524 836371 11163
525 273466 706139
526 7921 312943
527 581359 35018
528 25410 199799
529 820065 822928
530 870702 3946
531 923623 120908
532 734606 633524
533 534611 624029
534 644680 732490
535 296522 428896
536 704293 972498
537 715897 614184
538 923885 274647
539 866570 983949
540 562154 147713
541 609784 375432
542 912057 646161
543 664493 320977
544 173916 863340
545 647301 924346
546 221860 745768
547 499057 930023
548 265977 947467
549 591800 164
550 606235 915106
551 67604 852421
552 449008 125752
553 96355 632489
554 400886 935197
555 370525 704433
556 25883 956724
557 175626 946355
558 782086 177854
559 621850 804582
560 367547 587144
561 32228 644515
562 126255 381416
563 361291 851872
564 523490 590144
565 517829 291396
566 873761 931372
567 613424 857721
568 121830 653060
569 199805 965701
570 864075 486638
571 699126 369333
572 495793 60157
573 892118 577345
574 619513 117641
575 568731 414104
576 423977 1655
577 482335 314839
578 41345 136232
579 238996 591287
580 3922 443294
581 432684 435185
582 71122 883886
583 5306 656549
584 460930 115469
585 54237 204740
586 558341 504209
587 235850 953442
588 163166 30572
589 162180 811416
590 340070 225059
591 612875 932202
592 586222 74534
593 858712 438576
594 860249 729537
595 852414 465281
596 192129 84335
597 911464 659334
598 928296 194917
599 133482 542351
600 896990 861546
601 415164 808097
602 777570 343672
603 801229 491774
604 415433 407800
605 456126 602769
606 275982 509458
607 738873 538641
608 251165 348348
609 523720 411787
610 955590 810389
611 523066 918579
612 218478 192690
613 789576 750244
614 726638 892178
615 152212 671391
616 615138 754379
617 355289 737301
618 949076 103416
619 193329 47581
620 823369 510363
621 914855 448462
622 773947 42024
623 942214 273549
624 865856 718773
625 869758 178052
626 468278 241304
627 390138 225598
628 246407 660784
629 452807 40268
630 394595 697812
631 298445 367852
632 584431 945763
633 687914 827520
634 735511 696848
635 596426 977615
636 482491 804947
637 542029 777538
638 342111 281762
639 528441 992880
640 946283 128791
641 297437 686369
642 497583 454399
643 372946 247286
644 169948 409526
645 49387 121556
646 367905 496480
647 451154 845754
648 27872 109907
649 906432 996409
650 699913 660451
651 745108 872976
652 772489 740967
653 880615 781908
654 743721 935738
655 852652 999121
656 490836 43281
657 990881 273039
658 329907 801965
659 916698 738677
660 917890 578006
661 921087 739101
662 996935 935974
663 232506 609514
664 32457 801062
665 896923 560202
666 538041 592702
667 140228 947162
668 637955 254155
669 695488 224543
670 124492 570981
671 330587 431271
672 491635 471381
673 200468 628803
674 499545 515179
675 613247 418357
676 77449 105370
677 99485 139710
678 122410 152406
679 732748 825327
680 103011 626459
681 86420 519177
682 811246 281671
683 668533 59565
684 551645 519500
685 72570 701103
686 302419 401519
687 125429 499533
688 500556 815716
689 639616 857224
690 813564 80100
691 876766 207130
692 698050 270464
693 473782 18864
694 781456 858556
695 278628 578390
696 702509 175987
697 151972 423388
698 268561 929068
699 305841 992101
700 970824 384751
701 989187 642320
702 701614 533147
703 541591 870319
704 407320 829021
705 665928 103546
706 370950 874191
707 546698 524621
708 923949 910432
709 367204 387857
710 13109 739464
711 753723 559544
712 548675 687819
713 711916 660099
714 699904 592282
715 957942 630236
716 408396 810594
717 191296 710017
718 709150 2574
719 660431 173428
720 346514 563349
721 651659 393598
722 845447 539164
723 824666 142965
724 627311 464153
725 711472 608462
726 229164 713558
727 34159 340587
728 976354 178593
729 451023 991596
730 823997 539016
731 209887 233892
732 482507 102578
733 451887 977351
734 28744 7534
735 699955 780983
736 283120 903051
737 676384 404647
738 510300 40165
739 525384 208087
740 711464 533322
741 209075 708307
742 768285 418925
743 420348 174504
744 328087 88717
745 258130 731798
746 973829 652897
747 473472 565531
748 280228 748608
749 717213 440799
750 28863 784501
751 617581 419224
752 752688 178149
753 399386 520856
754 945272 615234
755 920238 801850
756 850506 362306
757 733465 92198
758 565187 556990
759 760419 916975
760 822349 703278
761 260137 587945
762 978670 915454
763 163402 863896
764 150362 498235
765 5261 989444
766 94892 910149
767 287849 909614
768 682816 846769
769 974841 676086
770 853738 863358
771 414085 411111
772 266367 554851
773 471660 385884
774 674227 558018
775 402129 416332
776 598245 218978
777 435538 39419
778 689608 707431
779 131374 843074
780 495332 552617
781 546014 269185
782 761496 56880
783 387765 439394
784 95938 178613
785 620538 179302
786 882763 202400
787 514846 406017
788 105033 41159
789 152407 939251
790 225845 455970
791 732521 307287
792 2902 452644
793 443429 825706
794 148653 230968
795 521849 243422
796 750830 796227
797 55548 674435
798 980595 211684
799 896264 860350
800 449818 430501
801 233477 734975
802 332172 946158
803 683810 290957
804 216076 982894
805 595989 863902
806 558778 900405
807 321225 251910
808 801786 749786
809 213637 87061
810 76284 176080
811 543130 235588
812 728795 190036
813 945825 147787
814 870227 568688
815 722207 814075
816 825082 169513
817 343261 361943
818 897191 832115
819 986062 750991
820 650857 693642
821 612069 61592
822 154684 345768
823 700291 515242
824 67432 865512
825 728610 832808
826 341457 327576
827 138142 635743
828 605418 63964
829 391714 970229
830 48966 851694
831 304895 465084
832 332036 902346
833 251832 497186
834 745721 975456
835 551618 286543
836 682353 348124
837 358451 243476
838 834623 215554
839 97445 93052
840 584617 881860
841 756072 899998
842 519721 870512
843 509180 359997
844 837476 440914
845 110110 400005
846 86394 10605
847 199372 364314
848 11289 263944
849 703141 911208
850 511145 484737
851 417797 974380
852 280894 846749
853 76735 441459
854 807854 267630
855 126563 245421
856 226487 950800
857 860119 648961
858 765300 294289
859 265712 967721
860 891057 987888
861 794045 834513
862 464311 66881
863 868746 707973
864 67230 511701
865 166740 393163
866 407699 829815
867 966489 339196
868 655373 805272
869 39878 870760
870 105212 214890
871 94285 869755
872 549856 122222
873 605960 251881
874 546294 132491
875 495568 303315
876 196713 191439
877 744467 117981
878 77037 587981
879 7891 941697
880 191375 271462
881 401580 937093
882 162418 911672
883 151135 356731
884 400943 737896
885 43000 513418
886 747995 133220
887 472153 587741
888 791174 602606
889 90045 346329
890 989843 280764
891 700081 125533
892 320326 895277
893 991583 470606
894 667397 54816
895 188061 298641
896 404329 301982
897 827759 591793
898 466894 961065
899 397602 962114
900 331047 3354
901 161836 199965
902 142647 214803
903 603234 71180
904 871113 849190
905 126398 606431
906 920584 953075
907 753636 892734
908 867133 99597
909 109333 570624
910 444778 190070
911 959129 438828
912 406848 39646
913 351582 548030
914 990572 257349
915 984507 719993
916 731492 240855
917 219930 383412
918 360179 747006
919 371896 427591
920 28144 891985
921 361272 96772
922 610037 997990
923 339511 965500
924 895133 788113
925 240210 918864
926 970492 140252
927 977606 611054
928 271861 920980
929 980034 759235
930 854624 856227
931 699284 443521
932 821045 234412
933 245158 823812
934 343037 755645
935 553222 901632
936 204464 321220
937 330414 525913
938 219577 818876
939 461221 795794
940 767785 430601
941 567995 231336
942 402724 128280
943 20709 287971
944 419809 985518
945 138253 536367
946 403968 616250
947 874369 126511
948 687521 40051
949 766358 84124
950 778413 520635
951 504278 99338
952 20328 809608
953 350868 739155
954 737528 849326
955 590344 983890
956 501171 994515
957 620982 318257
958 452258 83033
959 569152 694534
960 546891 205106
961 57453 258913
962 977232 32587
963 397354 105125
964 300892 520805
965 175044 480422
966 81348 611895
967 205450 783895
968 929430 573479
969 610354 84467
970 676021 937676
971 718819 725274
972 438627 933146
973 478913 145055
974 639018 841782
975 729157 582395
976 739159 245552
977 909079 297991
978 439286 892383
979 893888 236433
980 880177 777389
981 128800 653060
982 173305 652668
983 265070 775896
984 555888 687835
985 839343 307203
986 444014 727370
987 965377 964495
988 465947 811901
989 349834 679241
990 593301 504970
991 211237 64459
992 640627 397655
993 351621 428288
994 438589 552781
995 518824 153533
996 17591 922519
997 245124 368817
998 493661 991449
999 759897 474131
1000 467199 667012
1001 795221 959776
1002 248480 224186
1003 371157 674700
1004 604924 511423
1005 946369 10997
1006 453794 341107
1007 717608 726644
1008 759797 206281
1009 407936 804487
1010 159007 273621
1011 15999 81757
1012 220636 172331
1013 511982 484238
1014 478889 741190
1015 593337 791246
1016 206976 838410
1017 732871 582303
1018 51176 870130
1019 346850 913983
1020 637857 145339
1021 20352 634102
1022 393774 245202
1023 137534 935833
1024 701882 72792
1025 856835 9423
1026 512560 18706
1027 880793 675952
1028 460035 956810
1029 226905 666177
1030 173010 501027
1031 327850 690941
1032 873565 801030
1033 990645 819691
1034 947333 472406
1035 589110 823963
1036 504398 335143
1037 947651 149584
1038 761061 997293
1039 200963 544684
1040 712296 555171
1041 257332 812711
1042 568180 92310
1043 463396 516035
1044 964845 931841
1045 591657 231484
1046 922797 874443
1047 324873 813893
1048 640941 685208
1049 686450 244189
1050 484141 140240
1051 734870 157198
1052 360496 301663
1053 752090 699848
1054 450525 788483
1055 212555 943999
1056 991965 295063
1057 74520 941526
1058 578230 453406
1059 366067 59671
1060 160088 305437
1061 133241 703143
1062 988265 448869
1063 89093 347199
1064 974647 645988
1065 397494 61212
1066 546767 412480
1067 332128 768296
1068 563206 962269
1069 738190 626654
1070 514079 9990
1071 149967 905173
1072 771752 286220
1073 98243 219654
1074 886178 876004
1075 724800 293741
1076 710561 40462
1077 846695 422928
1078 593473 322389
1079 825069 592199
1080 738456 789820
1081 961658 823871
1082 274403 202565
1083 794032 86792
1084 523310 788299
1085 843283 358576
1086 567227 490063
1087 334871 866347
1088 594876 92779
1089 856447 565336
1090 855396 766703
1091 522129 382447
1092 907531 607673
1093 99554 722895
1094 138076 129563
1095 974264 476414
1096 438958 949890
1097 783371 155502
1098 442762 659904
1099 570301 905405
1100 691344 5463
1101 363206 320842
1102 20607 958096
1103 771611 328113
1104 132930 239022
1105 323374 870577
1106 184313 695506
1107 617935 262042
1108 350861 11767
1109 40500 118901
1110 759802 134127
1111 516490 617904
1112 96955 837819
1113 995370 246385
1114 469455 376775
1115 94735 266762
1116 959848 617425
1117 241961 984818
1118 582390 826623
1119 764512 645489
1120 256811 87786
1121 682395 19175
1122 369760 840136
1123 959924 821053
1124 852935 945551
1125 160132 196377
1126 190448 193526
1127 810669 424581
1128 45614 745781
1129 78880 35789
1130 375706 944988
1131 563601 487441
1132 982210 235587
1133 188181 165138
1134 325746 777799
1135 302118 529807
1136 158832 94948
1137 958768 563425
1138 943678 322963
1139 807234 672374
1140 792204 249588
1141 167504 433666
1142 1068 149747
1143 703161 472407
1144 635214 6374
1145 796637 417252
1146 500877 986713
1147 343371 727003
1148 928954 587447
1149 60407 806335
1150 896457 636960
1151 13818 180561
1152 153347 910544
1153 28873 756782
1154 192457 660922
1155 721420 573207
1156 110567 72506
1157 239151 958454
1158 444111 576888
1159 144070 255207
1160 306632 600734
1161 104730 519410
1162 881341 665157
1163 515988 978271
1164 941601 48224
1165 534551 186896
1166 130506 146312
1167 950953 218997
1168 139021 94997
1169 194514 42614
1170 705636 126273
1171 328336 380007
1172 699741 195903
1173 312521 981466
1174 105371 678213
1175 211014 950683
1176 645846 12183
1177 271783 709561
1178 506454 867506
1179 229607 934349
1180 771522 933876
1181 562267 149843
1182 955286 595147
1183 244870 730560
1184 372765 43248
1185 645933 462644
1186 471516 465857
1187 44192 355949
1188 954887 92547
1189 247626 171779
1190 158703 648482
1191 748663 7251
1192 276701 600675
1193 624628 980662
1194 191026 355806
1195 974126 408461
1196 722231 151266
1197 396681 242991
1198 654756 862479
1199 335814 343791
1200 241015 219973
1201 733839 933592
1202 519510 562532
1203 202019 638594
1204 735481 671108
1205 84932 525791
1206 676480 873800
1207 960223 363061
1208 211644 411001
1209 753162 712294
1210 940390 382390
1211 394745 28974
1212 802232 425959
1213 728804 537924
1214 946346 481660
1215 153929 316293
1216 357065 576518
1217 86846 632911
1218 972001 874863
1219 47028 913639
1220 389030 213627
1221 227500 478731
1222 415416 591735
1223 13715 693257
1224 349033 970721
1225 514186 116832
1226 916132 854154
1227 189861 924722
1228 862907 157320
1229 846745 886598
1230 590530 327156
1231 591566 821842
1232 282077 871305
1233 298291 197749
1234 458384 368487
1235 349345 518387
1236 61967 782440
1237 198107 823558
1238 466258 540591
1239 839112 877510
1240 563051 571484
1241 691178 59748
1242 891129 826773
1243 724726 535223
1244 294441 215541
1245 334620 774252
1246 416479 678541
1247 564293 870643
1248 151660 445060
1249 280623 591857
1250 125477 473124
1251 854144 471523
1252 407669 942702
1253 425653 856384
1254 963024 363087
1255 199995 327684
1256 862878 631203
1257 551978 816278
1258 910676 913024
1259 257548 411433
1260 719644 853231
1261 917125 866526
1262 243009 876221
1263 664242 590443
1264 374770 255405
1265 397904 609874
1266 577566 476024
1267 677515 235367
1268 708605 59975
1269 507770 74851
1270 916096 811702
1271 277674 883008
1272 495896 481389
1273 857126 549952
1274 435531 688072
1275 206400 561216
1276 70289 25217
1277 193953 515603
1278 895558 378120
1279 794008 172302
1280 234097 365678
1281 348614 888173
1282 446990 388293
1283 50009 979870
1284 135307 70589
1285 959151 360723
1286 477493 569476
1287 205033 158428
1288 782941 891908
1289 672573 727406
1290 980663 286122
1291 796435 202468
1292 21308 32226
1293 261259 689393
1294 29033 289221
1295 185358 728734
1296 924668 437180
1297 115700 555373
1298 334208 708198
1299 677974 337468
1300 698447 965218
1301 877379 708125
1302 707408 920277
1303 764781 867820
1304 3909 161726
1305 254343 206164
1306 349086 504786
1307 986943 505362
1308 441010 911433
1309 772473 891617
1310 54084 341811
1311 301896 797838
1312 372142 993932
1313 483344 769368
1314 862067 284755
1315 393646 915121
1316 887998 510846
1317 473062 774498
1318 937036 291648
1319 215524 515945
1320 591216 349826
1321 916919 137415
1322 235137 843547
1323 426838 126829
1324 65038 121767
1325 72028 564840
1326 846130 393219
1327 943821 783325
1328 77220 366533
1329 235062 932910
1330 983241 473132
1331 652295 487963
1332 570510 904517
1333 289245 211670
1334 269649 143396
1335 78524 314180
1336 846394 650706
1337 819589 489244
1338 495680 908676
1339 854016 588816
1340 916712 116811
1341 534305 929157
1342 301514 920513
1343 262825 400034
1344 940336 568545
1345 485253 725365
1346 21999 72128
1347 437421 277035
1348 503432 266213
1349 317826 745892
1350 347866 518161
1351 272812 476222
1352 205054 955217
1353 30534 916972
1354 91705 23307
1355 520499 677185
1356 426196 666517
1357 447656 257876
1358 451133 580166
1359 50542 293474
1360 401084 23031
1361 893844 523756
1362 795529 560362
1363 41367 370171
1364 445651 864371
1365 458709 578707
1366 816971 830708
1367 68316 239527
1368 690614 867788
1369 481500 43637
1370 469380 682658
1371 349492 646861
1372 167460 462221
1373 831521 498242
1374 276598 877059
1375 235667 133260
1376 820561 453455
1377 287183 769159
1378 701189 442104
1379 407905 965526
1380 264603 162746
1381 435471 48067
1382 553927 837840
1383 327692 779334
1384 499056 985435
1385 426355 952890
1386 303567 173482
1387 57806 267824
1388 202469 440389
1389 236573 26370
1390 859172 599263
1391 962265 480124
1392 599767 295963
1393 143235 768904
1394 276781 230475
1395 911834 911279
1396 368732 496065
1397 617282 516489
1398 379090 176009
1399 589054 899636
1400 259751 391132
1401 261669 250228
1402 17886 636403
1403 170994 340436
1404 853687 991220
1405 625923 932285
1406 165322 177430
1407 53692 353324
1408 794014 939405
1409 430784 37437
1410 458750 151682
1411 190279 599420
1412 725683 35222
1413 691221 53339
1414 155595 421403
1415 96830 862033
1416 586701 245353
1417 400446 926887
1418 433941 784835
1419 426432 246443
1420 501948 203829
1421 338120 239343
1422 771725 760152
1423 720999 769311
1424 770382 582059
1425 825267 325751
1426 20414 167651
1427 802806 397718
1428 804430 16316
1429 849781 90999
1430 202462 386158
1431 914003 607243
1432 489271 422093
1433 594164 925979
1434 405704 293539
1435 632324 24702
1436 169023 848724
1437 212170 132998
1438 131268 22628
1439 796614 327964
1440 230792 674905
1441 203557 64595
1442 218940 710671
1443 948029 979457
1444 756081 978352
1445 332722 507962
1446 379130 132893
1447 614118 477246
1448 34806 489396
1449 27173 638727
1450 628883 698371
1451 972697 442418
1452 351267 150362
1453 122194 955818
1454 948711 92134
1455 449689 824972
1456 260234 871428
1457 758277 694500
1458 7028 781110
1459 993124 12024
1460 387287 104768
1461 898805 766977
1462 664655 933953
1463 52004 726605
1464 497456 61807
1465 10804 175449
1466 73917 704479
1467 878274 405820
1468 414670 332128
1469 306317 524440
1470 703642 166918
1471 986332 744056
1472 591065 227953
1473 609156 612152
1474 468237 680165
1475 425241 308201
1476 991939 965365
1477 627922 453433
1478 624454 268218
1479 564143 945447
1480 735691 790065
1481 649500 424270
1482 388492 282771
1483 838639 516178
1484 280363 530324
1485 85344 394875
1486 312873 312959
1487 586783 79086
1488 112829 933440
1489 139055 211222
1490 309499 783786
1491 162461 552009
1492 326116 220738
1493 525949 649646
1494 315987 595503
1495 567180 898492
1496 51764 775993
1497 439096 308767
1498 854044 673373
1499 157273 511979
1500 115123 675716
