NAME : portgen-400-406
COMMENT : portgen N=400, seed=406
TYPE : TSP
DIMENSION : 400
EDGE_WEIGHT_TYPE : EUC_2D
NODE_COORD_SECTION
1 334605 824825
2 996018 287971
3 108615 290462
4 352260 316209
5 435018 478541
6 641973 635997
7 567778 631604
8 343221 369918
9 119930 90563
10 477619 719457
11 140922 147696
12 780678 197068
13 371445 502646
14 364946 77519
15 947513 241569
16 93725 511488
17 338078 75235
18 524291 90900
19 948128 53119
20 698475 903135
21 727594 490350
22 772214 572374
23 973051 340948
24 303533 628504
25 838131 823004
26 894405 74150
27 722458 364972
28 27062 823117
29 486747 920782
30 763680 17714
31 342333 299140
32 617733 531882
33 750946 151623
34 863782 995403
35 658553 2273
36 66385 491426
37 252431 654614
38 825051 66772
39 425237 415705
40 170005 548327
41 15898 444163
42 313838 929798
43 899235 794584
44 893754 806195
45 324289 372667
46 227118 952724
47 394565 696202
48 836750 236168
49 237918 117600
50 747322 906279
51 915710 887827
52 458499 289803
53 807105 450242
54 760311 792659
55 465736 232478
56 929362 680551
57 596493 391012
58 790596 389609
59 904575 921531
60 695131 514777
61 913704 746182
62 248080 752273
63 86562 178557
64 32927 962627
65 847508 374809
66 306460 632578
67 949968 937527
68 618964 335346
69 847670 922826
70 139202 509626
71 890009 972223
72 111063 809511
73 458962 480935
74 704643 642292
75 609639 658192
76 203241 275290
77 270091 372512
78 599819 283132
79 937858 520972
80 670839 471759
81 602572 837484
82 653457 956110
83 342468 957139
84 569488 786981
85 932049 309660
86 684965 262282
87 311891 36939
88 311536 638414
89 476091 875568
90 152454 803430
91 240699 511954
92 291788 375749
93 772237 468975
94 979121 993858
95 595058 661825
96 765858 60688
97 990777 829542
98 824661 627726
99 660331 74124
100 497975 820548
101 4844 829075
102 489838 806209
103 417492 691286
104 983502 894341
105 600275 130843
106 304011 943999
107 925913 9014
108 705900 541883
109 846707 823914
110 131449 714741
111 296807 495363
112 289006 111500
113 304815 855889
114 772444 505682
115 619446 620249
116 654911 581749
117 275292 21611
118 499419 296700
119 586041 282774
120 669848 230353
121 622267 155206
122 862409 880316
123 365017 270494
124 771681 879276
125 524727 968771
126 855282 154649
127 454678 877726
128 165636 423095
129 553782 468226
130 306790 120792
131 105245 700727
132 224493 369921
133 508575 148804
134 81589 45596
135 643996 435406
136 770202 967431
137 299187 162677
138 859459 142158
139 40685 411280
140 945863 881720
141 302106 304217
142 198892 498653
143 515003 954184
144 357256 905371
145 513035 350614
146 215110 540444
147 638777 234442
148 460151 654836
149 856018 699732
150 20857 222858
151 229809 360401
152 933412 643007
153 666664 551064
154 955757 956024
155 362722 211452
156 65839 648411
157 955190 956175
158 905682 564801
159 61949 990050
160 909769 853738
161 292786 381857
162 24739 421138
163 205596 409800
164 34019 656180
165 496012 308394
166 186401 84660
167 48557 734411
168 815880 653695
169 349026 242716
170 592971 950201
171 892234 367205
172 995601 659296
173 57828 833252
174 515704 217639
175 28845 50350
176 620817 199838
177 203719 712462
178 36457 145148
179 311843 199001
180 827126 12969
181 202037 713041
182 363053 412520
183 319217 698634
184 652809 295893
185 898347 72429
186 49096 844309
187 961205 859418
188 232921 92947
189 178137 312276
190 384680 60448
191 97957 835018
192 829054 483042
193 106357 473360
194 721607 636036
195 415193 117246
196 885 53133
197 344368 520541
198 901104 47924
199 406000 136183
200 426375 964880
201 655115 203428
202 832959 968397
203 952393 785799
204 370784 720677
205 606105 563097
206 423540 675807
207 783807 709880
208 12083 148904
209 368672 842511
210 511416 271292
211 292634 516626
212 869518 933467
213 417314 845668
214 11350 992807
215 907024 447122
216 722163 457460
217 706170 821583
218 636907 422150
219 51210 119173
220 470958 957452
221 104687 879096
222 124620 143900
223 824612 484259
224 183614 410900
225 103227 55436
226 36574 413192
227 229158 979252
228 242717 197654
229 497257 11375
230 331489 530243
231 734588 251610
232 249718 648652
233 458409 544444
234 551186 639906
235 885267 527824
236 965290 957771
237 739284 455980
238 234718 879441
239 287467 890266
240 690750 219660
241 348411 999974
242 661318 376781
243 712534 470552
244 207742 57518
245 363173 92463
246 870963 411303
247 233906 943134
248 992162 146915
249 139812 668640
250 909181 945170
251 196792 293348
252 720150 883567
253 707024 36599
254 751874 852377
255 266718 772164
256 989911 439739
257 648202 239026
258 659280 323284
259 17704 306583
260 656490 311494
261 404632 882546
262 730725 940096
263 331032 671942
264 237621 855717
265 748955 198119
266 127566 435090
267 623548 918585
268 229748 908672
269 351772 422291
270 717500 389249
271 452848 901158
272 401027 51678
273 687831 988416
274 680578 293809
275 612102 320220
276 909294 284094
277 919684 711061
278 817604 761702
279 669799 801564
280 653818 798352
281 684826 329582
282 134876 877468
283 319316 88753
284 38711 596523
285 551194 670863
286 642706 723894
287 694481 336269
288 402200 120537
289 962861 19663
290 122492 569330
291 2142 436056
292 201898 950603
293 513292 797984
294 300213 746079
295 599269 140994
296 869960 755248
297 871096 46637
298 746543 728953
299 206676 64758
300 649478 567294
301 25555 660915
302 171316 42771
303 318078 473237
304 82196 969081
305 197769 19619
306 461488 923720
307 202295 512824
308 928391 929578
309 458485 88239
310 130925 590362
311 882077 973952
312 947045 983900
313 645308 981791
314 552578 651710
315 18190 928963
316 38340 993780
317 821894 102872
318 107841 78421
319 233761 689074
320 22211 583714
321 339498 211973
322 615153 8907
323 258917 896008
324 808202 887196
325 401328 764751
326 176375 554966
327 46567 720515
328 528953 31774
329 839020 68443
330 934930 239656
331 239476 393122
332 946870 614054
333 680121 249515
334 308566 193388
335 253906 32383
336 121375 571289
337 686910 366173
338 413987 327110
339 927384 226530
340 454947 613533
341 142770 484134
342 716779 778534
343 689486 645218
344 46909 207839
345 422751 858325
346 769855 40373
347 435167 989827
348 462339 768208
349 525062 248979
350 594919 931806
351 968623 581672
352 432248 787795
353 621981 692240
354 838186 268033
355 31028 883735
356 984864 631181
357 645692 76604
358 469801 199103
359 957954 957042
360 151715 911913
361 724453 59586
362 598468 322099
363 63760 539702
364 139041 899115
365 744192 721746
366 488924 659350
367 195502 571211
368 628668 511589
369 838442 640175
370 308732 490383
371 687263 89867
372 56124 510838
373 133872 710269
374 441904 113068
375 926067 922636
376 629167 625947
377 504787 873172
378 442882 309272
379 386170 861036
380 159126 110391
381 853797 198011
382 959300 540644
383 196472 894997
384 575056 134853
385 942731 759531
386 757198 844886
387 30974 229078
388 282745 98505
389 554799 725295
390 879216 754487
391 153532 278004
392 739988 633800
393 867948 290912
394 700049 654857
395 374739 733671
396 936532 703588
397 697443 549200
398 733185 842376
399 58892 827045
400 228092 35366
