NAME : portgen-1400-1405
COMMENT : portgen N=1400, seed=1405
TYPE : TSP
DIMENSION : 1400
EDGE_WEIGHT_TYPE : EUC_2D
NODE_COORD_SECTION
1 553168 375901
2 788349 588049
3 624428 801598
4 322820 623170
5 403813 538887
6 483391 305984
7 287219 803620
8 976422 288597
9 803289 56590
10 543922 421556
11 235804 936054
12 716705 894613
13 109888 975594
14 8362 481253
15 740863 532589
16 6287 355326
17 841225 869039
18 46784 276499
19 258789 734831
20 698027 484737
21 10285 514086
22 445852 42754
23 197837 963972
24 563333 371995
25 30680 231216
26 806274 371936
27 36460 114990
28 646855 197842
29 534676 919310
30 541265 347929
31 542809 587989
32 925143 919076
33 528601 969305
34 860132 244464
35 605782 12450
36 725263 431293
37 25910 312706
38 615282 863867
39 899593 601714
40 247757 912045
41 440917 89052
42 939988 392933
43 989780 418298
44 430183 922149
45 340437 77478
46 416366 14325
47 129048 685576
48 759473 578992
49 488175 133145
50 427472 333970
51 64378 961619
52 124238 118634
53 790298 717221
54 431948 643526
55 125210 228557
56 767658 612526
57 578872 463786
58 931562 528484
59 458940 239566
60 159602 949609
61 481129 726986
62 816992 271812
63 948072 763644
64 307055 907276
65 522408 898060
66 431918 256066
67 476504 19200
68 144386 828391
69 510180 476201
70 461371 461295
71 959357 190616
72 762547 390828
73 596349 689380
74 197332 857236
75 737504 995829
76 271936 580899
77 610737 529412
78 902051 808311
79 485115 105037
80 974247 961906
81 207041 955747
82 182155 663914
83 269199 577042
84 849979 188043
85 867437 242182
86 331151 601703
87 502061 163772
88 677672 900229
89 116249 287580
90 369760 139760
91 278528 202017
92 933028 560501
93 691018 476171
94 73911 812589
95 750001 567344
96 978412 322136
97 608764 219188
98 130144 357654
99 688555 598774
100 713155 696119
101 573131 909752
102 487476 597743
103 717300 69918
104 647871 50235
105 838393 425880
106 734399 672526
107 355036 406902
108 983494 884904
109 346982 962966
110 533770 911545
111 888486 251204
112 474888 171317
113 669050 421398
114 114227 904317
115 446471 607754
116 252358 66013
117 449187 943880
118 405361 606002
119 846981 526125
120 577007 806114
121 129188 110944
122 278818 838456
123 678857 727207
124 847248 437446
125 550138 708746
126 243427 784237
127 152302 105401
128 443761 507117
129 460565 543596
130 192382 111297
131 222937 121745
132 473227 32278
133 296691 623455
134 393707 516580
135 728044 256286
136 37656 909536
137 412828 825024
138 668117 104249
139 98901 369487
140 727556 161933
141 960832 570630
142 711935 335173
143 384817 130613
144 592785 416908
145 647188 781905
146 212295 330401
147 798081 320720
148 768457 219652
149 698115 453794
150 170338 574608
151 628306 477761
152 709889 388204
153 747913 672796
154 72302 817129
155 720583 313147
156 914331 43657
157 896407 410477
158 899002 892535
159 323664 152507
160 263821 77039
161 925339 939912
162 346241 153436
163 627980 559894
164 199646 24623
165 77110 995321
166 31947 281772
167 648903 414408
168 247601 917174
169 674223 301457
170 436171 492281
171 806949 440278
172 153086 570148
173 856565 272383
174 984159 644644
175 692740 208562
176 20005 673491
177 376683 175017
178 542661 346533
179 828858 295480
180 140603 830738
181 998573 770844
182 380957 228302
183 506198 474053
184 890570 326258
185 553911 626619
186 908376 679019
187 459766 55258
188 57034 251847
189 563228 171224
190 610775 281447
191 731036 904165
192 884020 246372
193 996747 261102
194 900814 420601
195 908210 773548
196 26604 347964
197 747546 809552
198 583905 127929
199 980511 97828
200 513114 604717
201 709154 812934
202 33869 411293
203 477526 115839
204 789471 130311
205 178269 281558
206 445718 408256
207 387270 367055
208 804134 650609
209 23298 571405
210 644396 378269
211 493541 792742
212 813143 949193
213 917464 95441
214 645150 48473
215 577732 941194
216 462376 432916
217 992955 329216
218 835728 322780
219 516894 516965
220 442238 346138
221 237804 329409
222 776204 529940
223 280006 233861
224 534820 798352
225 892087 488463
226 482779 932038
227 520096 571920
228 142341 276237
229 819979 704652
230 575564 154746
231 598944 272506
232 688073 832130
233 43754 116308
234 632052 857330
235 87048 570272
236 115788 224945
237 679317 155932
238 895490 561502
239 272645 241223
240 806852 641226
241 275461 940498
242 472908 422986
243 342249 189870
244 744843 160824
245 285462 719419
246 690727 659564
247 429917 871965
248 230349 12858
249 650092 620271
250 634450 718503
251 961216 293596
252 991499 250861
253 213002 542280
254 459129 97110
255 229670 952470
256 531394 659154
257 419189 856145
258 464018 939380
259 842589 816107
260 601780 30895
261 466216 11780
262 222879 368544
263 609056 822192
264 233446 428456
265 942930 353209
266 102373 175535
267 11553 854381
268 109832 616307
269 521308 616763
270 958967 402869
271 347281 928735
272 559044 254567
273 253203 678947
274 436685 61372
275 262909 408157
276 779412 221636
277 677340 281241
278 616130 785680
279 282043 137117
280 141028 596694
281 20972 842365
282 138142 826800
283 605189 602658
284 100110 164622
285 602941 785071
286 502695 781216
287 553198 193622
288 251483 244580
289 334439 941638
290 752413 823375
291 540148 96328
292 287427 346236
293 332237 260007
294 37392 184752
295 249192 507173
296 516197 356686
297 13821 173896
298 900174 566064
299 375537 365421
300 3083 8622
301 344507 495046
302 308959 439533
303 868008 683083
304 934208 331104
305 949003 356122
306 748287 97291
307 887925 633855
308 80496 664285
309 828544 964245
310 926626 39124
311 227121 734688
312 161538 594318
313 440563 7648
314 472257 113664
315 325614 568399
316 310371 3334
317 992634 396290
318 75087 442857
319 208402 653572
320 265739 667951
321 431463 73146
322 258125 210067
323 280052 781508
324 195148 419502
325 733333 892525
326 93807 261872
327 39807 434683
328 698251 341172
329 502411 912668
330 364446 425150
331 474680 280636
332 65365 281051
333 924659 675140
334 839165 677858
335 353802 298988
336 469137 409041
337 230912 34101
338 945317 965248
339 694881 726854
340 896067 99390
341 505237 559589
342 749218 900463
343 93719 29735
344 937969 711583
345 471631 399946
346 603692 530544
347 299769 966751
348 198814 22421
349 842234 224024
350 264749 314804
351 86627 468293
352 523435 633943
353 387288 534218
354 512654 139343
355 340964 668516
356 403203 790828
357 441037 964499
358 821458 944136
359 980866 98614
360 82236 902237
361 832906 615140
362 413108 38998
363 212360 843
364 885606 596969
365 646812 411099
366 452593 555538
367 385889 227551
368 696186 714409
369 118551 784719
370 79005 149582
371 48868 839355
372 629346 569393
373 567040 988551
374 117435 260771
375 754390 197971
376 136815 245265
377 577211 853650
378 862210 531089
379 82403 295883
380 937756 672879
381 415666 727935
382 60337 191381
383 619647 563848
384 161481 871643
385 397458 832906
386 826700 720095
387 344223 884265
388 765422 587641
389 37928 559458
390 176788 681271
391 918439 589722
392 659213 973933
393 995432 724658
394 495200 194508
395 607903 132338
396 552927 246908
397 387260 246099
398 322881 328772
399 495131 745081
400 803971 979399
401 950622 557977
402 83982 73119
403 279532 547093
404 586052 603278
405 858217 137552
406 35888 887895
407 687980 805418
408 119952 168758
409 340674 814238
410 868499 290874
411 68717 416400
412 67672 418059
413 882283 268723
414 636112 271104
415 604732 218328
416 1589 434650
417 701240 39236
418 645382 30543
419 901742 853794
420 853981 826674
421 383983 680962
422 326008 317028
423 63621 136526
424 179235 969201
425 363816 54158
426 692660 224026
427 140348 585642
428 977810 515972
429 856736 44746
430 427736 248988
431 645351 732257
432 749296 31543
433 753568 354926
434 561887 370951
435 741796 983425
436 989522 371473
437 450421 814341
438 598214 844690
439 276052 482029
440 440249 366310
441 411986 591366
442 843368 355744
443 572977 269332
444 685353 669696
445 285667 290456
446 468656 530790
447 111998 870555
448 837152 12510
449 230540 511666
450 718814 218930
451 860473 697205
452 528952 997505
453 642171 101294
454 380658 784603
455 12664 708477
456 830618 187039
457 759078 137279
458 780331 114560
459 620258 878741
460 194391 741058
461 124386 50220
462 652136 522866
463 122952 292316
464 842521 452916
465 172170 496920
466 464032 491448
467 469365 731771
468 535691 224946
469 832287 706088
470 575412 458417
471 649073 806612
472 475305 544609
473 166070 418435
474 878653 589132
475 747603 544835
476 169989 777623
477 339496 221894
478 754898 369024
479 227840 797180
480 461813 417224
481 269007 674569
482 209191 554247
483 59404 24006
484 711734 214469
485 971209 361896
486 235906 31126
487 131138 649555
488 571069 346762
489 710724 430242
490 767967 753927
491 64475 45340
492 991102 754945
493 227912 789462
494 282257 915117
495 672366 511685
496 513212 617817
497 734879 213516
498 222510 617946
499 675474 825750
500 973540 819308
501 707710 448411
502 821164 993675
503 480359 124648
504 786521 584550
505 993981 965436
506 86767 312722
507 124814 950128
508 904011 651189
509 939690 995675
510 331736 441458
511 348532 885984
512 240929 151901
513 654185 787495
514 209962 137462
515 169195 446420
516 560240 126174
517 436261 802530
518 667159 751753
519 920526 40974
520 850934 576723
521 849771 286582
522 583380 230908
523 163152 627228
524 376888 582977
525 559330 435014
526 407984 538011
527 656554 527120
528 259067 581536
529 12149 18634
530 326515 728606
531 204122 745546
532 733615 417257
533 115664 800185
534 729341 893905
535 786975 276783
536 274300 356712
537 436344 896722
538 33473 810520
539 229430 713808
540 892834 72649
541 775346 191327
542 810946 440589
543 242297 814693
544 392558 19003
545 686866 866974
546 22411 26620
547 253998 574150
548 302423 493058
549 850237 686658
550 197434 352631
551 397798 663079
552 690143 486681
553 659668 216656
554 727065 215965
555 284822 444373
556 188977 993146
557 331768 459541
558 706195 177502
559 491548 159465
560 114834 622605
561 949947 42683
562 696471 434344
563 878985 611220
564 666569 949662
565 237053 816817
566 83455 13465
567 428986 448460
568 883671 782200
569 859559 351405
570 734393 64795
571 323145 233093
572 904168 64260
573 917027 979728
574 330149 819654
575 695164 691202
576 826489 900575
577 449605 380617
578 269176 384333
579 234093 241682
580 603009 877468
581 357096 375660
582 481571 220026
583 121227 955884
584 88977 267507
585 542513 726467
586 847352 671893
587 464300 423632
588 796116 49372
589 593078 315853
590 165167 494652
591 377127 424886
592 346652 359585
593 459720 707794
594 531893 208960
595 327232 927787
596 693222 592051
597 808891 7926
598 217443 651252
599 768792 480536
600 268143 867655
601 386650 14295
602 654487 200512
603 314074 401602
604 553922 90019
605 920896 561381
606 852439 25133
607 914450 675222
608 184245 765045
609 566768 473644
610 2583 469975
611 187091 608440
612 999364 674857
613 339817 833056
614 17406 263787
615 109557 394513
616 495449 503058
617 394957 603785
618 642212 351994
619 510436 671430
620 175339 694675
621 141025 58248
622 206376 857257
623 740695 84782
624 592687 134033
625 668109 384386
626 633845 505004
627 370978 873630
628 372205 883592
629 619338 50701
630 558299 962079
631 891166 882492
632 914680 226221
633 420355 794190
634 818756 57192
635 934527 99463
636 172357 432735
637 805535 618197
638 836130 682087
639 237462 125734
640 302652 456224
641 213718 966705
642 705488 147478
643 503346 612957
644 588377 168736
645 183429 848022
646 533238 453243
647 736902 75875
648 522317 708290
649 252713 588179
650 21127 58608
651 847319 466953
652 831381 211884
653 170667 667140
654 799516 223500
655 370283 759248
656 295214 450601
657 867271 710277
658 428841 437922
659 145589 838804
660 703903 712065
661 541476 230577
662 36065 875919
663 252143 705404
664 601353 593650
665 447529 168989
666 882571 13962
667 755450 543403
668 161010 763117
669 99433 995210
670 718636 65424
671 467368 749572
672 464833 471364
673 306545 302660
674 417178 860983
675 823731 816912
676 106937 659062
677 140649 852137
678 176037 833357
679 711502 287977
680 50874 407549
681 567707 804305
682 504864 304859
683 291879 545641
684 985768 395907
685 403732 126181
686 20744 284605
687 15073 886990
688 605127 882414
689 89927 183928
690 699882 418786
691 993902 313375
692 542776 39980
693 601282 78265
694 509098 450591
695 251524 615368
696 777349 703525
697 591478 592455
698 44679 182763
699 734499 577842
700 866236 424131
701 212732 233249
702 161101 404945
703 823010 793562
704 116286 100669
705 250854 97771
706 324259 260910
707 36453 435505
708 630200 864181
709 212826 912408
710 260180 109116
711 811142 407925
712 529670 979600
713 913448 787495
714 123503 610127
715 63980 811565
716 766127 989258
717 933073 602110
718 94526 732992
719 276921 107270
720 409779 737101
721 865438 596689
722 190411 142407
723 804226 369423
724 173855 611877
725 679007 257184
726 59259 124371
727 513862 54671
728 658003 223474
729 300175 558991
730 310419 90018
731 516640 9015
732 690890 513753
733 232333 727570
734 70498 894046
735 631279 260777
736 690325 600948
737 233401 2995
738 49856 686770
739 894063 474999
740 321597 689974
741 487319 564511
742 299708 973961
743 294924 757112
744 298368 419320
745 369776 366956
746 662493 382874
747 475991 149001
748 46775 264489
749 363287 187415
750 92550 117455
751 475360 698855
752 290280 989033
753 769864 494747
754 824663 539900
755 759746 900891
756 925105 880855
757 189214 943462
758 427524 133766
759 533024 541888
760 466977 967843
761 364282 883082
762 801496 513823
763 785417 991470
764 310668 244368
765 233131 555109
766 862106 354162
767 715252 420705
768 764868 606463
769 375297 356245
770 546437 161158
771 224088 756480
772 952342 401933
773 2673 779410
774 581378 962167
775 363584 55305
776 953821 118919
777 954284 537441
778 255348 121197
779 983603 869575
780 224164 163401
781 119450 468417
782 993463 598588
783 676802 168625
784 928512 787281
785 940789 648114
786 552387 570856
787 178303 411672
788 14022 245363
789 928798 264054
790 258475 664219
791 7867 441093
792 20204 69729
793 435658 393689
794 360698 116664
795 743902 596243
796 677951 588015
797 415455 898323
798 608770 653231
799 578176 540670
800 387910 757309
801 850612 317323
802 703692 699365
803 47438 512728
804 98714 884554
805 101782 861659
806 760499 866938
807 125672 627920
808 485449 531434
809 52961 95140
810 989817 23571
811 590448 387841
812 399370 183480
813 797501 235064
814 867164 478938
815 364234 501294
816 146648 44243
817 162272 396815
818 903720 140928
819 315420 392283
820 584280 904223
821 340727 265558
822 126847 720331
823 5794 290109
824 188644 231975
825 100821 373706
826 786066 99237
827 176436 886616
828 610660 806368
829 155051 306876
830 795644 906509
831 197307 706431
832 300274 197558
833 520932 494940
834 740091 405340
835 622126 195339
836 342789 820986
837 994318 616111
838 237504 491211
839 211405 512754
840 572819 991133
841 80013 560288
842 683293 457724
843 303986 440217
844 743968 964713
845 875883 408779
846 400837 910080
847 770156 388940
848 561433 519740
849 271239 510736
850 482827 514583
851 78704 675890
852 659155 109688
853 293693 225778
854 415943 718711
855 582629 170443
856 62399 190337
857 430993 386865
858 505671 287227
859 936274 911334
860 636124 1191
861 223700 229355
862 922513 107542
863 116635 666899
864 161830 884630
865 322418 11725
866 75267 492693
867 930124 402376
868 928733 889675
869 129294 296428
870 952053 16759
871 503942 832634
872 328588 874691
873 185078 171482
874 987567 662614
875 272304 894534
876 357910 386609
877 188317 471101
878 439315 586010
879 745765 256779
880 180955 404017
881 96484 119515
882 766658 565869
883 666500 229765
884 861748 556302
885 201786 334188
886 299659 273660
887 639029 741590
888 643280 837091
889 41037 451411
890 668227 530625
891 921134 905050
892 703675 918400
893 915241 955752
894 726035 364255
895 735876 698968
896 27927 572992
897 94642 617864
898 717099 230282
899 193605 586998
900 231410 347987
901 130445 536155
902 994387 741679
903 973399 452859
904 682934 269917
905 555859 483563
906 859974 381510
907 520903 481987
908 376089 523491
909 24872 148793
910 848770 436218
911 36159 274749
912 324891 853798
913 203743 763504
914 279273 897350
915 768190 190421
916 154156 771120
917 895552 184663
918 670650 539624
919 384147 221687
920 542311 391750
921 930879 577242
922 515484 299657
923 662808 753177
924 248100 240843
925 414121 953595
926 951009 296255
927 818808 40989
928 193830 359325
929 640603 809723
930 71028 433775
931 68712 461246
932 727605 164109
933 552683 282732
934 866025 221245
935 819178 622911
936 275390 784029
937 734672 895174
938 485209 739904
939 455941 283902
940 659967 844417
941 122901 469549
942 826321 334414
943 121708 692910
944 43514 731442
945 631980 387918
946 673598 162902
947 402509 919399
948 116359 146850
949 842570 620310
950 814448 922903
951 297236 964198
952 580875 569703
953 830694 481459
954 469933 484393
955 919280 500920
956 315811 909160
957 177742 683110
958 760176 905810
959 58737 808206
960 47750 405832
961 440161 245715
962 406796 896275
963 325675 311192
964 203153 164968
965 64480 3750
966 269971 971548
967 364621 159047
968 528606 213740
969 291807 143211
970 574237 215898
971 634173 235308
972 683692 226147
973 947756 427883
974 756105 506233
975 593723 805167
976 943696 677601
977 555829 810698
978 652932 325687
979 599576 421828
980 41096 616953
981 189651 326722
982 910155 703381
983 866747 80502
984 225468 951594
985 735353 332293
986 149704 552503
987 214482 242583
988 462136 762560
989 689885 596098
990 243343 999987
991 711615 781324
992 123871 447527
993 814098 943248
994 61392 661240
995 292299 448103
996 988271 340212
997 407857 241944
998 66194 81669
999 20826 441109
1000 764011 185196
1001 737997 160007
1002 262890 593736
1003 93551 162371
1004 553730 108302
1005 996600 709683
1006 264295 938336
1007 129529 592993
1008 628681 849439
1009 918864 668210
1010 637187 785078
1011 59676 784359
1012 187583 550156
1013 594295 989697
1014 289613 620745
1015 149031 299764
1016 208830 581583
1017 599497 533659
1018 735692 773279
1019 651795 530878
1020 818845 964658
1021 24383 393181
1022 24053 507221
1023 388427 203912
1024 152628 857701
1025 647649 76497
1026 792055 400080
1027 292077 464247
1028 976366 156414
1029 560509 729230
1030 858043 320271
1031 510575 22851
1032 289456 31941
1033 685300 871113
1034 914283 622307
1035 204565 424768
1036 696810 61163
1037 20561 560690
1038 993022 659596
1039 492281 723336
1040 573790 437880
1041 429187 560383
1042 762702 828759
1043 789188 185978
1044 292127 567556
1045 848359 864579
1046 858996 29488
1047 326312 394076
1048 267848 963219
1049 372620 463362
1050 514198 728830
1051 711631 429292
1052 283910 209768
1053 647309 231672
1054 637377 463317
1055 675058 790387
1056 864287 992952
1057 880870 993464
1058 461275 481087
1059 696538 895379
1060 764093 722080
1061 498492 450920
1062 108109 475734
1063 713137 267517
1064 777253 810792
1065 913380 761350
1066 22218 28963
1067 48277 783402
1068 573593 436235
1069 679512 769238
1070 367484 308101
1071 489439 396747
1072 803463 126279
1073 366086 408076
1074 921379 850577
1075 680939 330
1076 185966 561827
1077 549982 752847
1078 706612 682667
1079 381014 500508
1080 636175 211074
1081 552159 868139
1082 95832 366957
1083 300948 467539
1084 189489 754591
1085 627377 53198
1086 559708 845961
1087 214440 763762
1088 536113 936665
1089 900937 355261
1090 769122 30470
1091 886503 276744
1092 174617 702306
1093 209191 154079
1094 933131 681320
1095 482454 106053
1096 246745 924921
1097 141860 314286
1098 748392 643478
1099 182307 39700
1100 590166 429421
1101 507138 566117
1102 81455 650469
1103 113827 909221
1104 387210 847675
1105 543656 552532
1106 749536 699694
1107 18054 530121
1108 964328 627237
1109 726278 781546
1110 618564 657469
1111 285232 149788
1112 164425 197956
1113 546060 993590
1114 764505 563971
1115 649935 626891
1116 549454 53261
1117 811605 216589
1118 280934 186808
1119 258690 644495
1120 737978 581954
1121 427800 151584
1122 62755 824984
1123 820821 96957
1124 760496 943904
1125 768226 754802
1126 878972 618336
1127 389765 963274
1128 879966 453876
1129 754512 864865
1130 369534 927018
1131 650531 742714
1132 109697 961702
1133 124731 597951
1134 636938 193069
1135 709300 867370
1136 866740 782373
1137 13320 863762
1138 778496 666896
1139 760023 201150
1140 317989 92183
1141 239077 899640
1142 194436 722917
1143 976360 806740
1144 943564 849903
1145 91857 682982
1146 549870 65621
1147 935195 870607
1148 715213 645427
1149 138264 198993
1150 46488 153924
1151 336934 559346
1152 625915 676042
1153 515724 979332
1154 423900 666847
1155 986914 73226
1156 510312 904609
1157 773007 686552
1158 377147 584909
1159 807519 239090
1160 246488 479304
1161 459687 437944
1162 146580 555375
1163 530436 307394
1164 156457 337277
1165 348037 799163
1166 242996 93175
1167 214236 244762
1168 581870 334468
1169 126632 507883
1170 345769 391450
1171 999221 704473
1172 603414 612553
1173 223295 111925
1174 919040 379819
1175 340170 407818
1176 488969 800986
1177 850955 247324
1178 910928 243758
1179 345109 381152
1180 94172 181256
1181 852700 916016
1182 321078 595463
1183 74005 805838
1184 301195 160454
1185 463257 265222
1186 665869 427699
1187 898919 838670
1188 990334 658701
1189 586989 899256
1190 644446 286677
1191 962284 775304
1192 243105 166781
1193 946463 326980
1194 772097 618772
1195 170757 776031
1196 33272 966177
1197 44626 80547
1198 725581 571521
1199 805554 764743
1200 622218 564593
1201 524936 19784
1202 735373 53493
1203 445533 713664
1204 557880 684173
1205 300860 583948
1206 471660 726337
1207 210395 318140
1208 147983 886523
1209 871389 240530
1210 869882 502483
1211 284 536451
1212 538236 898663
1213 740285 646085
1214 692326 845426
1215 393136 276670
1216 100820 902815
1217 598395 60498
1218 815017 235947
1219 564909 924965
1220 18798 59940
1221 455590 531566
1222 748889 668273
1223 775747 496821
1224 427940 145963
1225 340261 79495
1226 879195 960127
1227 371607 345547
1228 463773 622121
1229 421388 674875
1230 238475 209586
1231 148755 632915
1232 665375 240920
1233 128358 940094
1234 977447 542121
1235 542393 651161
1236 458582 725426
1237 900269 790386
1238 623287 40156
1239 164843 192688
1240 434890 118164
1241 224696 17450
1242 606950 183549
1243 127915 467904
1244 237440 357475
1245 932139 874922
1246 258500 22787
1247 382571 367637
1248 601358 730163
1249 631297 958503
1250 44986 735590
1251 331977 235251
1252 711073 222096
1253 854799 861744
1254 353177 188057
1255 217632 995868
1256 384681 63913
1257 742735 363552
1258 951085 125967
1259 250343 297738
1260 639562 398194
1261 308796 18943
1262 497135 806803
1263 319184 223330
1264 14353 678173
1265 935587 761542
1266 686979 976785
1267 975055 439021
1268 733483 160783
1269 274715 243397
1270 232464 1947
1271 217561 939702
1272 717912 533945
1273 566126 239556
1274 525652 575768
1275 48453 378027
1276 715810 953123
1277 22915 283443
1278 48610 355191
1279 260195 272051
1280 488612 694015
1281 587029 109779
1282 955593 215685
1283 778307 444979
1284 346000 208789
1285 797426 711529
1286 600315 674575
1287 249284 261535
1288 682383 355673
1289 996028 213692
1290 758192 963992
1291 963134 742301
1292 189560 241571
1293 174513 577200
1294 21191 759370
1295 660713 288504
1296 814782 65925
1297 445970 520934
1298 401631 542985
1299 690417 456377
1300 851561 210452
1301 243527 311959
1302 817575 84460
1303 414892 973508
1304 763563 781343
1305 108929 471410
1306 333999 500825
1307 611337 200108
1308 879233 521103
1309 663808 434659
1310 814053 235321
1311 754561 889623
1312 357228 586974
1313 468001 288355
1314 856999 164823
1315 846642 708875
1316 592109 214684
1317 104762 286782
1318 629992 462309
1319 130963 989451
1320 362338 653410
1321 913391 586532
1322 945317 425392
1323 533942 925158
1324 708697 858996
1325 52933 113276
1326 685986 525593
1327 609734 142686
1328 618343 28843
1329 207197 530792
1330 454468 952583
1331 842545 774112
1332 419005 455519
1333 558018 747467
1334 555508 185945
1335 666166 954075
1336 812405 804812
1337 381726 700777
1338 549335 228968
1339 279888 214541
1340 968630 439158
1341 81158 326206
1342 710355 894059
1343 866329 817997
1344 795679 649243
1345 728763 882525
1346 906801 945017
1347 323285 408263
1348 841004 108578
1349 204806 244539
1350 876056 304973
1351 645269 494155
1352 890366 613774
1353 32117 359779
1354 815237 715675
1355 276356 800346
1356 233163 557953
1357 802028 571943
1358 45782 897527
1359 450826 10742
1360 614514 449440
1361 542660 310968
1362 309889 361192
1363 308805 318250
1364 914446 767951
1365 668659 189555
1366 413731 564212
1367 938185 168284
1368 205994 523205
1369 524178 138411
1370 848276 968802
1371 367170 784936
1372 34728 279323
1373 339864 595832
1374 635128 962092
1375 99457 522754
1376 194132 436855
1377 575880 686501
1378 891242 81057
1379 555970 722081
1380 407780 508912
1381 835601 676826
1382 867398 307553
1383 433175 448226
1384 523224 522704
1385 232079 449949
1386 262398 488733
1387 911284 91760
1388 255307 105805
1389 735087 623387
1390 469949 227748
1391 762279 192364
1392 360170 159747
1393 353954 736904
1394 696814 630631
1395 735108 757767
1396 999980 1473
1397 906332 398327
1398 706404 878436
1399 873652 942967
1400 24016 234059
