NAME : portgen-1200-1210
COMMENT : portgen N=1200, seed=1210
TYPE : TSP
DIMENSION : 1200
EDGE_WEIGHT_TYPE : EUC_2D
NODE_COORD_SECTION
1 576572 25091
2 897954 880826
3 172393 803929
4 427666 677367
5 587081 686267
6 3835 127158
7 624265 749022
8 774746 799966
9 24255 690849
10 113563 53278
11 73139 779167
12 146610 842539
13 320101 531925
14 897785 528572
15 378798 304612
16 792123 334757
17 301572 741119
18 290141 777808
19 639591 439602
20 403820 353193
21 573724 269212
22 128175 32019
23 388195 88607
24 975084 536179
25 356458 118502
26 643296 460957
27 545739 184807
28 300649 241814
29 723518 156834
30 590685 394584
31 164338 988064
32 273546 233888
33 112542 734622
34 998982 592245
35 360827 686139
36 824881 488076
37 334390 995061
38 409981 612182
39 233428 961803
40 541890 78287
41 808406 740950
42 937886 984213
43 140274 804059
44 61210 67684
45 628577 555518
46 778825 47346
47 78774 717681
48 528311 85648
49 934822 133114
50 622037 776012
51 855178 13281
52 994289 278171
53 310095 902345
54 523070 561525
55 44532 496589
56 180604 655834
57 528257 35166
58 615758 116992
59 909289 555865
60 705576 26894
61 799800 865868
62 970207 584815
63 830960 811600
64 493787 56218
65 684965 507636
66 89111 671902
67 917270 45300
68 897682 152571
69 212693 902719
70 368455 23282
71 894770 505344
72 362107 601682
73 755718 912957
74 77138 493959
75 886720 716711
76 591860 878603
77 448148 114401
78 686901 183276
79 96011 948988
80 380489 157523
81 689652 620350
82 193070 21250
83 601819 675259
84 293727 926575
85 279448 702801
86 39853 415330
87 669145 988865
88 435033 921196
89 417719 855805
90 897913 647684
91 715589 544798
92 675729 527442
93 817983 468760
94 478832 896020
95 443480 222423
96 858844 286118
97 623271 665654
98 983428 479440
99 836199 373242
100 166648 834521
101 495237 221332
102 596045 239035
103 1122 47062
104 202874 920706
105 296418 218140
106 704444 199990
107 505507 158065
108 298678 403534
109 997079 527416
110 37821 122379
111 839060 920484
112 759926 444927
113 207563 818521
114 819284 430109
115 987743 387971
116 718322 497013
117 559387 679773
118 943240 515598
119 39290 517663
120 228763 414449
121 471681 951415
122 858198 321101
123 383363 938359
124 526191 178344
125 458090 164907
126 660155 406089
127 385499 778677
128 116199 998224
129 661944 916271
130 295795 485523
131 7772 685210
132 691943 881968
133 746458 753028
134 341792 184406
135 774702 360318
136 877342 818735
137 69325 872914
138 462223 432970
139 534985 981248
140 328727 209339
141 156576 903012
142 134314 502219
143 380199 33112
144 805069 677418
145 933314 190211
146 173806 854884
147 742961 868444
148 537106 652946
149 882090 985284
150 858878 950392
151 403374 544943
152 849616 248751
153 8330 757143
154 271775 883279
155 398478 83087
156 193154 984525
157 982956 105583
158 311717 152887
159 942248 823499
160 344862 93512
161 870937 356508
162 325528 824309
163 956944 332399
164 969118 820573
165 864584 705080
166 161194 651705
167 582769 245640
168 16184 172051
169 920055 28730
170 190501 227311
171 90863 981570
172 332556 839802
173 319274 817297
174 529356 918652
175 911499 204707
176 683827 61517
177 120699 153797
178 789197 751668
179 962173 603975
180 232567 836279
181 837087 243045
182 692778 171167
183 992223 211583
184 651968 143154
185 786309 494419
186 623531 23595
187 911999 140154
188 409684 809419
189 235808 171730
190 35111 205276
191 370225 365142
192 588005 28305
193 867992 918149
194 958927 411602
195 253417 804600
196 520082 776901
197 242421 696081
198 603779 67267
199 69571 192402
200 430117 509854
201 581489 357625
202 883541 706223
203 834482 318684
204 473511 92394
205 285804 871048
206 792740 550571
207 350558 427966
208 316196 60186
209 623 996696
210 567388 924955
211 142012 459566
212 713036 276454
213 912930 265906
214 140054 205776
215 305672 91000
216 335908 143413
217 885925 164063
218 412535 819654
219 14584 160039
220 712108 807806
221 917526 962231
222 844213 328461
223 662587 60516
224 63864 965966
225 783151 337872
226 927213 863795
227 886730 339117
228 173946 438075
229 471700 719478
230 293688 14828
231 304100 313472
232 380286 477998
233 953521 830509
234 706357 22097
235 765379 255680
236 996322 34656
237 213545 229515
238 997742 278217
239 572836 373919
240 102508 474854
241 794205 420576
242 912087 290843
243 786899 22435
244 763126 407927
245 210541 582025
246 113296 992486
247 394659 456428
248 811484 882869
249 748686 614698
250 330719 384369
251 487679 689944
252 863458 308296
253 543667 506637
254 951707 595886
255 552217 151510
256 674948 63773
257 508936 711662
258 901531 311613
259 918812 923858
260 666513 70652
261 81823 91659
262 691378 381009
263 768000 306377
264 171198 905248
265 685848 491104
266 326510 976950
267 821702 950998
268 799906 730432
269 911639 200425
270 389312 475286
271 103623 839268
272 741413 139889
273 500202 21636
274 301108 13650
275 688427 505106
276 711671 843437
277 928849 839614
278 57859 510729
279 868242 912460
280 508390 813234
281 594997 751282
282 206574 76931
283 47887 835680
284 322359 369047
285 211459 879895
286 10505 905162
287 235430 161406
288 358980 238385
289 162810 851763
290 323149 257270
291 438135 258737
292 396858 872614
293 896107 575228
294 770375 744771
295 903111 964225
296 408073 542592
297 988965 509416
298 464780 198460
299 603837 580006
300 780908 261817
301 858826 449345
302 690500 431156
303 66971 452933
304 446578 56235
305 943507 482631
306 740354 123470
307 9349 544164
308 405161 52405
309 762316 697157
310 612150 849426
311 231842 742352
312 588138 949642
313 21069 561160
314 214662 804273
315 94435 906047
316 791806 106574
317 908256 840518
318 516916 314664
319 249388 852694
320 467453 843701
321 812911 73218
322 132620 53684
323 732383 665720
324 954453 39322
325 488347 903620
326 983798 799563
327 485571 874861
328 470010 752251
329 541088 849981
330 914240 752306
331 203544 593884
332 588782 99806
333 669719 667135
334 990850 955664
335 811780 739440
336 97952 722993
337 208810 708529
338 865628 432278
339 256781 713277
340 479632 268817
341 20071 364680
342 890033 342129
343 702502 197922
344 517792 808450
345 170798 849780
346 323814 293724
347 40913 728012
348 745749 89917
349 864408 424090
350 188056 300104
351 408938 241175
352 559690 219529
353 883549 619117
354 909530 143442
355 172358 272087
356 234458 732638
357 679183 64459
358 428491 909820
359 552970 860769
360 354056 579801
361 802727 566759
362 767608 511675
363 330501 856776
364 163303 989280
365 824980 246510
366 522748 113339
367 540919 207545
368 34358 287432
369 685497 825574
370 913637 792682
371 644951 657022
372 454393 590996
373 47052 757055
374 526115 529237
375 397510 888972
376 926613 875127
377 599110 941545
378 777356 295599
379 700256 352144
380 185171 596117
381 933620 83956
382 229804 379676
383 627135 577436
384 278245 88186
385 17406 671436
386 383704 23733
387 463259 465084
388 653188 927599
389 967648 826063
390 734319 34902
391 156520 811158
392 804109 228862
393 312890 438792
394 883534 161243
395 580409 456922
396 9186 597311
397 808167 242200
398 408977 621218
399 193763 989308
400 937808 119453
401 789406 700052
402 794918 362608
403 732451 115455
404 71018 370248
405 628654 338564
406 412064 539012
407 771735 728248
408 586930 336308
409 275788 987604
410 970699 5917
411 383672 288937
412 150377 897953
413 882029 683652
414 228815 100650
415 732633 537732
416 856581 597399
417 197408 395754
418 622837 617507
419 39422 75860
420 641931 976582
421 163003 895929
422 190544 574491
423 73250 720249
424 446933 910213
425 360170 725324
426 392402 93112
427 256675 400075
428 262871 192006
429 502644 399163
430 739771 114943
431 76032 995157
432 728316 652072
433 175561 516135
434 348468 197244
435 654998 866681
436 889374 365575
437 627434 245374
438 613514 290559
439 32261 750301
440 635081 690022
441 181008 829651
442 360879 617689
443 461700 861423
444 869083 545336
445 220193 106702
446 269038 842178
447 420862 775249
448 87207 797427
449 268495 945169
450 960976 782690
451 687987 696632
452 275131 670147
453 544316 562751
454 732233 638986
455 938375 401448
456 322923 957307
457 178969 633068
458 845905 233853
459 574295 953066
460 564865 378133
461 247639 403299
462 236267 872307
463 178694 192742
464 90443 957286
465 701057 50763
466 558326 393275
467 811926 233632
468 367099 223700
469 650681 727810
470 771783 227846
471 287128 916016
472 980470 842059
473 859062 865739
474 605910 548554
475 596555 894464
476 706983 311209
477 244112 910212
478 224363 294712
479 884706 41498
480 303048 320616
481 912069 4422
482 867202 710528
483 114320 406907
484 976837 336910
485 774006 980165
486 627943 25740
487 356511 670400
488 671149 936429
489 159186 326054
490 647944 883982
491 308036 48945
492 654237 380441
493 138694 553904
494 526072 101397
495 119312 960191
496 246863 313771
497 953804 791618
498 599903 261387
499 559505 310070
500 170909 922633
501 706552 279855
502 900610 712573
503 586428 658038
504 656971 863671
505 771518 670459
506 768639 783308
507 922186 342856
508 73753 598297
509 50617 75584
510 110625 852932
511 847401 666767
512 166000 851373
513 273612 348087
514 125129 643937
515 83972 13111
516 279457 295515
517 554536 977485
518 115343 524727
519 126758 311380
520 306687 540396
521 503286 450488
522 990772 266379
523 112790 580096
524 147770 102431
525 518005 251816
526 136258 915567
527 226097 157798
528 643175 411037
529 725319 923125
530 597230 61700
531 531280 345591
532 556983 231122
533 167172 318150
534 792536 655807
535 230066 493656
536 450527 948186
537 557578 858808
538 716674 931833
539 440669 8202
540 208197 862575
541 622767 202004
542 46707 22272
543 481830 933866
544 738531 323414
545 810312 797192
546 732191 470951
547 81314 813030
548 89869 555100
549 892910 131963
550 549704 180956
551 139426 139568
552 894233 655430
553 629048 934254
554 868860 203825
555 675967 709308
556 672505 401905
557 112812 800037
558 329509 60328
559 264276 743952
560 141252 612071
561 425240 660572
562 106102 49110
563 354230 310958
564 53952 902148
565 229760 782420
566 62973 236844
567 332234 498889
568 190069 220862
569 89191 246669
570 692763 421501
571 669589 994579
572 182161 198241
573 371952 71618
574 364848 32203
575 458800 778910
576 501147 990761
577 902203 767284
578 117983 902581
579 807333 395344
580 465360 408186
581 845062 622191
582 511061 254465
583 39718 677926
584 219744 914571
585 428085 257890
586 695480 232072
587 285152 362342
588 110923 434478
589 758369 338818
590 931127 451648
591 503624 658608
592 436788 821574
593 937358 440781
594 725782 77768
595 459171 512143
596 1117 174620
597 818584 434872
598 726021 437517
599 709427 819818
600 87317 937474
601 313248 26030
602 101076 7152
603 275285 842539
604 553973 80629
605 829926 677201
606 176799 729565
607 936173 953216
608 407068 670441
609 803607 76189
610 528444 602201
611 968498 399925
612 827254 490610
613 944641 669449
614 130996 277999
615 87056 268384
616 880504 677740
617 508892 253925
618 274849 774059
619 722435 483571
620 414505 266916
621 637174 649592
622 549324 856969
623 543644 601192
624 347366 327973
625 490230 56572
626 306520 431427
627 732762 818932
628 56969 635508
629 517138 847151
630 732303 501226
631 120104 70402
632 666123 563009
633 40027 527206
634 180240 79203
635 409571 805875
636 323075 475633
637 585959 471871
638 295680 537071
639 667162 8321
640 433640 309133
641 152310 283844
642 545696 585830
643 148280 810102
644 11616 945882
645 213897 747642
646 593819 643231
647 74000 608630
648 943840 161540
649 63633 77452
650 561289 6573
651 934029 339044
652 894332 181097
653 904261 22676
654 885730 146932
655 670652 246867
656 623891 571256
657 633253 984660
658 907407 476872
659 996401 57493
660 619169 878487
661 463572 102787
662 517914 402997
663 871845 984031
664 581301 404862
665 567610 273004
666 651340 520230
667 337669 186773
668 685241 581054
669 650591 561036
670 678423 671407
671 813700 954123
672 326712 335410
673 284069 491031
674 125317 671002
675 736784 959809
676 580239 658771
677 509842 288284
678 355233 413799
679 1375 707559
680 495856 323206
681 372084 324694
682 468509 999244
683 433166 669768
684 244543 297842
685 700590 416375
686 351554 325399
687 320708 659360
688 298248 804801
689 592945 229629
690 47764 458046
691 982655 873742
692 909006 244403
693 900919 326646
694 51721 338424
695 753606 15473
696 336510 352748
697 860446 262047
698 319853 488301
699 633415 667352
700 37162 479268
701 898085 895688
702 623237 278738
703 977153 706497
704 749765 265438
705 387365 28586
706 362078 662950
707 953952 480382
708 986696 19336
709 464247 206462
710 679390 944865
711 36352 577191
712 260680 221322
713 518290 455865
714 702161 41969
715 682207 591751
716 55036 327506
717 842263 19178
718 95967 319705
719 919789 428623
720 257707 881583
721 862398 845258
722 659033 808741
723 979120 759318
724 92068 639123
725 743756 863987
726 786139 591446
727 985144 445411
728 424231 570578
729 53425 604059
730 182771 657447
731 786707 321142
732 7731 505782
733 166187 516819
734 3916 145210
735 501262 227377
736 927268 825124
737 462705 815402
738 158725 444906
739 592047 815268
740 797090 947711
741 402440 98102
742 859198 24759
743 805043 733894
744 319775 336481
745 852990 579147
746 315789 774578
747 927360 30329
748 954315 37274
749 382553 843631
750 650015 534214
751 167271 276799
752 842033 796045
753 461547 688037
754 732247 960385
755 640367 690337
756 250803 716943
757 751069 603623
758 341658 12128
759 393781 977402
760 551467 128913
761 134266 160285
762 495195 967047
763 60106 650468
764 983091 666660
765 353855 470688
766 712658 631661
767 174900 106753
768 696908 685496
769 347033 255575
770 683100 792915
771 340113 342373
772 785014 724076
773 444881 155503
774 279383 960313
775 970223 303846
776 54183 715893
777 489775 179327
778 821555 535609
779 101898 735279
780 99136 776050
781 341004 476672
782 277284 847452
783 350224 908430
784 931929 26992
785 158741 186155
786 732745 433468
787 7178 247620
788 74730 418372
789 670509 315868
790 145492 524496
791 548569 247811
792 567523 577804
793 129684 235986
794 354377 327447
795 756529 788477
796 753567 320041
797 96833 496945
798 60169 906645
799 335194 537393
800 649346 26509
801 484993 963515
802 814820 445726
803 755276 806371
804 148369 911970
805 49642 585569
806 181232 774451
807 978750 310658
808 22482 20962
809 379839 780338
810 787282 443578
811 573236 394535
812 377645 132232
813 701161 769229
814 618647 561452
815 492343 268358
816 270002 758539
817 266225 559923
818 343263 774118
819 269060 256864
820 555322 108721
821 856146 574038
822 540164 312950
823 215241 359032
824 942395 964601
825 795784 290940
826 287997 773742
827 45050 380988
828 756506 726454
829 697290 254897
830 102463 981158
831 537310 891505
832 356648 940920
833 729422 607193
834 234286 665799
835 95416 663449
836 78566 415238
837 984553 496342
838 155580 799493
839 349484 996657
840 375726 974706
841 71939 363750
842 458988 511185
843 731047 378497
844 401890 325304
845 830500 736070
846 539832 603261
847 161447 891872
848 30154 440908
849 589485 43822
850 157369 415748
851 9548 945738
852 588874 821078
853 219000 924247
854 314753 533865
855 649940 378009
856 324564 371985
857 424396 366392
858 441325 934049
859 730058 464775
860 910766 288513
861 17708 190463
862 508430 679668
863 653901 132828
864 826363 163475
865 277341 231333
866 484740 815619
867 346717 997717
868 650142 699953
869 939353 92595
870 69859 796998
871 648438 937114
872 414538 541987
873 718361 349368
874 94830 481778
875 237970 897326
876 614545 426009
877 766480 926036
878 931007 193928
879 599021 591157
880 170935 519047
881 984894 222157
882 464005 852941
883 729570 387449
884 957447 882409
885 648031 91957
886 839218 248279
887 226805 13439
888 673968 591698
889 423982 582393
890 748661 459973
891 533806 235205
892 992539 758294
893 246438 262583
894 351614 493775
895 268147 262693
896 742506 56943
897 444564 977902
898 957779 400159
899 710309 401099
900 868019 126662
901 925385 512437
902 733116 777997
903 363519 379339
904 433469 8186
905 679597 668424
906 842314 105246
907 323010 908242
908 776540 927950
909 777592 486103
910 895162 329410
911 677139 556347
912 14390 521368
913 166571 326781
914 515162 448807
915 649919 294628
916 158229 415796
917 902795 80237
918 617659 428560
919 912195 84297
920 981754 318488
921 484990 865510
922 598612 938736
923 585553 186158
924 42553 923196
925 811331 630998
926 884996 261501
927 751179 573390
928 968433 509589
929 609641 652879
930 160338 934959
931 467143 349172
932 26432 361109
933 183433 976803
934 506633 384273
935 322688 590381
936 885396 854395
937 674772 264164
938 444414 415637
939 805168 440999
940 552934 656981
941 717140 862283
942 288469 714960
943 827484 809057
944 389363 541686
945 896803 640855
946 921927 527921
947 761608 391372
948 433092 630595
949 190738 334448
950 494321 169916
951 380990 601554
952 370261 154349
953 913858 22713
954 973031 36218
955 745906 159376
956 120225 67954
957 756075 519482
958 13031 939222
959 587563 635059
960 928017 552838
961 786065 172184
962 889952 152772
963 209391 283842
964 484133 520422
965 350306 421701
966 442605 768949
967 695093 393558
968 536755 649185
969 106207 768987
970 701929 888262
971 221493 754304
972 613669 343965
973 854790 749743
974 637969 608835
975 181981 149249
976 146461 670315
977 984142 72620
978 727310 612040
979 906461 976703
980 617594 264672
981 916505 204044
982 334289 857644
983 937883 365921
984 454284 412110
985 664692 263288
986 301252 978728
987 453078 778767
988 406377 115749
989 188041 817331
990 425462 597350
991 377380 507430
992 902828 85633
993 505195 238561
994 434660 837448
995 455675 170833
996 194900 694097
997 104295 438641
998 587009 242765
999 301225 834902
1000 937588 739041
1001 561701 820637
1002 183373 584630
1003 771868 639031
1004 767487 898509
1005 567424 488748
1006 177379 69012
1007 521028 446760
1008 69771 222408
1009 99749 895648
1010 270634 695117
1011 64695 619382
1012 474521 925650
1013 701586 480614
1014 795354 868447
1015 6898 767346
1016 348261 289532
1017 249907 936713
1018 419971 308368
1019 986402 456067
1020 15861 282787
1021 138812 539012
1022 566814 760557
1023 106137 575518
1024 219575 178644
1025 737054 106394
1026 447410 432778
1027 828003 170242
1028 390779 272169
1029 570730 246659
1030 164659 463500
1031 652628 311419
1032 882647 284637
1033 349936 638367
1034 502198 760470
1035 340622 494253
1036 2833 921104
1037 158593 164239
1038 247707 631917
1039 791378 304279
1040 534871 429416
1041 909883 548694
1042 703788 543398
1043 114717 36841
1044 406884 965269
1045 586776 781603
1046 806170 225931
1047 115445 521607
1048 279953 217707
1049 380418 402574
1050 512850 474220
1051 784139 915295
1052 643773 307637
1053 196510 898715
1054 728990 284605
1055 55525 353937
1056 865285 605461
1057 659883 383055
1058 657330 426697
1059 195974 361039
1060 4683 132229
1061 257949 99624
1062 247619 866402
1063 710113 87537
1064 277331 850956
1065 967729 348991
1066 902927 506772
1067 248754 180933
1068 564131 304422
1069 888811 320732
1070 886067 688019
1071 840867 45844
1072 960585 454546
1073 523654 706546
1074 978311 249042
1075 811494 192415
1076 940375 529461
1077 434845 163859
1078 571293 277366
1079 666541 462839
1080 743506 892088
1081 9904 408257
1082 398538 367505
1083 513070 819440
1084 644875 205336
1085 859401 950784
1086 448385 946932
1087 549545 812267
1088 191854 728487
1089 664778 83760
1090 295109 432746
1091 420996 814491
1092 107450 75640
1093 339087 494669
1094 108234 881248
1095 667862 744690
1096 659546 683475
1097 461331 935283
1098 239634 893934
1099 496298 148317
1100 262692 795167
1101 41767 894551
1102 953932 378747
1103 771419 125883
1104 422011 359204
1105 824771 76623
1106 169132 785292
1107 794977 998815
1108 232541 326428
1109 946926 463254
1110 127870 619135
1111 323142 496558
1112 942643 64233
1113 909016 553833
1114 992999 170798
1115 40848 65970
1116 306475 305574
1117 258988 218485
1118 263614 635703
1119 19514 108634
1120 843099 12658
1121 547742 644980
1122 753378 48726
1123 421548 162988
1124 740831 397097
1125 26266 685800
1126 900935 325500
1127 107469 196722
1128 488691 736192
1129 635562 735447
1130 115132 135715
1131 106369 313376
1132 516105 812113
1133 528881 524151
1134 31914 746250
1135 577267 69552
1136 585596 549828
1137 436987 442070
1138 718200 997642
1139 389088 745921
1140 575542 172823
1141 918271 257551
1142 55665 905132
1143 959600 993098
1144 789469 446875
1145 689604 739462
1146 603789 273263
1147 531367 773546
1148 427062 997913
1149 207992 311307
1150 330526 423906
1151 773900 994910
1152 821555 853443
1153 767529 643383
1154 269834 202336
1155 237121 495592
1156 946723 188687
1157 45842 375669
1158 531926 833106
1159 782009 742558
1160 385051 530967
1161 316158 720606
1162 415724 153360
1163 295652 590686
1164 728273 583544
1165 674540 74816
1166 727807 186751
1167 508800 79949
1168 226099 729583
1169 211708 679995
1170 373206 126494
1171 211089 46910
1172 61824 158637
1173 423303 883182
1174 857539 378006
1175 477893 836375
1176 269640 624448
1177 636767 255710
1178 696098 587148
1179 486109 741605
1180 627343 37946
1181 431675 589838
1182 829130 110626
1183 284503 899813
1184 126863 887205
1185 952366 648743
1186 975566 404002
1187 264664 548675
1188 261326 691710
1189 83839 160013
1190 457262 708504
1191 104576 986668
1192 956201 636594
1193 643141 137969
1194 357621 398174
1195 795446 326286
1196 602720 324503
1197 727629 724462
1198 150928 807087
1199 782245 513148
1200 897310 731593
