NAME : portgen-1200-1204
COMMENT : portgen N=1200, seed=1204
TYPE : TSP
DIMENSION : 1200
EDGE_WEIGHT_TYPE : EUC_2D
NODE_COORD_SECTION
1 992677 75835
2 562865 689835
3 358484 173232
4 553969 32881
5 115797 736955
6 142926 183194
7 773097 24265
8 368541 431085
9 77208 156518
10 884936 88100
11 252750 528186
12 375222 733245
13 372723 718274
14 125152 868490
15 383042 266828
16 831688 149509
17 100352 952568
18 605321 854772
19 835923 138210
20 271691 872222
21 298753 569370
22 856862 677843
23 594052 277057
24 895446 895077
25 151098 407341
26 869051 525235
27 330640 910032
28 828458 843167
29 975483 610297
30 84513 503712
31 337308 415758
32 761190 243574
33 438202 573555
34 326332 95254
35 430213 91483
36 535639 182131
37 5420 477595
38 219049 727514
39 197546 465190
40 904786 529555
41 742790 514855
42 783976 879330
43 929520 415929
44 388319 856777
45 514366 31766
46 528440 740669
47 707996 180207
48 336583 116622
49 563949 379267
50 458793 866537
51 79511 430255
52 990290 621542
53 664550 354195
54 741258 451310
55 980511 412529
56 454848 118705
57 95931 52747
58 975272 596638
59 707761 580982
60 906991 321580
61 9605 947064
62 636460 563676
63 11972 105383
64 191840 383878
65 813044 864853
66 986256 746235
67 484678 492257
68 74707 624085
69 418924 731228
70 904057 332881
71 708167 807336
72 949786 192785
73 22160 581375
74 104209 144320
75 168234 231200
76 924781 180071
77 566222 593939
78 880281 333275
79 945577 498033
80 546834 40465
81 935271 10030
82 547252 647629
83 704361 647512
84 168919 903145
85 30587 393896
86 492429 563441
87 412748 675791
88 396798 829534
89 380841 42520
90 683395 678697
91 159806 693807
92 837043 772578
93 929582 976225
94 198983 837048
95 787895 427195
96 455165 515779
97 700640 510160
98 840452 144725
99 394588 273995
100 795987 192626
101 200533 61688
102 460924 489537
103 71393 230974
104 343028 793644
105 664357 904055
106 134291 108528
107 710137 119639
108 585299 419492
109 309390 37091
110 807177 559635
111 252923 894924
112 107158 837961
113 193363 430740
114 102517 923211
115 604397 165823
116 486505 587197
117 378163 779339
118 544405 51278
119 983669 717403
120 187278 510090
121 666835 161892
122 29871 228260
123 174271 560241
124 408620 862679
125 316797 409712
126 42208 471377
127 669597 630163
128 706120 613335
129 683525 681585
130 945131 20115
131 247305 625624
132 606365 154267
133 237220 972399
134 78656 481877
135 945368 25058
136 10871 446710
137 720294 397464
138 517426 781546
139 225326 476995
140 131840 580028
141 747215 420932
142 978079 584282
143 918518 860881
144 980832 223896
145 542118 572006
146 972621 501791
147 772035 162220
148 499219 220124
149 441597 632406
150 710833 392724
151 334914 931625
152 730838 736768
153 662497 621276
154 493297 85315
155 711644 845239
156 632503 459629
157 139466 373125
158 47493 745514
159 853589 444145
160 655048 17096
161 530801 446249
162 771044 552643
163 690143 79245
164 715871 983525
165 734967 896149
166 288248 140011
167 765350 286601
168 947525 287585
169 281465 604954
170 536788 173004
171 7291 536687
172 568848 525022
173 41204 526371
174 730746 219391
175 472076 419973
176 504252 458072
177 897438 814683
178 104476 194903
179 166275 444237
180 789243 374911
181 339810 888343
182 548526 538640
183 837947 95815
184 890781 614443
185 331921 521121
186 14767 634198
187 972068 235074
188 512843 72729
189 548810 956361
190 448167 495240
191 912969 271634
192 194282 360056
193 556338 399905
194 591484 226709
195 448654 851709
196 396804 667022
197 273032 15667
198 158236 373093
199 564619 333773
200 12179 968474
201 977561 774385
202 771223 976836
203 507003 232618
204 263789 537382
205 258344 704570
206 603418 939565
207 995583 937533
208 978106 672788
209 615310 532859
210 380403 464853
211 531196 557007
212 602264 363447
213 543560 240382
214 862974 995231
215 728070 280225
216 808940 11428
217 698016 743596
218 891821 973404
219 276051 256748
220 381950 883550
221 784594 58625
222 846306 983800
223 320513 839797
224 64757 909585
225 472106 917854
226 510119 569387
227 605703 731954
228 159533 966132
229 76368 27626
230 85015 533599
231 956566 7040
232 155431 374794
233 919976 544792
234 93259 11782
235 617020 138308
236 608030 705724
237 60752 462548
238 954734 961808
239 951303 870310
240 203913 577428
241 164013 835347
242 910216 194470
243 323658 801899
244 855997 323222
245 823620 347029
246 880144 264268
247 639728 243642
248 275519 78869
249 997873 383757
250 29066 358704
251 888494 194447
252 705672 894678
253 753841 674771
254 659171 411233
255 408295 357634
256 110135 753145
257 204005 737986
258 653455 692297
259 367312 911789
260 99274 841106
261 546918 709502
262 982716 258316
263 249814 413583
264 52 166073
265 708707 279963
266 302637 540070
267 462014 846278
268 467292 410867
269 631341 172230
270 541014 631360
271 434587 944208
272 223948 982514
273 800110 170642
274 281552 381412
275 993828 861936
276 78817 831800
277 675049 749102
278 56066 348423
279 732432 859393
280 427385 342974
281 43429 486941
282 870218 776935
283 923046 165927
284 529197 221491
285 937875 482813
286 410745 985899
287 917961 237338
288 762288 715118
289 34452 233613
290 202249 901390
291 681150 140658
292 738687 365733
293 236533 815696
294 669852 685079
295 923231 301365
296 881669 409850
297 234354 58201
298 220614 448688
299 26247 986609
300 220226 84992
301 136189 47938
302 179163 92437
303 180785 938159
304 93113 309316
305 512569 240370
306 678571 47353
307 936162 126020
308 461304 633578
309 252586 812016
310 556320 474358
311 139679 542588
312 1265 852883
313 346623 362806
314 806736 825523
315 56553 824128
316 622004 725136
317 721044 961879
318 222818 633797
319 204495 612667
320 904428 602955
321 563110 857835
322 128758 448872
323 161685 339080
324 408585 381471
325 711578 857808
326 641951 200723
327 930056 396097
328 462987 411053
329 326894 217283
330 869618 546988
331 733663 480445
332 404887 909613
333 677260 820735
334 918594 487289
335 964334 122223
336 224992 871115
337 100437 698512
338 832407 938956
339 612532 605167
340 389896 935569
341 35912 589452
342 955904 509564
343 90465 141559
344 320248 811430
345 284619 402083
346 715202 717206
347 648333 782205
348 377962 691994
349 757398 430246
350 616465 222729
351 726548 803418
352 991574 776009
353 821896 52499
354 244818 420491
355 305632 321428
356 90805 515463
357 932664 467535
358 831785 16457
359 832112 622682
360 531651 985265
361 63337 488347
362 870823 741604
363 395675 421574
364 879540 324428
365 876615 779908
366 694137 192041
367 299535 68467
368 844764 520448
369 656788 488369
370 677779 74008
371 309446 697566
372 279779 299353
373 338745 226855
374 846382 906728
375 386529 956387
376 812453 432969
377 553630 836557
378 528591 534507
379 503882 923106
380 931245 301447
381 395710 756449
382 742711 231623
383 11981 393238
384 235684 633310
385 128789 604929
386 170074 925383
387 236152 575263
388 172811 630367
389 934716 34266
390 213012 861167
391 917692 956433
392 393182 575168
393 384197 937688
394 449329 67911
395 56486 451525
396 284763 23477
397 359579 72849
398 903933 384062
399 461413 704515
400 126542 708377
401 292138 812116
402 693716 525361
403 38695 856020
404 39786 978462
405 452360 590903
406 85178 435970
407 866620 479719
408 16684 372233
409 396869 669862
410 327689 627919
411 931825 531169
412 506768 420412
413 312791 357957
414 231667 710790
415 536568 316791
416 590580 956253
417 581906 622109
418 775989 481721
419 89813 913462
420 558483 11963
421 540819 779467
422 740222 428567
423 519700 753594
424 516709 939167
425 760058 545976
426 152395 750623
427 167947 809750
428 117796 335884
429 230210 71606
430 749372 556973
431 766207 126324
432 419978 440396
433 50084 305710
434 695748 438053
435 960019 263089
436 855524 457701
437 909803 781713
438 475524 181202
439 363222 697017
440 302615 976906
441 127747 160060
442 961418 979595
443 550584 464256
444 536274 141509
445 572024 470278
446 785973 651759
447 953443 295394
448 156439 83117
449 869663 958508
450 953043 338498
451 390372 819691
452 636552 783152
453 418228 992334
454 789204 188351
455 259166 653540
456 799610 88700
457 499582 279093
458 770999 114447
459 172880 124584
460 283956 966966
461 436047 737240
462 485010 621521
463 872717 35832
464 821149 126651
465 363484 483189
466 391997 174870
467 437851 649074
468 177296 39046
469 660478 682325
470 208595 436136
471 291375 411690
472 857552 605058
473 34231 48733
474 166749 331921
475 422677 120606
476 261968 743012
477 595023 469853
478 946500 215502
479 381840 987477
480 605855 379182
481 331855 106879
482 979756 823029
483 362164 387919
484 231147 894523
485 244861 722266
486 947698 840959
487 701907 163349
488 704998 693034
489 142216 15156
490 675020 657214
491 653992 833671
492 520795 984302
493 151333 285118
494 195113 614821
495 286910 789376
496 807898 765954
497 437463 486329
498 488438 450416
499 709783 694202
500 900059 341196
501 906517 151592
502 656901 765462
503 466614 428296
504 222216 610721
505 318519 661382
506 20389 767019
507 700567 816479
508 571283 565901
509 669415 493427
510 334590 911747
511 678136 536944
512 994464 903664
513 815749 796105
514 184057 936444
515 696735 276701
516 470818 531495
517 696636 13637
518 636825 886972
519 133104 704316
520 413018 585432
521 615702 701685
522 280230 375163
523 111240 270953
524 771490 533799
525 670580 692333
526 266359 773338
527 997467 623357
528 870378 375022
529 454955 643263
530 128637 579641
531 295192 517900
532 197702 733087
533 45680 318703
534 486788 325404
535 705238 300329
536 794411 135616
537 822847 642257
538 645388 904797
539 539477 371106
540 33285 440726
541 341150 540794
542 807807 117093
543 981508 952918
544 333792 963549
545 967957 318122
546 400184 807699
547 999077 112688
548 791021 480086
549 878838 637973
550 729774 206443
551 731476 400383
552 500513 229853
553 351183 725564
554 965531 880374
555 641849 917460
556 41229 491405
557 675306 810514
558 179457 487492
559 518822 85013
560 942065 565593
561 439864 848815
562 595629 498795
563 568853 394027
564 635102 592994
565 291074 919823
566 939265 659102
567 729257 115825
568 399497 849744
569 865488 997292
570 937635 494015
571 434095 248778
572 21484 402363
573 878258 551368
574 212070 500282
575 543835 396993
576 844983 285844
577 346898 809950
578 267177 72374
579 671125 384687
580 830355 501439
581 860076 968238
582 942738 147833
583 483364 792450
584 469921 272942
585 932256 628088
586 275422 18539
587 541178 545071
588 720610 154019
589 501916 785678
590 231618 496479
591 722901 250415
592 762638 789635
593 59746 971027
594 716363 581424
595 632461 607047
596 379822 592545
597 65036 309547
598 218593 415555
599 707600 476412
600 681753 724238
601 49452 426391
602 268664 47356
603 674092 594568
604 523206 557263
605 750203 296150
606 356010 89701
607 752226 223308
608 121616 267531
609 903202 633191
610 929239 67808
611 84849 993509
612 591189 208018
613 578636 849030
614 749875 493821
615 870979 126042
616 630813 944653
617 35474 935468
618 140468 633200
619 498189 539329
620 668018 792215
621 67824 83172
622 652184 564653
623 522197 386312
624 1356 857017
625 730911 369562
626 665680 213778
627 605432 555711
628 93424 104798
629 390917 333195
630 906887 40892
631 96379 983876
632 889244 957988
633 228325 272837
634 437517 187572
635 701111 735303
636 266174 46184
637 902280 559677
638 402128 871070
639 388076 35478
640 114594 473837
641 458113 416679
642 586934 830087
643 29662 646937
644 55408 77486
645 707143 867631
646 195683 310616
647 838218 932715
648 526041 21640
649 180892 92507
650 162525 651126
651 998236 965878
652 742423 257073
653 911448 249000
654 626844 775345
655 526048 446486
656 49389 313430
657 626052 39256
658 845209 785763
659 145657 956529
660 431947 206684
661 91945 345009
662 25047 49984
663 737067 300296
664 303761 645207
665 648228 153127
666 244225 612730
667 509429 668107
668 424448 144683
669 790626 547677
670 984878 243899
671 501280 98879
672 645539 500458
673 775685 850673
674 285568 788233
675 195647 225744
676 717879 535685
677 444278 9397
678 406900 385505
679 456448 74315
680 832624 766765
681 458373 79167
682 790467 282148
683 945206 950510
684 667890 125594
685 263570 994535
686 500194 357423
687 760881 206202
688 488805 556259
689 900730 15650
690 643084 351561
691 843848 229445
692 812582 881462
693 694754 165058
694 822263 227281
695 722901 473937
696 476792 665032
697 284106 990342
698 743705 143856
699 337997 439336
700 11652 219426
701 949942 269917
702 145149 844086
703 381896 488433
704 723103 562816
705 314642 241842
706 563242 229167
707 351413 358686
708 289973 793341
709 795060 800125
710 538443 801349
711 612512 228553
712 113942 44144
713 44593 230276
714 212274 916795
715 824306 372
716 833156 337914
717 701008 401241
718 788319 614681
719 878031 453895
720 591489 901413
721 369997 22137
722 688837 921551
723 861425 248238
724 551090 239962
725 945749 513428
726 931582 421202
727 615030 11280
728 386269 612028
729 568909 743907
730 55766 767214
731 610401 269207
732 971326 413229
733 871844 541104
734 540329 429862
735 497261 41734
736 242250 555098
737 854376 25015
738 869767 191310
739 613523 102661
740 657875 432565
741 661367 468366
742 861028 57091
743 389970 563949
744 366587 287778
745 529397 247215
746 74351 448169
747 956633 549754
748 659162 814898
749 167761 663822
750 51783 670114
751 634715 448428
752 582086 513183
753 852060 463215
754 560173 557938
755 621310 822320
756 245440 281130
757 214510 808551
758 692862 162232
759 312573 421571
760 754066 56946
761 373342 876507
762 378078 827147
763 407019 793822
764 973011 341192
765 172954 406552
766 631137 55584
767 481351 835554
768 187124 380236
769 253855 52477
770 364229 227738
771 251375 945016
772 533712 472450
773 873872 197844
774 70091 129486
775 142735 865340
776 841886 826569
777 490867 645231
778 38977 579130
779 967077 746532
780 326059 471824
781 209359 507695
782 193709 393571
783 570944 300424
784 747418 742060
785 934678 495017
786 92140 183086
787 278836 888726
788 215059 546773
789 385639 732846
790 788169 827889
791 826745 226479
792 15133 701130
793 197192 123441
794 861875 87779
795 264610 886700
796 632817 511795
797 117798 869211
798 135597 68288
799 666179 644985
800 257390 327099
801 812205 337244
802 341316 314845
803 38595 615406
804 811436 789737
805 448038 915535
806 717255 879297
807 481922 439358
808 839006 697563
809 389896 324498
810 257974 502655
811 634244 102433
812 484669 607578
813 682812 754896
814 841770 963990
815 850131 599652
816 735336 595902
817 284808 872634
818 110634 947447
819 744557 575774
820 862123 499629
821 733544 537376
822 829805 761954
823 252455 530384
824 27126 510220
825 186398 380701
826 226518 702188
827 794853 657737
828 591763 216303
829 52435 468682
830 204211 91147
831 870849 235661
832 927613 948408
833 181991 179878
834 49492 719967
835 186902 308622
836 670436 879676
837 138099 877272
838 276137 932056
839 307579 826931
840 15815 466508
841 702460 373087
842 759779 758984
843 728803 499675
844 668288 336399
845 690642 930756
846 897955 24589
847 388871 553501
848 829192 853867
849 399277 952532
850 485817 320399
851 222804 200195
852 494404 719890
853 678241 853431
854 942408 35869
855 928934 92087
856 548015 716036
857 778039 273455
858 193192 846259
859 846790 374112
860 119216 328123
861 780600 96959
862 234150 866503
863 85817 470241
864 385272 418209
865 199031 422705
866 989647 271709
867 897996 923727
868 918493 986424
869 595047 486324
870 565791 882544
871 652885 294175
872 217183 362519
873 150155 800995
874 790439 522368
875 467683 358950
876 468595 981067
877 753501 63111
878 330751 951095
879 302198 570676
880 801396 691817
881 258383 456084
882 470077 46390
883 439202 253839
884 498853 415520
885 123300 392196
886 55820 324421
887 906429 760265
888 859527 799533
889 343458 171039
890 535751 134722
891 168042 814595
892 616812 507214
893 164321 533562
894 801631 851606
895 484524 664653
896 487570 179527
897 363024 173595
898 826723 328463
899 387746 456917
900 502991 350622
901 457537 619399
902 986616 332960
903 190908 654000
904 364255 246287
905 898789 797189
906 149463 450591
907 86152 136742
908 204246 78856
909 93060 296482
910 219666 110739
911 866092 41935
912 912528 772678
913 934658 436420
914 337805 573468
915 569357 205527
916 435277 97170
917 272249 738562
918 985259 717451
919 728443 480069
920 302967 85465
921 440501 505149
922 631939 373784
923 798561 445635
924 266998 590346
925 238937 390302
926 990657 814278
927 887560 297464
928 915344 360367
929 347150 248053
930 347701 473456
931 925557 884185
932 943319 813324
933 356687 644313
934 818651 712367
935 338181 758611
936 811858 502714
937 57544 829363
938 120082 51814
939 154375 615063
940 857333 574291
941 89270 89751
942 225766 95900
943 279969 551092
944 153851 458925
945 381875 340945
946 898799 16076
947 141888 544356
948 273606 937787
949 447605 802576
950 253702 746747
951 291259 651934
952 733012 664646
953 301032 900905
954 588511 791659
955 17494 364251
956 206515 888225
957 866178 6755
958 574657 909481
959 742296 398962
960 539717 418900
961 196708 16075
962 458664 591434
963 467351 159923
964 769702 392898
965 528331 219176
966 463302 362716
967 597569 493081
968 367775 201045
969 223573 219011
970 521242 370488
971 808795 754888
972 919207 962975
973 144237 882723
974 557411 550454
975 77004 113683
976 168084 54707
977 274244 34525
978 283444 928543
979 54365 239930
980 296870 99987
981 677331 369500
982 270416 647006
983 555456 451627
984 969017 903203
985 862517 691934
986 352069 191842
987 321957 426034
988 250815 142001
989 741830 424138
990 307989 538808
991 105558 529771
992 96027 428344
993 541844 93801
994 92299 950562
995 937625 916148
996 232027 320370
997 356493 829308
998 18419 616952
999 432930 493172
1000 712159 2236
1001 140892 133272
1002 242465 538196
1003 8124 638312
1004 958680 845900
1005 492680 189643
1006 836243 103802
1007 302305 380722
1008 867959 356961
1009 13007 441108
1010 628586 938503
1011 18696 475844
1012 191043 860281
1013 551041 218796
1014 949377 783761
1015 417909 612502
1016 183320 895930
1017 931458 118345
1018 702564 1755
1019 227466 715304
1020 560385 184883
1021 80794 651191
1022 321976 999121
1023 897451 756183
1024 129327 496211
1025 278266 799622
1026 667575 649169
1027 75263 99657
1028 818915 244962
1029 201814 124119
1030 835632 6368
1031 410845 243375
1032 285515 307797
1033 108848 185052
1034 781826 303183
1035 483270 111776
1036 227634 516795
1037 162841 828964
1038 270928 369527
1039 400581 91385
1040 41365 306079
1041 16982 825258
1042 948129 411540
1043 201656 939945
1044 610415 623660
1045 9497 517512
1046 219929 924283
1047 232033 448608
1048 957249 563999
1049 488350 493011
1050 728193 527924
1051 355601 37941
1052 454845 972187
1053 782640 842317
1054 701039 663722
1055 898001 878970
1056 634546 578153
1057 114622 318119
1058 786439 486562
1059 11341 836906
1060 350548 544849
1061 696701 288814
1062 574989 955346
1063 756174 189692
1064 61949 190653
1065 46324 428611
1066 668487 736859
1067 193384 162395
1068 671532 438828
1069 710636 630009
1070 625101 715094
1071 928603 773508
1072 273112 464647
1073 820810 931114
1074 349294 276687
1075 692434 767557
1076 502049 297696
1077 446687 299582
1078 859437 618742
1079 844557 292450
1080 300654 343811
1081 131680 71030
1082 38621 182906
1083 950366 861037
1084 305041 649974
1085 497309 855325
1086 137267 734654
1087 144472 582991
1088 42800 399004
1089 842127 275406
1090 95909 137432
1091 345134 769499
1092 889998 702512
1093 296930 597456
1094 698237 10477
1095 212028 810494
1096 133786 60661
1097 132699 769775
1098 577826 193948
1099 629036 690121
1100 421847 421805
1101 88986 73887
1102 180778 555001
1103 422422 732550
1104 407697 744174
1105 2652 261980
1106 920504 834080
1107 80421 490159
1108 210024 71019
1109 938330 268845
1110 605080 756417
1111 232000 614920
1112 228127 75504
1113 766338 63379
1114 553875 589470
1115 160568 310249
1116 991307 97953
1117 272754 833928
1118 216927 511054
1119 689078 399839
1120 492487 225911
1121 659125 429392
1122 405397 455611
1123 578493 518866
1124 832534 57195
1125 3437 514446
1126 640073 39566
1127 529552 111597
1128 430498 991033
1129 801133 346849
1130 338074 911367
1131 43472 7858
1132 251686 776741
1133 602854 491111
1134 428682 624810
1135 911666 691158
1136 238484 881135
1137 265407 90633
1138 116344 192434
1139 85367 116529
1140 645005 775305
1141 262246 207025
1142 251396 249200
1143 266777 983448
1144 846266 496013
1145 231073 725815
1146 82371 64267
1147 488173 801329
1148 987426 777990
1149 163984 314763
1150 339266 386059
1151 433499 716004
1152 412190 228132
1153 252200 433047
1154 788170 280351
1155 844819 447050
1156 144767 305120
1157 115776 612258
1158 828996 979204
1159 519685 450357
1160 789314 824864
1161 327127 113919
1162 285543 525606
1163 257659 522480
1164 468945 37275
1165 838433 683297
1166 404263 805015
1167 271710 197955
1168 630537 957125
1169 91249 639137
1170 420204 287573
1171 463762 395908
1172 706698 406209
1173 398688 968452
1174 778724 962566
1175 543670 464946
1176 309045 126709
1177 476330 655968
1178 981796 628483
1179 444294 214234
1180 597594 295074
1181 341797 149032
1182 860147 557246
1183 983287 748858
1184 598422 709566
1185 213569 860544
1186 200480 557119
1187 906687 324367
1188 515818 200418
1189 637588 629575
1190 543810 629176
1191 78185 254710
1192 439680 543358
1193 341500 255230
1194 944868 714463
1195 214667 881679
1196 358703 381682
1197 425568 559660
1198 87092 906643
1199 489220 382330
1200 890390 198270
