NAME : portgen-1400-1408
COMMENT : portgen N=1400, seed=1408
TYPE : TSP
DIMENSION : 1400
EDGE_WEIGHT_TYPE : EUC_2D
NODE_COORD_SECTION
1 845116 350529
2 955893 183545
3 31383 616947
4 259669 945413
5 139455 13542
6 413846 277966
7 712802 665998
8 179525 973037
9 276813 323755
10 658235 904145
11 145999 61545
12 602399 449260
13 583577 382419
14 394679 311294
15 238741 551481
16 486505 447950
17 941835 763315
18 889194 238017
19 160623 385527
20 764092 225222
21 647771 364007
22 81509 719842
23 594909 869746
24 603153 692546
25 133360 586796
26 193396 339798
27 644010 252378
28 882950 397165
29 408693 192578
30 294351 793365
31 456324 874142
32 181321 914232
33 365771 49838
34 196457 992960
35 71089 309778
36 369884 584266
37 190395 71439
38 710748 806201
39 417534 350021
40 566309 186411
41 973725 202100
42 16943 445375
43 95157 612363
44 266629 27602
45 397543 839355
46 41559 167663
47 314437 454313
48 855337 63505
49 173612 10069
50 9094 788708
51 452212 253132
52 126237 946949
53 613070 991296
54 322854 198634
55 157221 270587
56 130536 381090
57 795035 454996
58 751805 288661
59 559704 727007
60 58895 302266
61 876226 186388
62 983865 282381
63 857566 116752
64 458028 243446
65 458369 719451
66 483346 218900
67 192799 295722
68 55874 592634
69 407064 561947
70 693569 806496
71 52659 539621
72 968707 95276
73 963128 855171
74 183797 32056
75 596747 738585
76 605476 930165
77 551700 289642
78 305361 233311
79 60332 830515
80 891074 20435
81 584232 760907
82 505064 350725
83 217928 590915
84 412383 699758
85 491867 896634
86 104863 527647
87 130260 320309
88 696790 946060
89 634688 694222
90 977019 624254
91 56420 627513
92 352371 437933
93 135219 722439
94 713835 842074
95 77793 464958
96 180251 707306
97 70079 796935
98 701632 525011
99 409360 648398
100 398486 17067
101 220483 489574
102 55036 972493
103 682165 977962
104 577794 113766
105 154423 582922
106 519476 218257
107 752721 426115
108 840183 876925
109 690827 708129
110 649092 692916
111 181554 763984
112 301272 474800
113 676150 615288
114 472610 157767
115 638144 718828
116 368266 520921
117 539799 394097
118 104778 838162
119 874792 926256
120 597749 258293
121 31611 5706
122 192982 384877
123 283403 416266
124 406033 595278
125 120784 86343
126 52400 251593
127 10253 679658
128 648800 699562
129 949775 660939
130 867714 844002
131 103170 651538
132 516016 896129
133 551310 513769
134 25275 367844
135 142711 423916
136 470891 95548
137 587344 562748
138 640516 929961
139 753731 621613
140 826000 976588
141 665513 811671
142 290052 794142
143 615657 716728
144 4904 643669
145 842786 591008
146 812887 506947
147 783544 173832
148 787401 936062
149 418362 630233
150 744360 353442
151 662535 784420
152 769278 144196
153 420830 240729
154 961541 216111
155 64000 932071
156 694657 306105
157 818153 276706
158 31114 596222
159 867993 342184
160 108728 615247
161 95407 395041
162 623483 789269
163 761381 686471
164 326270 443147
165 141918 399786
166 968420 537619
167 557613 893928
168 281930 359407
169 993517 13345
170 763027 19434
171 848734 662720
172 534941 227538
173 495600 417846
174 883464 994275
175 412451 100929
176 609792 975214
177 488314 344574
178 385022 124916
179 226807 875350
180 862265 61422
181 247211 948195
182 453083 44565
183 83336 31937
184 771164 590614
185 781105 613268
186 712758 873718
187 929732 7798
188 5454 120193
189 906727 278909
190 404247 636465
191 459664 450919
192 580882 80496
193 152574 20225
194 84536 513047
195 810591 249993
196 588242 402903
197 232240 149759
198 306676 975016
199 732987 527142
200 222083 375407
201 511118 604555
202 590028 775986
203 641265 158872
204 394332 407818
205 191999 364797
206 40379 713759
207 64758 612271
208 473179 844307
209 715954 303323
210 737889 108320
211 298949 244021
212 368530 405697
213 102149 108203
214 283690 153745
215 366533 846582
216 725860 498909
217 86909 39450
218 596085 745905
219 386161 968610
220 607317 308266
221 304270 781212
222 775158 702271
223 951044 344221
224 34373 826542
225 47609 198473
226 691326 579242
227 160609 375501
228 649547 12209
229 517645 550578
230 179901 895360
231 772711 425722
232 800500 883732
233 60526 259167
234 938601 362487
235 661227 128958
236 809934 889411
237 255713 539416
238 416994 719707
239 83412 993028
240 756150 89940
241 590558 733112
242 973844 471172
243 73870 300138
244 698408 203177
245 978923 336918
246 807303 23673
247 307382 478358
248 498332 414858
249 525498 235742
250 285277 231336
251 260808 41345
252 70392 957669
253 607914 958213
254 605397 689436
255 301631 349408
256 313801 314467
257 571654 842983
258 88056 749038
259 118339 322142
260 385400 645668
261 733668 702859
262 77210 429890
263 868149 768589
264 819019 298044
265 931501 458780
266 114309 393975
267 691397 406741
268 776138 276090
269 161457 130861
270 383116 324832
271 181798 376265
272 817777 333254
273 603249 104444
274 946463 877491
275 610209 729743
276 595838 227454
277 304240 826496
278 117026 866833
279 349947 663651
280 181530 331824
281 796756 474536
282 306320 976798
283 167609 937535
284 496690 238400
285 239733 983612
286 802575 240847
287 711933 655657
288 49829 506214
289 398618 250713
290 312863 1315
291 418641 155368
292 116513 599676
293 662023 639773
294 87654 714598
295 239131 838603
296 779399 923057
297 891127 399504
298 522257 940950
299 664332 162120
300 283424 97035
301 705825 695749
302 564627 608893
303 311101 440470
304 110941 704564
305 164472 477253
306 779179 635349
307 424519 342927
308 552425 873698
309 583409 906816
310 454541 226658
311 273202 334570
312 954975 142698
313 277786 106825
314 676220 103039
315 344555 609359
316 395272 694054
317 86240 835610
318 222136 783291
319 730849 773585
320 47251 788325
321 56364 180838
322 260056 12473
323 565401 444828
324 968082 748428
325 121717 415431
326 264730 561293
327 817564 674065
328 701762 11771
329 609508 729017
330 386756 527809
331 709621 337355
332 657312 376147
333 420889 598340
334 375293 412046
335 777526 107596
336 905616 834980
337 785098 39109
338 961928 711909
339 517006 280909
340 440935 266014
341 497316 947203
342 716282 816745
343 899737 57916
344 36741 710092
345 414720 623795
346 407998 318803
347 996059 939654
348 882708 221383
349 395739 220946
350 50544 853491
351 927822 687172
352 307492 855703
353 918115 317527
354 845010 818
355 774327 643845
356 975030 899415
357 314296 762961
358 119811 390818
359 341295 717657
360 493439 199505
361 202601 154346
362 361501 924034
363 179773 218444
364 527487 929395
365 120994 644400
366 866899 516187
367 506581 797089
368 290984 597900
369 632906 953321
370 696934 508919
371 716621 319083
372 216653 215214
373 421194 253651
374 957301 72025
375 759880 664263
376 693895 466344
377 99951 406144
378 986592 411635
379 180590 510402
380 564719 320214
381 684620 891688
382 303884 265408
383 927224 655947
384 682762 99081
385 341767 866159
386 433516 269270
387 957777 829175
388 505610 736257
389 54394 955356
390 937441 768138
391 37853 17084
392 364676 800780
393 959779 975210
394 212303 241173
395 869865 635036
396 915138 533825
397 611554 830774
398 75403 447350
399 361306 387477
400 709604 684936
401 199257 1945
402 134583 991742
403 626410 676810
404 101667 299171
405 446365 11382
406 199332 939416
407 640537 929682
408 405075 150795
409 280134 473109
410 190004 479874
411 294640 295284
412 389476 656830
413 666902 431570
414 134686 966034
415 202765 828799
416 634589 755223
417 508991 926059
418 568806 98436
419 376547 434993
420 395705 808983
421 695075 739193
422 51169 389990
423 340396 619853
424 144348 954724
425 163872 643832
426 312664 395271
427 184712 880804
428 50347 444033
429 492953 208524
430 422935 527973
431 300263 666673
432 903465 637381
433 316307 460138
434 888247 250546
435 589286 785221
436 6447 325410
437 309237 546172
438 167209 899369
439 110572 508671
440 606482 222869
441 938617 926161
442 543099 674791
443 528535 967915
444 851757 871610
445 609751 108667
446 210189 126000
447 845707 610483
448 802535 369665
449 429956 504997
450 222781 441026
451 509281 635676
452 348241 941003
453 705215 386502
454 852172 509920
455 352269 82432
456 592275 621343
457 598772 314267
458 317784 174263
459 820966 292982
460 834845 946641
461 30182 383250
462 27765 148259
463 275940 370771
464 977168 368233
465 840956 780707
466 47196 600651
467 156402 524050
468 630593 317273
469 327388 228831
470 357006 354272
471 146949 558775
472 36764 663110
473 78485 826938
474 98234 697448
475 334542 431764
476 392496 61722
477 664040 442074
478 393830 908629
479 479273 824191
480 310410 387941
481 59113 623341
482 152914 997996
483 935482 33500
484 584578 935662
485 235781 490846
486 76029 123517
487 958440 403081
488 554144 968459
489 719209 585691
490 754429 367311
491 891497 152977
492 57823 453015
493 721593 423855
494 447737 158405
495 588567 597092
496 732694 391726
497 993049 866160
498 278242 23431
499 600335 633683
500 108965 110026
501 107728 512542
502 943019 967231
503 540266 239519
504 3898 211025
505 720480 969974
506 460892 320867
507 235623 713317
508 655246 667387
509 630291 286753
510 719754 912050
511 433165 950895
512 826697 125755
513 383117 563486
514 180497 991208
515 862814 314625
516 964560 508184
517 865210 784454
518 906418 570630
519 917353 344506
520 797768 54205
521 793563 160983
522 438651 676516
523 163927 781799
524 565029 867293
525 483043 714756
526 842933 609126
527 770868 794340
528 145465 599543
529 647331 158565
530 60812 969636
531 322166 659392
532 413256 666275
533 176410 299908
534 882215 559107
535 549389 873447
536 102358 762998
537 803710 4997
538 69117 824039
539 180026 32356
540 980289 783573
541 916155 21932
542 930396 893178
543 992458 305168
544 94928 198935
545 608043 606509
546 688414 358246
547 795116 924321
548 951846 30565
549 357273 433654
550 607399 339888
551 601773 532672
552 887003 699470
553 798601 821001
554 678730 877690
555 801881 840297
556 504615 448395
557 550521 454302
558 281221 963920
559 864275 488935
560 714428 145844
561 942634 448561
562 951707 209501
563 271673 569686
564 875994 104239
565 206396 248115
566 145308 302336
567 230475 139992
568 278957 467759
569 471411 476093
570 611957 28538
571 440892 605993
572 484507 462198
573 663874 239852
574 406538 585615
575 652647 382160
576 154571 253033
577 227257 359283
578 194579 299437
579 302197 747011
580 420512 330842
581 349589 202636
582 265733 773342
583 399404 898622
584 963888 88322
585 790427 41368
586 557381 278660
587 836287 332267
588 991273 689601
589 221304 592423
590 14921 972236
591 267489 128982
592 683727 875554
593 898526 942671
594 36603 457132
595 740587 380335
596 503870 383089
597 685665 570588
598 471157 162232
599 769705 152239
600 470925 974273
601 18548 814115
602 570693 680410
603 114671 25588
604 569306 351702
605 460757 251907
606 262833 845064
607 6423 40176
608 826971 966500
609 516971 695144
610 302185 237172
611 128916 811648
612 617396 816153
613 22819 743266
614 707966 155877
615 217596 965684
616 120295 869601
617 131666 763014
618 709403 422424
619 122559 643551
620 48582 932025
621 425700 341459
622 154946 503415
623 251419 692221
624 765692 869511
625 547769 727891
626 454265 613828
627 934643 505240
628 853978 148947
629 682448 807679
630 971007 692246
631 903029 925755
632 303119 528731
633 826207 921374
634 690118 503007
635 788757 134749
636 200808 647459
637 147374 574294
638 782906 515087
639 877005 112155
640 962175 873872
641 60817 900287
642 184869 525349
643 62655 194540
644 566481 602934
645 936807 788028
646 732306 619551
647 854793 913833
648 731217 778240
649 194084 580652
650 720509 736331
651 815216 653536
652 907336 673896
653 667073 553978
654 428959 409293
655 442585 659438
656 582465 79514
657 870872 182979
658 959940 283477
659 70961 389286
660 797514 47966
661 727290 109466
662 782498 52425
663 319533 547271
664 740123 473478
665 907221 228928
666 86128 467711
667 669570 302736
668 291406 981302
669 29415 1890
670 565408 779178
671 123578 177194
672 805419 888840
673 60737 622839
674 837052 802368
675 594300 183945
676 38117 720605
677 673430 491581
678 650203 347504
679 983965 604599
680 382489 685770
681 524562 427068
682 843884 663407
683 535859 405270
684 274094 982031
685 122241 337101
686 446424 268593
687 794986 613569
688 9848 6684
689 436035 290917
690 402222 972028
691 563306 135523
692 90988 221450
693 704365 659059
694 623826 6163
695 766876 886136
696 707208 47383
697 879648 228307
698 332753 854985
699 382208 191850
700 878991 54052
701 186804 546135
702 400145 622271
703 620638 902593
704 629617 451980
705 787215 991143
706 723677 977802
707 837723 496353
708 978562 477178
709 547420 615577
710 330653 680874
711 23062 82244
712 103039 68189
713 150296 900289
714 868447 172714
715 992930 107254
716 377067 984054
717 503701 411078
718 248350 585504
719 297800 594634
720 242888 227186
721 111639 8249
722 675509 86002
723 863073 624963
724 944344 811458
725 78010 432464
726 986538 209493
727 198919 771736
728 676984 202749
729 42433 989067
730 373921 35134
731 604793 34982
732 209092 560029
733 879504 715428
734 302292 751721
735 633279 353599
736 532834 735961
737 537566 898189
738 694335 813568
739 883324 331302
740 391204 947547
741 857855 879379
742 798793 957795
743 502461 342084
744 774962 943672
745 531573 532922
746 283212 546079
747 961354 889288
748 694351 375677
749 470683 777320
750 391666 49505
751 741638 613041
752 420253 130463
753 574608 107158
754 410700 241124
755 269275 334899
756 427787 98761
757 457493 840998
758 751922 58714
759 73627 319803
760 865677 503827
761 244744 524972
762 360054 583774
763 611960 919793
764 315707 407102
765 323581 587177
766 402867 642200
767 62027 56305
768 519760 759094
769 421885 957794
770 205873 443746
771 268457 455158
772 77994 27746
773 288177 758239
774 186024 377580
775 277328 774558
776 59969 63580
777 453738 804489
778 646637 99437
779 551013 363948
780 610703 815514
781 685272 452906
782 35250 825528
783 66442 972628
784 20767 429747
785 552821 993682
786 872689 696047
787 42475 91119
788 443857 181163
789 71233 555565
790 937136 512522
791 368779 951758
792 796399 508067
793 901904 949961
794 606949 236498
795 989862 547132
796 738326 992138
797 404973 212190
798 571056 572409
799 412683 986874
800 583888 107014
801 687006 630458
802 440443 764805
803 405779 108210
804 267181 945671
805 902584 696676
806 492487 314515
807 374086 63571
808 77187 693134
809 47933 823060
810 254471 494032
811 559944 33892
812 845859 445807
813 306676 242231
814 255603 277669
815 685340 335647
816 913981 125562
817 652980 240460
818 20034 54264
819 577672 732828
820 430879 208770
821 902028 783889
822 982026 495829
823 987187 704433
824 146279 959166
825 905514 328825
826 316806 135014
827 301534 248241
828 193032 561444
829 977478 199983
830 744770 351514
831 530538 534353
832 514791 693814
833 794648 708598
834 332488 878256
835 76383 372753
836 546854 88766
837 917545 925646
838 177226 424930
839 732357 597617
840 252775 745231
841 264752 55619
842 532898 333825
843 805108 379628
844 610770 959166
845 445811 311436
846 721776 699416
847 656444 58125
848 661915 813261
849 866343 56380
850 318603 562257
851 972075 548661
852 706391 160282
853 64072 261186
854 602115 967709
855 443132 813403
856 950674 18311
857 754171 433334
858 629738 831122
859 877908 456665
860 31899 981386
861 842254 276107
862 559653 514125
863 400677 998193
864 382375 757263
865 861573 916039
866 822814 764648
867 154485 439371
868 794557 246440
869 301447 99564
870 704087 973986
871 501719 154104
872 927266 464425
873 469182 445669
874 139763 142319
875 657448 663722
876 430885 109080
877 194807 402563
878 739443 207427
879 394176 267019
880 365724 817632
881 959739 502551
882 263621 469145
883 311684 796569
884 91045 289746
885 964151 184069
886 691358 735589
887 799217 368177
888 550501 733174
889 81299 157089
890 774681 193250
891 604016 115356
892 391538 43941
893 956300 320262
894 501027 685339
895 127687 997987
896 155395 11700
897 135412 520017
898 282627 766130
899 354886 559089
900 913924 736008
901 364369 982674
902 367637 464197
903 59705 315529
904 717541 150866
905 446263 419180
906 706400 708837
907 139332 367737
908 662236 948038
909 367138 743604
910 186517 545553
911 441683 531955
912 375822 228143
913 819699 708684
914 367951 335019
915 308471 234971
916 15632 930432
917 710825 355501
918 486850 895178
919 976023 23801
920 381704 8261
921 953124 757422
922 498821 582133
923 556304 623439
924 635878 907268
925 700318 573942
926 398178 19866
927 250617 678952
928 720375 433936
929 271848 12136
930 977347 164526
931 339505 693739
932 769162 438001
933 466056 948977
934 210015 557198
935 811432 38796
936 312159 459869
937 43286 612574
938 147375 421816
939 281338 696870
940 507768 385762
941 436836 355815
942 357672 143944
943 895466 321892
944 161270 272823
945 889444 537873
946 685163 418825
947 212369 342907
948 696102 493254
949 714136 886246
950 434758 134487
951 342101 939008
952 399500 314555
953 137106 42362
954 662193 106672
955 783486 398482
956 272666 999025
957 122691 439473
958 479363 920680
959 481370 426254
960 741899 972802
961 234840 323769
962 122440 676944
963 696695 373151
964 60369 728730
965 475468 105012
966 759622 174665
967 913383 109285
968 113096 437810
969 233124 918199
970 664581 974785
971 840521 735016
972 530923 916642
973 303033 361393
974 296384 535424
975 646212 322950
976 432884 985406
977 410778 329745
978 374864 167436
979 25624 290215
980 201458 699296
981 809238 743994
982 442091 808700
983 557960 537650
984 468102 206048
985 136440 117970
986 624296 945946
987 780042 418949
988 539917 249434
989 912991 792694
990 302080 529259
991 347527 770154
992 527272 776171
993 295773 15628
994 732573 104683
995 551324 575446
996 969708 27075
997 781758 546610
998 350489 894575
999 954973 111974
1000 376725 53599
1001 448402 503689
1002 233344 116953
1003 975423 662730
1004 458133 634606
1005 33972 359236
1006 434863 920941
1007 738890 626012
1008 729587 782163
1009 962235 895481
1010 458211 663385
1011 582676 356128
1012 829322 82841
1013 669567 120606
1014 712602 663089
1015 443526 877186
1016 791300 278384
1017 758722 942843
1018 94396 426585
1019 31263 901260
1020 46583 513610
1021 53392 837092
1022 646472 887939
1023 992770 613580
1024 197752 698917
1025 877043 229883
1026 181973 291884
1027 668447 499539
1028 262298 170018
1029 744967 290500
1030 22557 548837
1031 631467 556873
1032 588022 520361
1033 305844 597770
1034 274469 850951
1035 633241 116007
1036 584410 263318
1037 18437 228327
1038 481412 290791
1039 687680 329783
1040 820542 499549
1041 375638 422101
1042 640531 894688
1043 245718 234426
1044 690361 238361
1045 636999 496625
1046 152116 180312
1047 268018 930576
1048 929200 790073
1049 818654 418144
1050 406526 701978
1051 925900 867969
1052 878374 377493
1053 854244 759871
1054 651352 773759
1055 253820 27871
1056 479656 506606
1057 653501 525931
1058 396720 451155
1059 288855 657446
1060 591160 515770
1061 779116 856324
1062 444424 931263
1063 190107 716440
1064 384944 640944
1065 374083 721540
1066 639438 913920
1067 75962 792671
1068 19892 869032
1069 768600 114600
1070 497968 794563
1071 945571 32915
1072 647200 121229
1073 717508 295792
1074 735887 336755
1075 740469 212759
1076 405129 177710
1077 44061 684986
1078 62540 11979
1079 792006 85703
1080 357600 985212
1081 991270 536752
1082 275791 459256
1083 82300 446741
1084 859406 532271
1085 808423 100928
1086 715267 952099
1087 916977 378401
1088 110640 601406
1089 812263 759438
1090 868722 178127
1091 924434 299240
1092 283343 388870
1093 730270 102685
1094 638129 616706
1095 710371 573151
1096 9625 236328
1097 306176 397040
1098 79296 993471
1099 115938 268798
1100 10588 116102
1101 483528 976449
1102 468032 562341
1103 288325 105888
1104 894367 655190
1105 954715 959854
1106 373850 175300
1107 375332 784449
1108 975586 754942
1109 230576 878751
1110 379959 88828
1111 330803 590607
1112 521683 692320
1113 617399 738817
1114 484067 354635
1115 90075 4751
1116 707039 157072
1117 804722 908868
1118 804277 749133
1119 923908 498893
1120 413283 975327
1121 872109 759378
1122 236746 621542
1123 242348 419018
1124 714645 613855
1125 779640 340479
1126 509404 761302
1127 178723 5836
1128 409063 326456
1129 171727 559164
1130 758064 539192
1131 181979 395473
1132 241906 979388
1133 87745 614471
1134 938554 753789
1135 542100 556567
1136 40296 616720
1137 99110 39480
1138 579424 569500
1139 411883 515846
1140 283257 290942
1141 567090 924903
1142 596571 550883
1143 822771 311565
1144 915165 825334
1145 821123 189805
1146 810579 170119
1147 956792 856716
1148 935031 255389
1149 660268 197265
1150 42118 672848
1151 7134 198799
1152 330598 488698
1153 773388 584501
1154 164731 627840
1155 183064 97497
1156 411290 346393
1157 738041 568258
1158 728612 11860
1159 438680 385190
1160 44357 832355
1161 954203 741288
1162 711671 869252
1163 549433 841497
1164 286122 610412
1165 266091 994923
1166 404768 784043
1167 332781 185759
1168 879651 220697
1169 186861 28312
1170 822270 810911
1171 872884 529974
1172 780977 988767
1173 235602 69290
1174 458448 87540
1175 307282 93533
1176 969266 49856
1177 931174 47195
1178 268079 223091
1179 866017 144838
1180 609046 552691
1181 397639 136418
1182 805569 372153
1183 224613 881316
1184 565415 749274
1185 332655 659322
1186 553412 351140
1187 77908 950823
1188 863088 904347
1189 810114 664475
1190 601172 326342
1191 975480 141283
1192 1365 713400
1193 597283 268349
1194 978474 960628
1195 961146 998335
1196 655281 437587
1197 695657 162948
1198 257498 521743
1199 452066 830153
1200 125678 331255
1201 259176 793972
1202 486367 980940
1203 118052 827982
1204 48490 217773
1205 449911 999730
1206 244616 905389
1207 183691 610710
1208 897410 960051
1209 440761 642621
1210 114654 702869
1211 429249 735262
1212 623595 1400
1213 400145 759439
1214 864773 96967
1215 832770 35105
1216 855856 592340
1217 214564 601442
1218 81725 70090
1219 957592 390654
1220 815990 637232
1221 827587 335853
1222 845973 258277
1223 569085 920018
1224 813991 694257
1225 762802 498059
1226 656970 355099
1227 997382 90572
1228 475398 666835
1229 579408 884925
1230 899215 47962
1231 870390 657835
1232 401783 812679
1233 172142 908763
1234 59416 925413
1235 41624 977391
1236 146059 746504
1237 879818 616595
1238 45898 74150
1239 737880 533023
1240 526001 733309
1241 180031 979847
1242 197751 784808
1243 164715 198020
1244 190556 401884
1245 429299 172961
1246 10674 32178
1247 349029 838598
1248 491172 81083
1249 456034 229377
1250 212379 494935
1251 182137 280968
1252 168255 29492
1253 318027 677122
1254 157347 212573
1255 925857 277377
1256 476279 177523
1257 455625 726253
1258 37287 838211
1259 308806 563185
1260 321506 91059
1261 452728 830038
1262 713034 546689
1263 795253 865091
1264 578249 850325
1265 298567 368775
1266 916802 525307
1267 607166 248623
1268 257030 2507
1269 524222 471498
1270 747521 326503
1271 889214 627371
1272 80378 338239
1273 720232 180635
1274 319143 802340
1275 43344 626081
1276 502834 605709
1277 930809 843603
1278 578133 656830
1279 673802 919631
1280 772462 315520
1281 152900 685849
1282 465052 599353
1283 388162 848907
1284 97145 117385
1285 6020 856651
1286 519068 506465
1287 519840 695425
1288 588225 847019
1289 899228 869431
1290 968556 138423
1291 191289 658617
1292 77863 983047
1293 215875 230953
1294 60255 7812
1295 860460 408122
1296 905361 406836
1297 465477 890869
1298 807435 382749
1299 107530 384952
1300 750014 873213
1301 281407 449712
1302 833784 904921
1303 434792 844216
1304 527845 947762
1305 627728 347179
1306 596575 665989
1307 59171 364339
1308 410159 746064
1309 220372 574182
1310 791918 5413
1311 741377 712192
1312 367371 132807
1313 575244 69356
1314 672681 614919
1315 260632 744008
1316 319174 951466
1317 241703 621376
1318 541847 525299
1319 599446 713524
1320 572887 469810
1321 10581 486072
1322 215894 855047
1323 666745 193168
1324 39464 332669
1325 315625 738079
1326 710068 492611
1327 124319 6006
1328 554038 329940
1329 208008 212407
1330 363073 909492
1331 244770 814321
1332 374874 157917
1333 336598 110502
1334 450094 204124
1335 697594 216990
1336 706599 887702
1337 258557 53839
1338 295345 248766
1339 587872 361365
1340 578768 245303
1341 861347 460273
1342 251845 351140
1343 499237 504852
1344 576591 83786
1345 284778 431345
1346 75204 395322
1347 15930 355897
1348 763210 122878
1349 227515 162055
1350 559701 417979
1351 605295 678099
1352 753900 70321
1353 876731 249794
1354 240765 773179
1355 506768 49186
1356 753349 124222
1357 927629 931728
1358 834287 849448
1359 798391 18977
1360 394706 213719
1361 882986 288039
1362 644422 279614
1363 611695 28500
1364 133801 188235
1365 177107 45550
1366 8000 814693
1367 854596 529582
1368 491954 737125
1369 532643 320117
1370 516852 649788
1371 706461 557614
1372 689079 71058
1373 548359 787165
1374 750899 736315
1375 744201 734710
1376 989077 39280
1377 984947 514151
1378 409978 790602
1379 823502 224318
1380 578367 139606
1381 717151 920648
1382 256326 856979
1383 342724 195734
1384 435142 856570
1385 383368 47122
1386 98548 62075
1387 274775 659995
1388 224642 843705
1389 303092 130270
1390 869635 821093
1391 204997 909483
1392 609867 37501
1393 328399 87351
1394 558366 997617
1395 186857 296219
1396 301982 676073
1397 936748 469730
1398 551239 644385
1399 282838 29084
1400 846416 704653
