NAME : portgen-500-503
COMMENT : portgen N=500, seed=503
TYPE : TSP
DIMENSION : 500
EDGE_WEIGHT_TYPE : EUC_2D
NODE_COORD_SECTION
1 774246 337793
2 746625 209000
3 933473 320072
4 977029 402070
5 887443 492408
6 393342 396746
7 328324 515173
8 243542 500160
9 430527 395572
10 173746 656498
11 237222 871891
12 84777 797330
13 354056 323342
14 855848 248852
15 378899 852409
16 954104 506335
17 257803 656816
18 762211 513326
19 774088 92284
20 834568 845493
21 339628 971133
22 991777 464893
23 478361 961001
24 591021 326321
25 824795 986764
26 78040 368329
27 699894 807166
28 660816 267910
29 79989 89809
30 446789 420147
31 545983 884744
32 567502 41950
33 152780 422209
34 404969 863430
35 36812 282540
36 909139 104206
37 570777 186981
38 578457 868892
39 171997 277610
40 136513 86146
41 243352 766039
42 802063 958751
43 306425 69359
44 938833 215852
45 504035 340001
46 108356 910657
47 55471 552027
48 936354 235421
49 400356 804795
50 886436 609468
51 789004 313410
52 189807 738649
53 743411 312000
54 566266 741142
55 500740 591456
56 329077 864137
57 585773 106787
58 311791 635325
59 829273 15474
60 105595 917359
61 21853 600174
62 976994 427343
63 493536 595728
64 914398 832128
65 443570 266456
66 302626 430854
67 776869 545056
68 757068 379215
69 180266 695276
70 646960 671100
71 240086 923358
72 110256 586676
73 318148 508182
74 933663 628127
75 58491 340625
76 321022 568227
77 361225 619979
78 306842 358149
79 536540 644750
80 981580 364196
81 131734 870989
82 94181 829640
83 351370 405718
84 753880 999097
85 788638 803608
86 701662 201145
87 956983 764970
88 596336 453625
89 238949 357014
90 120501 135386
91 59187 269648
92 850547 79374
93 134722 431636
94 336673 947228
95 193686 351350
96 625335 181169
97 906637 843352
98 969437 38941
99 966375 345286
100 990340 864523
101 269232 576649
102 507626 923104
103 281438 51374
104 717680 281851
105 485257 875206
106 21476 589311
107 451063 630230
108 738860 950565
109 964352 250829
110 860202 312429
111 439343 408593
112 8756 924115
113 534375 125013
114 693518 33878
115 483531 544962
116 735945 957098
117 871757 245295
118 113909 469875
119 818584 220317
120 340513 184156
121 467284 85843
122 87025 881257
123 912006 216742
124 172412 982522
125 308976 844424
126 345422 932497
127 861754 445378
128 128577 312134
129 704892 262331
130 809195 811562
131 232789 497362
132 941337 301101
133 407921 935632
134 502285 569806
135 718223 522118
136 778153 981830
137 941853 15778
138 967006 506846
139 546838 563378
140 795537 222241
141 420121 431186
142 224683 671969
143 312172 238582
144 15760 570655
145 837373 178277
146 967589 248778
147 502093 818395
148 406003 485454
149 143990 71247
150 914250 405160
151 669903 609033
152 186984 86734
153 424303 914235
154 707814 189785
155 133205 889995
156 296373 134236
157 424958 630917
158 843972 984011
159 995269 122941
160 895097 922467
161 791642 431038
162 655555 313062
163 852214 169119
164 794845 855118
165 591474 52771
166 799031 357053
167 430172 905542
168 925867 285884
169 6228 593765
170 827996 328161
171 243313 892818
172 675557 914905
173 386634 536551
174 593222 189030
175 966180 236884
176 690608 288871
177 479773 861479
178 606128 312850
179 178861 281442
180 160867 138418
181 908007 114049
182 361788 805044
183 646682 403554
184 458678 510053
185 244283 307420
186 390788 806238
187 156761 658213
188 231859 502770
189 951264 794076
190 706934 539364
191 990258 513403
192 694250 453055
193 144763 684982
194 995264 625128
195 258859 522312
196 827206 496174
197 349481 520575
198 937372 437074
199 736057 17344
200 683045 883863
201 585287 799146
202 482096 426816
203 246625 177204
204 594620 26717
205 716716 921146
206 317585 553732
207 22582 638554
208 311211 411832
209 764567 841212
210 867671 209607
211 667496 441334
212 827007 360419
213 722133 591642
214 324142 729944
215 411587 54655
216 908149 924547
217 77360 785787
218 221778 436525
219 490821 55696
220 141843 732930
221 920415 154051
222 757456 49251
223 854815 385872
224 669166 989061
225 798441 345730
226 112932 6113
227 605756 628390
228 975713 660740
229 721785 696308
230 205038 810100
231 686382 538924
232 884873 983785
233 730 163534
234 796275 973330
235 783738 925339
236 742665 775505
237 42770 521941
238 96675 661383
239 835577 198617
240 384706 61393
241 869856 627833
242 524905 601487
243 368272 369225
244 39673 93574
245 785057 58243
246 640249 517491
247 271957 216504
248 990264 144909
249 111280 235515
250 952576 193432
251 550294 470549
252 604355 737048
253 475873 485098
254 481207 4268
255 260117 606488
256 621066 628211
257 911251 146794
258 169850 168891
259 266967 668369
260 993520 855820
261 52253 560760
262 20754 590306
263 375044 272116
264 171149 305722
265 46068 611576
266 180175 831309
267 938499 778217
268 440326 241645
269 716582 378111
270 431637 199380
271 102257 371303
272 100054 929236
273 5990 79489
274 496736 681650
275 841459 718148
276 973759 805557
277 189447 340999
278 13256 718985
279 532049 826138
280 296721 234227
281 768516 103096
282 572631 60737
283 504230 249763
284 528156 982014
285 140803 90361
286 672154 585316
287 826909 275371
288 882060 246695
289 371313 679754
290 577049 656059
291 740066 345011
292 9001 811840
293 843060 77079
294 258678 877762
295 273986 190563
296 713489 734567
297 237307 341275
298 527225 516941
299 544393 824682
300 47175 759294
301 708176 816981
302 104601 185400
303 978081 628748
304 796556 377606
305 497939 936177
306 460307 654287
307 552151 106157
308 520738 33949
309 865788 231355
310 533511 987289
311 705369 703473
312 934839 381509
313 382184 855172
314 480715 641509
315 297289 253312
316 450139 993706
317 181815 640872
318 195752 85779
319 792860 902844
320 291102 809111
321 211290 27322
322 344251 286697
323 485194 10015
324 799728 855798
325 959091 672053
326 36225 902884
327 527392 793862
328 309155 714469
329 635165 463728
330 989648 892302
331 835887 893711
332 86503 688827
333 724886 432984
334 310035 265453
335 620963 510722
336 234221 9990
337 272264 861458
338 951063 802485
339 176080 140976
340 72353 667715
341 220007 16986
342 651861 404987
343 417425 556427
344 907203 492988
345 915985 762767
346 775743 527406
347 281880 780379
348 574890 201300
349 755058 482793
350 335634 682708
351 833935 658751
352 783445 291375
353 452046 19239
354 251022 122405
355 376437 752728
356 807266 142177
357 547742 226880
358 116558 308480
359 611831 306124
360 113937 523586
361 677926 827242
362 929819 938254
363 676787 575469
364 226545 980889
365 409412 931824
366 551462 53675
367 764538 319625
368 860449 77829
369 469243 424980
370 288429 108944
371 944596 601079
372 379050 392399
373 84841 948500
374 597587 343625
375 103592 999420
376 974754 774169
377 73380 403809
378 131245 780259
379 894212 463819
380 430925 374216
381 549995 826041
382 833976 267492
383 808131 206187
384 763127 155343
385 142039 168057
386 710893 268205
387 202531 114517
388 548831 903757
389 753861 526009
390 807008 896527
391 681256 762725
392 549963 35195
393 381828 725420
394 219699 497046
395 511493 654262
396 314701 313900
397 282941 120371
398 398051 676391
399 398547 264532
400 843568 181083
401 194639 71577
402 536617 207064
403 318164 212029
404 224205 38185
405 21981 405825
406 560560 397166
407 952326 776663
408 59515 236094
409 543100 713604
410 869441 131740
411 807639 498594
412 311774 960955
413 973418 639316
414 731588 995466
415 796352 336802
416 679551 715676
417 504028 401183
418 335967 284089
419 810399 773299
420 975679 145734
421 182320 506094
422 627604 379752
423 846622 816106
424 2125 321985
425 146952 758734
426 944803 403080
427 468179 506765
428 501532 478963
429 567548 135433
430 871097 34074
431 401629 450906
432 62506 876246
433 223505 54466
434 769562 572573
435 930040 243409
436 233968 221115
437 566652 110706
438 186937 404558
439 30414 805009
440 459423 494455
441 71767 596154
442 124368 762278
443 935172 228645
444 653169 627781
445 177678 281501
446 514527 237825
447 843259 732270
448 911765 961205
449 939441 516897
450 192815 442064
451 785691 197116
452 862562 652496
453 686966 348648
454 278711 705901
455 571593 272887
456 825793 939766
457 957754 589596
458 519547 163804
459 607646 330235
460 964481 262300
461 115024 252665
462 379757 487976
463 457717 36851
464 358553 914155
465 423740 838288
466 125846 324513
467 233415 186536
468 668662 132001
469 638400 534772
470 242730 771368
471 620998 322933
472 663300 915378
473 166476 261861
474 858067 355283
475 274552 874913
476 602652 25286
477 93157 354527
478 316217 461178
479 963700 676025
480 983834 554965
481 710248 743939
482 463170 800225
483 651888 502859
484 276466 42376
485 423119 257685
486 305736 252363
487 55683 89567
488 659648 89737
489 159507 25230
490 171758 996539
491 73150 682527
492 930321 868774
493 128040 381907
494 861342 433190
495 534647 165803
496 855535 596024
497 111652 985045
498 465631 368634
499 267250 573732
500 255730 76739
