NAME : portgen-300-309
COMMENT : portgen N=300, seed=309
TYPE : TSP
DIMENSION : 300
EDGE_WEIGHT_TYPE : EUC_2D
NODE_COORD_SECTION
1 894965 311858
2 245412 366943
3 283756 260852
4 727490 230348
5 982592 464674
6 890605 875247
7 807232 748035
8 442900 239676
9 809334 785553
10 781491 782416
11 44622 423501
12 476579 596806
13 388833 681949
14 874044 906185
15 516126 630729
16 233346 516641
17 418353 493655
18 286371 668475
19 122168 13953
20 562383 960778
21 115561 9567
22 552652 679855
23 467742 720894
24 16044 930688
25 851467 659244
26 710770 779970
27 745022 922778
28 393309 378324
29 893505 751756
30 80571 615281
31 138684 713537
32 667965 21814
33 349112 881037
34 322595 127376
35 280293 722005
36 223631 878646
37 934085 122247
38 71646 264651
39 678478 553801
40 203496 10509
41 788444 122287
42 825614 900845
43 492045 519809
44 848675 396538
45 144543 405333
46 345879 994791
47 733660 840377
48 737146 236915
49 75481 430404
50 608209 203090
51 42416 462243
52 727191 840958
53 870799 588483
54 954356 844177
55 430732 873499
56 529648 496966
57 607213 675237
58 269401 143892
59 979876 827587
60 284667 112196
61 805556 892190
62 519167 77203
63 679589 761387
64 151455 93127
65 251447 483162
66 310295 834301
67 123068 329997
68 480860 291477
69 515074 150376
70 631444 348153
71 539932 21087
72 111870 32346
73 599777 453689
74 475623 656457
75 160787 975759
76 85460 982353
77 178957 125046
78 892795 208115
79 339175 397194
80 360097 579322
81 73409 803979
82 212732 82579
83 333566 508560
84 385096 574866
85 75460 815711
86 668268 323419
87 666799 308908
88 26736 823202
89 713232 394121
90 184407 471474
91 422211 754260
92 733029 672124
93 409753 506315
94 621568 40488
95 996430 972300
96 906381 940207
97 74916 815732
98 679884 216512
99 354288 802962
100 5610 776574
101 740456 81502
102 472049 689313
103 553547 331199
104 249324 506832
105 715292 386480
106 586546 298687
107 400763 387797
108 672941 133202
109 729063 396999
110 402695 117053
111 154272 582133
112 569256 298885
113 75255 586766
114 851370 977486
115 755360 695536
116 573878 206400
117 678828 797927
118 884928 123524
119 353497 345232
120 999183 276551
121 777251 224569
122 637793 879376
123 818027 324247
124 370950 776030
125 740477 93118
126 365142 376801
127 47601 310074
128 202695 534056
129 402673 674121
130 804385 430022
131 977702 904092
132 507649 438741
133 609228 361977
134 660893 521387
135 569769 348693
136 762251 953033
137 656521 309576
138 751911 777470
139 534532 259182
140 96189 541198
141 184092 177248
142 173101 325337
143 717834 669786
144 698751 240087
145 188698 522951
146 462630 832109
147 775462 650489
148 514300 824218
149 568047 328216
150 127464 40556
151 789715 111768
152 679840 199279
153 909026 187893
154 203700 722263
155 592239 532909
156 835305 162586
157 485423 281434
158 967392 145592
159 128630 857159
160 924441 785010
161 793929 332677
162 393922 529213
163 558978 650482
164 273192 457242
165 400550 564018
166 573770 812268
167 666942 563280
168 705893 21505
169 691825 891667
170 357945 572242
171 541156 841591
172 315645 403688
173 729021 129953
174 438187 246248
175 91510 863817
176 551026 110804
177 927666 563446
178 466786 977446
179 444826 116560
180 493385 887520
181 496067 312033
182 364317 19997
183 991753 993713
184 846940 81734
185 552412 837438
186 707405 882381
187 765648 60623
188 233983 683124
189 405010 830476
190 62427 581532
191 205656 156632
192 963857 513029
193 67950 261737
194 447950 646944
195 571527 712180
196 174564 610091
197 339254 520507
198 864836 658775
199 75942 255022
200 169704 45897
201 724943 607710
202 183821 509978
203 658161 394393
204 146947 414636
205 495495 205048
206 529495 797881
207 545032 781205
208 712955 885976
209 972778 843810
210 155160 332977
211 917771 591918
212 912029 506515
213 112495 99694
214 698559 255670
215 402461 839590
216 536176 990374
217 334981 857378
218 52037 407774
219 611599 182651
220 800073 181974
221 288959 604140
222 491783 238549
223 794408 582646
224 698061 832739
225 408012 765142
226 960215 820271
227 852560 330114
228 509720 734568
229 272728 326443
230 457940 250387
231 782794 964296
232 614562 313520
233 916089 925354
234 306097 306483
235 986796 130309
236 187914 140038
237 435797 390018
238 372762 97499
239 739357 581915
240 996794 377926
241 826966 372116
242 797730 152074
243 56796 571880
244 375811 21461
245 941289 126682
246 101676 305116
247 195855 669764
248 994060 148920
249 168343 101765
250 865787 696909
251 843289 116146
252 835945 30086
253 938175 588099
254 22541 700486
255 273318 937840
256 358757 251267
257 385153 331257
258 148710 477677
259 768441 944798
260 319459 767168
261 757010 204332
262 440696 289887
263 287019 71767
264 304092 405711
265 451842 784662
266 74958 38870
267 308596 58953
268 19169 575698
269 986962 466472
270 3364 579118
271 803439 431013
272 702001 174120
273 369672 897344
274 864419 905967
275 382744 922292
276 844828 762632
277 649922 81124
278 621951 804418
279 807549 776991
280 10916 362477
281 601137 556069
282 697122 694200
283 134401 927743
284 549266 211032
285 961585 251365
286 613258 862473
287 562053 397166
288 922340 994378
289 554410 359571
290 667935 482601
291 264217 527101
292 394794 89365
293 183525 518888
294 341748 614396
295 924552 91425
296 26432 775929
297 504886 751998
298 965860 940965
299 868959 304834
300 251780 375293
