NAME : portgen-200-202
COMMENT : portgen N=200, seed=202
TYPE : TSP
DIMENSION : 200
EDGE_WEIGHT_TYPE : EUC_2D
NODE_COORD_SECTION
1 482166 550131
2 602990 794262
3 435716 846746
4 646559 403677
5 411360 201954
6 371053 541224
7 628072 989872
8 532237 827965
9 920326 923326
10 704319 903413
11 247673 614337
12 553501 481052
13 160591 838500
14 95420 634714
15 91813 956917
16 438908 213046
17 496594 264489
18 240419 707655
19 623428 805802
20 206074 550136
21 378577 695713
22 547567 530375
23 972194 748258
24 595825 831034
25 855869 643549
26 570060 259587
27 409088 22626
28 972570 269119
29 53537 338501
30 553843 728060
31 223317 840757
32 197602 861224
33 823377 675340
34 993656 97697
35 17677 783978
36 232139 89291
37 67457 60770
38 333353 988085
39 205249 530875
40 508482 891472
41 784963 756919
42 80871 363753
43 733599 598150
44 15444 635370
45 441111 565078
46 713998 525731
47 788124 422096
48 317996 289285
49 628256 486797
50 197021 984108
51 543009 64950
52 322552 964397
53 858586 813141
54 178715 45335
55 289027 374420
56 253674 418166
57 897389 988764
58 14062 697586
59 52632 775506
60 543228 534091
61 47083 506859
62 900675 33568
63 240969 167188
64 766738 103059
65 202183 520212
66 809370 159913
67 241847 134062
68 637797 366796
69 859529 92107
70 349690 36012
71 545518 239938
72 92142 907020
73 517995 207139
74 625055 754556
75 181126 150807
76 522547 525196
77 284614 676809
78 174738 383095
79 823103 188490
80 326599 491789
81 953611 86608
82 695644 253015
83 828901 13736
84 326024 990368
85 470769 806922
86 72531 298076
87 594379 392420
88 11544 521887
89 222245 223865
90 858830 857873
91 344085 578248
92 776460 710394
93 566600 722761
94 464268 988832
95 305160 624061
96 40772 869161
97 621338 542767
98 963481 247441
99 645559 699721
100 895476 996107
101 984894 401189
102 895725 323253
103 806721 944299
104 748736 574219
105 110209 451976
106 918826 834270
107 883330 702538
108 451016 84450
109 465270 152876
110 289533 581460
111 368176 626303
112 94892 474661
113 822028 671341
114 402350 271126
115 585699 67245
116 773151 648025
117 113656 406853
118 939046 509815
119 694918 73922
120 259377 482150
121 257491 311392
122 699299 723699
123 255884 414469
124 774268 146676
125 720739 292140
126 845090 374433
127 114022 828230
128 222956 336868
129 287533 488872
130 384206 296905
131 249380 674813
132 314841 628058
133 194485 607434
134 134971 159630
135 446653 36547
136 310181 318593
137 432137 997393
138 736369 993743
139 512280 266661
140 251704 485159
141 383808 913478
142 886919 288793
143 817864 98337
144 333183 485598
145 212368 331611
146 374844 535287
147 627268 222830
148 171969 938897
149 879254 701905
150 987329 262141
151 902188 507607
152 894972 235579
153 908331 931611
154 487513 825228
155 10366 124619
156 3684 801934
157 276503 52594
158 922061 714093
159 47545 92011
160 456089 255587
161 728180 433065
162 172300 184512
163 134359 802574
164 423620 196558
165 89061 804758
166 506229 687052
167 256294 127084
168 481475 581873
169 636974 834324
170 366732 103770
171 50791 241172
172 29508 956780
173 603431 941778
174 362987 442755
175 88470 369394
176 515277 682695
177 612844 182571
178 755911 215135
179 251312 767888
180 754104 326458
181 294636 653189
182 458496 906595
183 73828 762512
184 772425 319723
185 449163 980282
186 351106 604789
187 3540 86694
188 740310 45484
189 820221 989728
190 428601 919223
191 551262 655732
192 442454 762603
193 510121 853040
194 228556 349699
195 53256 718962
196 809447 317251
197 385160 386449
198 752664 446001
199 237631 942814
200 216470 557946
