NAME : portcgen-1500-1501
COMMENT : portcgen N=1500, seed=1501
TYPE : TSP
DIMENSION : 1500
EDGE_WEIGHT_TYPE : EUC_2D
NODE_COORD_SECTION
1 247120 404954
2 479571 164811
3 258974 962236
4 379847 976127
5 332769 69214
6 187532 836237
7 438624 192108
8 1010563 606957
9 237288 877480
10 67412 631179
11 1000248 749022
12 733878 878586
13 226936 383846
14 1023365 568626
15 903475 450196
16 344012 947657
17 227238 422392
18 940212 695441
19 927267 385700
20 115771 635240
21 893801 590156
22 956457 697618
23 168047 643400
24 912030 370529
25 257441 371711
26 655137 885363
27 349861 943152
28 914933 371579
29 886791 617380
30 672815 885592
31 920740 710263
32 302474 960445
33 638035 101976
34 363138 82607
35 322922 959290
36 258140 1026925
37 340318 13625
38 292749 968978
39 509685 228189
40 900940 594026
41 281869 958243
42 623932 856334
43 386494 935572
44 212647 853325
45 277158 415961
46 298730 417605
47 288457 889913
48 239053 841258
49 931252 420967
50 654631 895120
51 998891 714749
52 930314 612296
53 935209 395725
54 689601 859055
55 242942 426159
56 392539 10457
57 401506 89896
58 865151 571177
59 634088 168762
60 235849 440249
61 307661 978138
62 941978 773478
63 257998 1001866
64 48075 706269
65 875515 572579
66 951085 763119
67 242378 458624
68 186541 658771
69 693765 143378
70 271580 1032420
71 921813 559642
72 254765 937270
73 308492 943925
74 369168 968478
75 867600 436495
76 635977 899516
77 1002356 605319
78 978904 775551
79 946858 758882
80 939199 615152
81 316545 13532
82 143591 618110
83 40354 617444
84 946175 668397
85 326802 934955
86 188836 824983
87 692088 886591
88 44498 638188
89 345533 32839
90 990792 564303
91 957888 748016
92 50827 661861
93 671799 202457
94 331478 940260
95 349958 921257
96 245619 422693
97 201870 887491
98 943563 603348
99 944798 609404
100 906849 408345
101 91851 629296
102 917833 536409
103 350908 964220
104 918613 718593
105 273696 982914
106 490035 194477
107 458912 173920
108 302571 1013672
109 314004 897477
110 956436 639476
111 182004 635555
112 373296 67298
113 662733 159398
114 655779 147687
115 275745 430464
116 916289 583837
117 494685 201006
118 312726 909024
119 873403 526882
120 278362 980531
121 365801 47455
122 643303 845447
123 941236 653514
124 836679 519455
125 916828 726980
126 952941 431436
127 278526 920016
128 859791 538206
129 450623 213423
130 419475 125809
131 908276 348873
132 951282 733487
133 191390 814540
134 111338 650563
135 476921 173906
136 252552 891199
137 896416 681166
138 298466 1020643
139 899910 537136
140 985851 741704
141 488435 174726
142 518187 178032
143 896923 544503
144 382619 57633
145 932267 378061
146 685183 869030
147 409968 27294
148 329737 991591
149 904974 406923
150 209279 653226
151 228886 847598
152 475070 166484
153 164016 904033
154 272692 1044916
155 227801 861471
156 881867 409458
157 347920 41509
158 264985 444025
159 201440 886299
160 226537 1011026
161 287761 971605
162 940013 716970
163 651296 887707
164 905911 568870
165 945670 592054
166 646293 900016
167 73394 637783
168 479736 144949
169 854162 405265
170 380747 14929
171 982608 590511
172 288246 933059
173 670230 101108
174 267738 991737
175 903818 716660
176 646715 155531
177 401919 76797
178 987371 586390
179 982958 551052
180 182558 588164
181 956033 549250
182 396181 908695
183 622537 910077
184 343354 65923
185 198769 416299
186 325205 935781
187 347736 911058
188 352907 75474
189 644941 905450
190 306026 938399
191 335587 930369
192 873486 407621
193 241740 1040813
194 608659 881624
195 376170 42248
196 300567 938567
197 975778 730938
198 347364 939838
199 888655 562385
200 677945 166442
201 937634 400749
202 668592 899040
203 298560 908337
204 219626 418546
205 519023 183649
206 292204 896144
207 257980 1035960
208 356282 923163
209 953199 619325
210 132191 618430
211 81574 646479
212 51579 691457
213 244341 415908
214 353353 50242
215 269154 938585
216 72751 605590
217 873104 373528
218 942033 601605
219 738389 122548
220 498001 211962
221 314230 982951
222 891456 384885
223 115024 638565
224 316329 882825
225 491967 196563
226 202201 845485
227 674562 157886
228 349966 953296
229 927486 710893
230 923752 713480
231 239055 891536
232 926449 423934
233 924816 565453
234 226444 866319
235 388224 27099
236 975835 624489
237 275096 915174
238 965504 579239
239 904964 541638
240 484511 156349
241 1000022 615125
242 866183 421752
243 295392 954957
244 342533 967216
245 197425 824581
246 682076 156933
247 307706 916537
248 239205 1024126
249 175735 675134
250 967937 588813
251 929912 611325
252 651199 134751
253 969926 580525
254 880063 405698
255 951924 632578
256 253880 350784
257 371656 25108
258 388683 32226
259 340559 935076
260 224926 832201
261 273395 837373
262 933596 550254
263 179334 608258
264 930692 654976
265 150314 646428
266 57602 649922
267 272719 349763
268 519964 207836
269 678927 95540
270 281390 379516
271 944957 700540
272 456912 202448
273 274424 429822
274 190713 856957
275 942696 584275
276 256908 406894
277 40977 643343
278 674255 142360
279 889047 710396
280 245237 934371
281 628868 864473
282 687482 155372
283 611548 891666
284 998102 582045
285 109191 617440
286 254422 988076
287 190294 839791
288 469782 223541
289 672675 144852
290 228176 420702
291 680098 876936
292 244674 379896
293 665637 860466
294 394327 56732
295 960574 760789
296 372157 -47
297 355620 54846
298 506100 154417
299 943675 611508
300 965369 602028
301 377915 42422
302 947798 703499
303 676479 883049
304 162844 598891
305 928730 719594
306 301593 391906
307 980486 705495
308 885503 577948
309 883946 363441
310 388124 6231
311 888508 559990
312 1001999 612732
313 933040 386132
314 407349 39485
315 294270 975193
316 972030 712708
317 930839 701672
318 370865 971867
319 943507 387179
320 277288 412799
321 847791 630083
322 246261 997610
323 242812 409405
324 933553 619101
325 269642 418208
326 633169 137347
327 366725 921742
328 925409 406177
329 287012 954839
330 203304 875638
331 358644 39157
332 920595 371542
333 689796 125969
334 237811 426961
335 725525 173183
336 876676 555549
337 44689 629129
338 676389 132881
339 953104 659104
340 314084 968429
341 139833 651202
342 930913 719023
343 934198 607679
344 485375 169501
345 290322 986879
346 652609 132631
347 96977 609049
348 925279 757160
349 922565 695150
350 397259 35780
351 331825 928548
352 295715 921633
353 48062 634856
354 285017 438125
355 891943 424744
356 232446 981333
357 366498 34203
358 374972 49142
359 470910 197089
360 634130 105745
361 924869 414295
362 922667 446921
363 483523 191920
364 263907 923280
365 106476 632408
366 848743 394810
367 306053 59582
368 221794 803839
369 883684 588282
370 49767 654594
371 265985 1017364
372 933537 388330
373 935664 403807
374 743888 116431
375 340394 55029
376 910381 703944
377 952564 376735
378 959722 707212
379 251321 414005
380 882804 553503
381 266509 431989
382 87718 647836
383 616821 902732
384 163818 611116
385 123326 657458
386 279431 959821
387 498790 205960
388 695860 109141
389 886681 376390
390 920321 589453
391 232314 961250
392 891626 742237
393 888597 407878
394 275579 974774
395 80401 642308
396 840395 410347
397 955218 641025
398 260702 420694
399 35004 613887
400 266655 957977
401 885164 568859
402 927621 419593
403 394695 923418
404 984097 601828
405 356533 981573
406 906434 521415
407 866073 530637
408 282724 397563
409 940241 673118
410 231240 428796
411 236557 894218
412 85709 646914
413 950960 620011
414 193587 820139
415 742144 103826
416 696861 906018
417 487978 206106
418 279447 998282
419 671209 152779
420 452550 191920
421 966563 619456
422 217756 885398
423 229922 985042
424 88734 675094
425 341140 971630
426 295955 913232
427 119011 651408
428 971117 623976
429 399293 41837
430 172310 879255
431 173945 858815
432 147152 648522
433 196658 849234
434 247846 446579
435 668154 935747
436 917764 553537
437 656189 837789
438 370802 986151
439 279448 979193
440 713188 883245
441 679309 171635
442 29696 629517
443 305362 948296
444 906772 626189
445 146254 659782
446 171445 629140
447 205540 878375
448 280917 392163
449 464801 262556
450 282893 1035404
451 598265 935164
452 355657 974209
453 910867 381422
454 914377 609298
455 101866 635502
456 865366 578042
457 385528 961177
458 220376 445115
459 387707 920990
460 222759 852719
461 414349 215525
462 956248 638805
463 249969 979666
464 931940 397892
465 634463 881563
466 125696 612360
467 330639 955304
468 363161 67417
469 905910 611438
470 250325 420116
471 970508 721582
472 476180 135589
473 467646 196684
474 919478 740706
475 165262 660857
476 397010 84817
477 613024 854894
478 370784 938152
479 503247 209427
480 420426 36278
481 113653 618864
482 239426 400240
483 279534 916428
484 283386 996604
485 668969 134017
486 919367 631443
487 179321 914241
488 193127 641496
489 945218 723547
490 477187 241027
491 242776 323654
492 962575 586877
493 400972 923426
494 449438 153487
495 648882 883467
496 494320 207564
497 308672 955427
498 899748 556281
499 94921 665877
500 688094 102984
501 440696 212203
502 950696 705557
503 293099 407925
504 293101 383044
505 165127 678934
506 262824 1031410
507 911635 561216
508 291664 980232
509 489153 163469
510 673048 128790
511 711041 157093
512 389163 34142
513 914201 377643
514 273657 371446
515 250472 908930
516 259323 951179
517 186887 862944
518 46085 663814
519 164665 664128
520 383213 77375
521 372162 53625
522 313031 11611
523 213209 887118
524 955957 634387
525 49737 634120
526 254577 1010908
527 382549 54964
528 889797 570731
529 860572 535674
530 446126 209234
531 371689 930042
532 343462 964408
533 103361 612237
534 870422 441985
535 945512 641636
536 355800 76613
537 916076 620191
538 965939 620912
539 938435 735284
540 913365 741970
541 322596 933557
542 940974 571104
543 904514 417440
544 456140 171937
545 28551 613863
546 942391 712867
547 978246 684255
548 471681 211602
549 36630 623431
550 288140 916697
551 907779 569094
552 125001 710633
553 246832 388244
554 366867 52958
555 256036 992076
556 653638 115268
557 962681 634638
558 434106 166270
559 251841 428721
560 641416 134453
561 911818 699380
562 663715 892560
563 693423 891794
564 295610 441912
565 240003 1022429
566 690293 177419
567 906493 553129
568 710207 146918
569 277356 1012364
570 219150 836943
571 36926 636797
572 478737 204641
573 701595 161083
574 979998 740314
575 668264 149654
576 962339 580226
577 886983 409246
578 179554 857431
579 281773 1046300
580 167582 641487
581 346583 45227
582 501581 199476
583 56625 615284
584 887805 410432
585 264150 1010316
586 73605 632539
587 856104 444600
588 874993 463560
589 902778 741738
590 642085 872974
591 674680 838363
592 895524 402062
593 313563 417989
594 933163 719920
595 502466 185189
596 896967 569269
597 340674 904068
598 458486 221569
599 679578 90339
600 295151 997132
601 168935 659980
602 703856 148077
603 714431 92834
604 42371 621692
605 235640 413896
606 262355 939699
607 363178 957062
608 290792 957036
609 957363 758833
610 246869 820248
611 976655 578737
612 901980 391613
613 662981 143507
614 706808 167345
615 311526 123366
616 221766 872477
617 255530 416262
618 263750 979705
619 933371 549423
620 394513 947027
621 374623 919547
622 381083 995086
623 359567 972881
624 392762 926545
625 310803 987142
626 295527 936242
627 279053 1007060
628 291420 1019218
629 989084 560742
630 266164 410179
631 269851 382421
632 164380 890865
633 902985 708440
634 257665 380630
635 908739 534213
636 932280 758273
637 204928 649741
638 211304 810382
639 663009 119554
640 663741 887148
641 947647 396740
642 506697 134035
643 179788 847139
644 929207 426105
645 892559 546124
646 365103 65963
647 241969 852537
648 642931 896640
649 390038 60472
650 909221 539402
651 36517 633917
652 923503 387847
653 260953 400447
654 335353 59821
655 896725 565827
656 39920 631786
657 275279 942290
658 245296 403590
659 358816 934226
660 310583 917661
661 903693 534410
662 291826 960157
663 183150 878947
664 871431 529790
665 256199 1031893
666 291794 947620
667 902726 596894
668 144640 676960
669 388906 22533
670 912347 554322
671 151189 649256
672 906908 421429
673 324945 934198
674 948871 543916
675 506004 208307
676 930885 346517
677 930980 421804
678 702814 136627
679 378712 970087
680 359527 960891
681 297007 941526
682 941365 371398
683 142098 639019
684 162881 650313
685 354595 964633
686 635532 910720
687 299558 959686
688 929539 568114
689 260892 442768
690 441127 169684
691 236296 998553
692 913487 590470
693 308360 990021
694 924476 595451
695 267093 976846
696 247125 406649
697 263714 925066
698 974708 607134
699 204023 900286
700 90964 619145
701 288003 924233
702 127717 644019
703 272685 424519
704 198299 1005529
705 957928 746843
706 51292 672908
707 913726 699496
708 907408 394056
709 906979 386243
710 349755 947323
711 374983 998493
712 684944 143143
713 144900 681159
714 944338 540493
715 961644 571480
716 647929 877808
717 297252 879150
718 157370 600941
719 401235 930847
720 643494 113524
721 492801 184717
722 259068 1012547
723 370435 36178
724 720939 179049
725 319218 959547
726 452448 153575
727 251988 362721
728 243055 415389
729 369263 6026
730 951673 603511
731 201892 877510
732 499803 164382
733 904542 547716
734 667862 121613
735 245228 407079
736 609693 939597
737 882015 431831
738 249976 403746
739 406721 951003
740 57127 660994
741 364983 88853
742 342046 26054
743 339532 955517
744 277112 1005283
745 448475 189106
746 651697 885960
747 929716 521729
748 647170 931640
749 943604 718950
750 105893 580063
751 158533 682785
752 183786 833640
753 519199 205681
754 838096 552362
755 665734 921983
756 223361 349975
757 905525 422311
758 305303 921986
759 868635 565450
760 66080 680750
761 429482 178197
762 303021 407064
763 276745 412289
764 207864 867951
765 269752 349209
766 345222 882352
767 213948 872734
768 339855 916812
769 970938 564182
770 419674 -26
771 853816 612688
772 979245 581989
773 289127 395524
774 693468 116861
775 313881 935216
776 233906 842815
777 387243 914687
778 336548 964628
779 466999 197207
780 69317 663295
781 844744 558332
782 314148 59172
783 352930 952879
784 223091 1002594
785 956507 734328
786 246533 975998
787 360597 18761
788 318209 936252
789 271546 922557
790 697340 182247
791 399606 64693
792 224948 384024
793 178607 978889
794 471868 129862
795 305352 380687
796 999680 609473
797 260420 838850
798 198850 861288
799 924255 420119
800 470366 189095
801 354520 73541
802 493148 167617
803 366209 916999
804 509049 154498
805 304492 921717
806 188671 871791
807 388397 44981
808 969699 706929
809 264811 998061
810 960311 602405
811 430550 203961
812 257965 454472
813 325042 946683
814 938804 758533
815 268444 946465
816 358270 984898
817 955874 782322
818 276625 986142
819 269842 403653
820 92390 610819
821 311662 934808
822 895399 405783
823 352212 951256
824 212694 864847
825 332572 936090
826 231131 420542
827 341966 22296
828 305359 942902
829 366950 926609
830 304961 371962
831 244264 395947
832 232720 987513
833 216891 978179
834 933720 581979
835 244956 372995
836 253138 392068
837 919398 566483
838 362846 46532
839 652109 877214
840 330243 942870
841 372403 943777
842 918005 438184
843 452626 181337
844 927410 618313
845 328381 970553
846 212565 382586
847 889252 555876
848 851794 571335
849 500112 238392
850 350237 9240
851 971756 567397
852 23084 655311
853 138219 627778
854 401142 950611
855 371271 1005050
856 361676 117151
857 462174 234932
858 881422 622269
859 146500 918347
860 939260 705077
861 960845 616847
862 904163 433770
863 112251 667503
864 467191 250726
865 175985 863682
866 355601 960997
867 634000 879732
868 252252 873180
869 162704 636478
870 466709 180918
871 853968 621811
872 935788 583367
873 604933 869874
874 917990 388552
875 454525 215115
876 252583 976790
877 171871 650817
878 342219 22671
879 398952 996490
880 657206 145991
881 925965 533430
882 181529 660032
883 879232 367821
884 176340 614817
885 220468 1001738
886 195958 616882
887 669137 124490
888 691605 151987
889 459925 157572
890 306890 42132
891 282775 988018
892 93942 647923
893 885386 539684
894 284852 915525
895 385802 32941
896 372185 964983
897 949536 397828
898 632716 914308
899 965522 716624
900 205482 906051
901 138692 620185
902 947053 602392
903 268374 931375
904 647840 854809
905 929321 715473
906 869186 405364
907 239247 420087
908 701673 104502
909 649350 90374
910 514222 237188
911 659085 117839
912 953790 594332
913 683846 192246
914 238997 390158
915 108639 668275
916 454811 167497
917 335804 41903
918 675507 872399
919 896505 600487
920 504274 234342
921 904106 407428
922 926584 700421
923 472883 220449
924 403832 40642
925 887301 617804
926 56240 623607
927 451314 202473
928 859173 555331
929 345527 9008
930 273994 940330
931 1147 564312
932 946411 613473
933 926215 433472
934 214978 867211
935 104617 629692
936 126110 652189
937 363277 930166
938 247486 441529
939 253579 428001
940 46875 613677
941 887603 564283
942 285449 928934
943 670852 123650
944 382682 91402
945 464634 195329
946 353713 79017
947 945453 700887
948 974774 675221
949 394451 1017663
950 383262 60294
951 69458 616896
952 325173 1000112
953 132439 609478
954 252704 1011329
955 296939 435632
956 520253 152230
957 933776 760828
958 64839 645412
959 910332 755587
960 302779 916258
961 879443 611808
962 914765 581365
963 284658 953030
964 412087 25871
965 332910 942302
966 982009 626964
967 951052 587124
968 892377 429366
969 472269 225762
970 988978 593512
971 262407 406055
972 967417 574416
973 950587 596588
974 983785 601373
975 392044 946522
976 651305 158610
977 847548 558133
978 186030 870605
979 162342 608318
980 176207 832398
981 378869 16730
982 244649 961135
983 409241 24513
984 43228 688919
985 362232 992430
986 925361 543988
987 335177 11922
988 302905 957372
989 330250 410999
990 162623 660797
991 915830 749476
992 980261 732257
993 445890 192719
994 182493 896063
995 923530 702633
996 847890 537243
997 50236 629135
998 615650 893366
999 149858 628692
1000 346726 968918
1001 899178 401051
1002 867806 601465
1003 669166 183443
1004 916009 401755
1005 684989 120049
1006 10484 628496
1007 663573 154223
1008 236001 842249
1009 376306 921222
1010 655810 903835
1011 886446 567720
1012 58954 583617
1013 636407 873678
1014 199971 886587
1015 172370 637237
1016 355837 71471
1017 251691 406594
1018 235764 823988
1019 1007740 562864
1020 258438 391371
1021 335409 974918
1022 271300 1001471
1023 236180 1013165
1024 45877 617605
1025 283475 948524
1026 924016 373557
1027 484968 175055
1028 261955 1028349
1029 417531 31059
1030 201117 1008903
1031 974181 574564
1032 888617 549207
1033 472079 205944
1034 273991 999055
1035 656191 867247
1036 197261 638829
1037 283741 923111
1038 906076 626169
1039 620783 858997
1040 890909 734938
1041 953044 601569
1042 266886 1020044
1043 220396 1003477
1044 288174 977838
1045 402285 54307
1046 891812 552733
1047 363383 981490
1048 48510 685850
1049 672158 856991
1050 883506 557587
1051 249353 1048746
1052 875146 360066
1053 466333 200754
1054 922403 555646
1055 42097 655019
1056 901422 616364
1057 266150 422310
1058 376317 910953
1059 229088 406093
1060 469422 218012
1061 189158 879610
1062 650859 109450
1063 275904 948969
1064 701473 129889
1065 348873 950280
1066 906816 619685
1067 988007 622540
1068 897397 599860
1069 677129 894176
1070 367139 1010125
1071 341603 -11853
1072 372580 37881
1073 919841 571599
1074 278669 990144
1075 392558 963958
1076 975956 767004
1077 894619 744601
1078 638537 898779
1079 673644 170538
1080 944724 683953
1081 175724 868993
1082 999155 607936
1083 20292 629629
1084 877575 686274
1085 904378 741706
1086 313974 970816
1087 831825 587522
1088 635449 914680
1089 937650 757059
1090 947921 743734
1091 276457 411385
1092 865699 395837
1093 944760 732117
1094 284730 1025834
1095 324723 987631
1096 184146 866842
1097 694593 915464
1098 155704 598461
1099 172466 642792
1100 487144 221698
1101 938366 361639
1102 941620 408973
1103 125482 659188
1104 942627 718478
1105 442494 167333
1106 900234 564373
1107 934819 761685
1108 878899 400493
1109 289237 923069
1110 942858 708313
1111 473261 219749
1112 985443 610847
1113 964901 778839
1114 926841 703168
1115 193643 896326
1116 81424 617992
1117 337449 405793
1118 694408 132813
1119 371339 27259
1120 886226 377315
1121 298861 415664
1122 43643 627807
1123 118182 616514
1124 75582 681827
1125 953818 408355
1126 924260 717737
1127 26282 660765
1128 321748 933243
1129 246526 985820
1130 325818 1017151
1131 280735 999816
1132 336632 31301
1133 368527 962790
1134 662690 890906
1135 295702 880877
1136 375577 13175
1137 431169 224772
1138 942165 571646
1139 43375 658526
1140 306585 971505
1141 286304 987852
1142 894925 373365
1143 146640 667347
1144 241246 960573
1145 881303 602378
1146 976140 605159
1147 128564 644544
1148 869031 541477
1149 43983 639260
1150 894114 608907
1151 254079 402638
1152 645219 908863
1153 653656 927118
1154 169229 880002
1155 344614 885121
1156 946862 757698
1157 148579 631154
1158 860154 590218
1159 338011 46129
1160 696585 895586
1161 376991 914400
1162 985347 638356
1163 877293 578772
1164 71337 623233
1165 369907 5675
1166 314398 1043775
1167 899516 372283
1168 677356 174242
1169 419261 154994
1170 206443 855590
1171 892382 408576
1172 301510 950466
1173 76918 679343
1174 132424 604665
1175 52661 636656
1176 965177 552516
1177 371320 975498
1178 335478 941606
1179 966053 755790
1180 379356 978519
1181 508367 159481
1182 292036 975266
1183 100338 679145
1184 925923 398481
1185 386693 33785
1186 170113 839353
1187 968524 601259
1188 234175 393805
1189 309970 972508
1190 680415 887963
1191 355181 62008
1192 398207 66157
1193 604095 882059
1194 924645 713665
1195 476911 162187
1196 382035 14393
1197 387852 63552
1198 473756 216928
1199 468015 202871
1200 919891 609446
1201 883323 570208
1202 320834 962311
1203 650264 842827
1204 519464 181182
1205 344882 65623
1206 350940 951075
1207 199437 688635
1208 381683 19089
1209 240010 1000170
1210 700171 154491
1211 839145 545912
1212 677140 867937
1213 227626 385435
1214 694860 126192
1215 892831 568404
1216 284318 929092
1217 906802 379570
1218 704141 163337
1219 341011 30334
1220 383235 903998
1221 889947 359252
1222 172002 835675
1223 453829 257168
1224 358456 974237
1225 917434 550167
1226 619742 90680
1227 902751 551600
1228 342801 969143
1229 894289 577422
1230 266628 956497
1231 701583 154132
1232 372677 912212
1233 975108 578101
1234 258395 1051973
1235 677756 110793
1236 465545 199908
1237 647066 152521
1238 232141 866718
1239 387733 22915
1240 664230 885663
1241 676582 913561
1242 614542 927049
1243 693497 127526
1244 972067 562817
1245 340367 900790
1246 175438 814868
1247 461352 217770
1248 372476 127431
1249 307433 958446
1250 277993 925504
1251 972121 589690
1252 946336 577655
1253 909705 756591
1254 255097 388867
1255 939365 739801
1256 230887 907531
1257 206225 919389
1258 134955 657360
1259 360354 45525
1260 121799 631118
1261 365923 976009
1262 214920 836512
1263 599150 892368
1264 459575 248457
1265 954671 729300
1266 461793 172844
1267 421961 61660
1268 912085 388080
1269 329487 910624
1270 965403 595399
1271 658863 110431
1272 903307 551633
1273 457367 178210
1274 665311 115765
1275 711708 159820
1276 939343 619873
1277 382493 25167
1278 77946 693209
1279 186338 827079
1280 286728 903962
1281 934077 681294
1282 276801 850592
1283 945221 602495
1284 370354 95233
1285 350361 947314
1286 236937 886468
1287 901169 421873
1288 407041 919590
1289 372976 28962
1290 481106 187632
1291 380169 924390
1292 471275 205626
1293 478494 163670
1294 665698 905877
1295 267037 388778
1296 374916 101178
1297 265636 402266
1298 378012 -13582
1299 58471 620029
1300 160416 883852
1301 350733 938232
1302 121091 678640
1303 934700 577782
1304 955365 606628
1305 356032 931779
1306 922167 404674
1307 1009958 574337
1308 219953 978866
1309 261289 387670
1310 290760 392340
1311 981488 731016
1312 889595 356188
1313 643778 116832
1314 643177 925699
1315 961956 611529
1316 355111 69327
1317 690798 157270
1318 464876 235973
1319 329920 926709
1320 271193 942849
1321 274292 450434
1322 327252 977188
1323 361684 23119
1324 939482 620570
1325 261967 396482
1326 395301 46424
1327 390514 958573
1328 161701 686224
1329 539853 214431
1330 914913 414244
1331 927363 619198
1332 713339 148446
1333 360257 948851
1334 176131 688678
1335 259293 413272
1336 936022 731475
1337 959147 626414
1338 261729 923550
1339 932150 733765
1340 633357 889689
1341 439425 202816
1342 261890 414608
1343 947925 578859
1344 431480 -23110
1345 927355 408924
1346 334894 918050
1347 284847 408372
1348 939402 364193
1349 981259 616623
1350 379949 940597
1351 906762 525233
1352 45679 655609
1353 206427 831904
1354 90472 681822
1355 900284 559424
1356 83953 678038
1357 289185 986611
1358 955081 597765
1359 935647 618921
1360 197019 857255
1361 273619 419863
1362 96810 664704
1363 325437 1001372
1364 369732 1011105
1365 489196 218889
1366 269954 979260
1367 196264 658073
1368 896097 375897
1369 901836 390188
1370 240294 962301
1371 313944 418129
1372 891308 535239
1373 854968 556418
1374 948417 759165
1375 585464 914555
1376 970950 708462
1377 396939 7250
1378 339549 30323
1379 347513 930812
1380 689916 850141
1381 621157 883846
1382 228271 407681
1383 893082 396863
1384 315485 893808
1385 195426 875535
1386 262325 952114
1387 147666 637715
1388 898454 554940
1389 586163 870948
1390 68052 635143
1391 150016 620150
1392 976500 749117
1393 243239 884782
1394 268046 434692
1395 695860 894360
1396 952103 765294
1397 473898 155829
1398 397564 920962
1399 362827 39221
1400 228099 903704
1401 857408 418391
1402 892115 519481
1403 645234 886618
1404 235651 356001
1405 320145 913318
1406 220379 968262
1407 348408 941541
1408 685850 861862
1409 879311 353838
1410 45815 652653
1411 697629 157631
1412 193939 648350
1413 926265 707789
1414 893202 530395
1415 907277 406166
1416 455109 178260
1417 631078 892189
1418 350526 22572
1419 852035 451120
1420 231332 834718
1421 933904 559619
1422 948648 716236
1423 354877 972420
1424 955743 752780
1425 1011105 767841
1426 623944 159041
1427 933963 425717
1428 150769 624248
1429 653143 136502
1430 288314 1002629
1431 220910 893050
1432 145055 656834
1433 929071 593394
1434 656841 895068
1435 1008432 590841
1436 197331 976807
1437 197816 877106
1438 641710 895151
1439 198562 874816
1440 273269 441285
1441 28258 639730
1442 260889 921483
1443 923424 564041
1444 412444 10400
1445 616289 900496
1446 372053 996220
1447 922995 616425
1448 381880 49156
1449 402561 81417
1450 963312 624445
1451 933677 556404
1452 150884 827961
1453 955876 378564
1454 389328 78278
1455 317114 411011
1456 233825 954734
1457 866128 376964
1458 947554 727167
1459 694874 853191
1460 654821 909905
1461 263450 924935
1462 377321 943216
1463 1012660 611356
1464 625703 912808
1465 908924 747553
1466 903668 599053
1467 308343 1021629
1468 685964 894018
1469 994543 614795
1470 907055 548752
1471 271189 392127
1472 299958 422190
1473 127473 638774
1474 994317 736615
1475 198118 821971
1476 279569 403548
1477 637411 869690
1478 654221 135057
1479 664062 155964
1480 231319 979513
1481 193390 626494
1482 908327 645023
1483 348860 967290
1484 103813 592182
1485 131758 653856
1486 973619 658537
1487 261707 997481
1488 242608 417202
1489 294312 1029652
1490 394486 948299
1491 317008 928603
1492 374358 960920
1493 353229 960091
1494 347716 924746
1495 130804 601656
1496 900210 392666
1497 -8471 608233
1498 260032 432142
1499 683999 115810
1500 160152 824254
