NAME : portcgen-200-207
COMMENT : portcgen N=200, seed=207
TYPE : TSP
DIMENSION : 200
EDGE_WEIGHT_TYPE : EUC_2D
NODE_COORD_SECTION
1 1043607 182303
2 1019468 136630
3 1055660 5297
4 621099 195005
5 492985 102618
6 1063500 120146
7 1001190 221952
8 560863 122250
9 566177 70832
10 618164 112957
11 947575 276608
12 981066 208663
13 564491 160905
14 1036753 37878
15 498136 25946
16 537687 28112
17 910590 170428
18 572461 171239
19 859280 238359
20 458075 37727
21 529162 59821
22 464288 186212
23 957327 227715
24 549426 18040
25 943671 275910
26 661379 110598
27 627978 147394
28 560363 200442
29 597127 141768
30 976916 177351
31 873542 157358
32 862666 112126
33 609637 48666
34 869295 118657
35 616698 177606
36 663009 -25380
37 563202 98710
38 411110 113140
39 1023811 112862
40 476295 92248
41 982106 180872
42 515594 140876
43 910825 134151
44 599330 181623
45 863053 212119
46 1023563 111355
47 993152 151617
48 621445 90767
49 941363 158953
50 636379 113740
51 927350 170284
52 467396 92776
53 1053668 180966
54 1021034 203839
55 470983 88338
56 529216 235573
57 562917 115520
58 989293 207712
59 572039 239390
60 1167425 102538
61 962196 91493
62 465828 218925
63 984091 222861
64 531595 299527
65 934537 74217
66 588831 99643
67 986737 271344
68 1003132 153983
69 845661 105721
70 965756 255411
71 501049 170908
72 601013 196249
73 503319 121918
74 571725 29129
75 950585 180306
76 484150 172964
77 474862 185612
78 595406 153873
79 969701 201432
80 576250 161848
81 718386 253507
82 1027452 81068
83 490717 115417
84 1048060 320367
85 627053 210287
86 967216 235064
87 927867 144406
88 441893 110749
89 457250 92248
90 1006618 137763
91 568391 92264
92 991506 176324
93 471866 176682
94 523291 76193
95 990135 155843
96 1000333 338711
97 1005262 207895
98 535773 175050
99 582021 102572
100 951529 169759
101 483190 23266
102 1015110 250824
103 583992 67209
104 970340 113786
105 852120 208561
106 949381 282419
107 1039024 175190
108 560860 99283
109 546965 124275
110 700253 112210
111 958297 260029
112 509253 97133
113 978242 224661
114 543161 98465
115 990291 -9528
116 1006260 168168
117 766956 192429
118 1002976 243311
119 607442 244178
120 1078272 209023
121 903961 219727
122 959417 78532
123 980893 60325
124 1016186 201543
125 1035488 197053
126 612858 48944
127 608956 129593
128 993675 211152
129 409882 173329
130 890370 166930
131 635270 132392
132 1064594 236626
133 1073235 144347
134 580422 88999
135 418904 197767
136 934201 163863
137 371504 84648
138 905792 237011
139 489348 153213
140 342984 162864
141 1057563 191201
142 1012113 128045
143 539668 158823
144 607246 148295
145 492545 229914
146 1037340 170658
147 988472 194196
148 1042883 286543
149 908987 76745
150 865815 206170
151 979976 166609
152 792627 93747
153 566876 37599
154 558116 61243
155 1131081 249808
156 1044644 174267
157 459369 77214
158 972954 195901
159 916867 179518
160 549609 -19268
161 924715 139674
162 531104 132444
163 992597 248850
164 1001402 1636
165 1002891 172509
166 637984 238868
167 1111787 190173
168 933132 211277
169 1018841 110140
170 980245 146426
171 568393 44955
172 614808 94468
173 545801 137219
174 635200 150126
175 908932 281932
176 592418 158388
177 962551 222356
178 542421 110981
179 421168 125526
180 548678 91329
181 463932 92000
182 1019923 113800
183 410709 78698
184 1089117 193417
185 549610 61605
186 970363 99769
187 392860 197324
188 568620 126678
189 623053 65505
190 497977 117796
191 878587 230924
192 523672 -16318
193 410981 101169
194 630088 70860
195 591325 155726
196 522006 182527
197 989499 187153
198 979687 111958
199 969324 253660
200 1079057 139794
