NAME : portcgen-500-505
COMMENT : portcgen N=500, seed=505
TYPE : TSP
DIMENSION : 500
EDGE_WEIGHT_TYPE : EUC_2D
NODE_COORD_SECTION
1 560948 1007177
2 985962 997880
3 476981 960888
4 524998 927568
5 867221 961724
6 715813 172020
7 190578 988298
8 721530 224781
9 764107 110022
10 551502 204978
11 995097 927667
12 538951 872526
13 193716 906899
14 777720 177569
15 528283 202527
16 578087 918306
17 687119 189135
18 590289 245803
19 714094 86002
20 1009797 1060368
21 551312 184819
22 214035 928035
23 497018 166798
24 504927 197915
25 991686 969997
26 971853 1069803
27 557617 202253
28 642722 216304
29 641563 135851
30 922920 970591
31 720864 157580
32 962501 1065000
33 1040039 911363
34 991577 1068735
35 571698 225069
36 710693 164773
37 715346 112859
38 686162 73815
39 690118 118116
40 691597 54563
41 734153 131697
42 530840 228983
43 894242 951417
44 222925 1030485
45 988457 1076375
46 738038 118372
47 980983 937564
48 549924 913003
49 663440 149063
50 612101 876466
51 965139 1007425
52 590516 921591
53 538966 969390
54 1047865 967738
55 889211 934541
56 685045 119730
57 582770 992304
58 717625 121958
59 672872 114480
60 538110 229771
61 777070 50702
62 895086 999289
63 530438 115222
64 563948 180975
65 538329 223464
66 494273 178608
67 526452 222952
68 926905 901870
69 603918 216044
70 664994 199479
71 501613 175942
72 1008388 1001854
73 747350 144670
74 974374 985522
75 998310 988043
76 582867 976853
77 983460 1055941
78 563621 879692
79 986058 983450
80 964447 972103
81 935305 978409
82 543470 1042659
83 701796 170579
84 547417 237311
85 665065 94238
86 1012862 1050793
87 667399 76476
88 576031 165913
89 1003635 957684
90 259219 987272
91 1043147 921151
92 530668 131219
93 237989 961732
94 541003 174040
95 732494 128237
96 200102 896690
97 558343 1010931
98 541654 895144
99 1003699 1019391
100 522985 227475
101 701861 197696
102 583344 1005325
103 609611 216261
104 488240 926627
105 265786 938827
106 199062 978349
107 550419 114358
108 318158 952086
109 515509 214431
110 718346 68603
111 224250 977073
112 760544 146890
113 562608 976179
114 934025 941012
115 668961 130804
116 472762 913721
117 513818 934641
118 282772 932980
119 900838 997730
120 634814 196070
121 653221 124722
122 633257 146164
123 1001127 985097
124 606710 889248
125 750620 100689
126 535334 960182
127 541363 903075
128 521151 868151
129 683084 199076
130 537547 214679
131 530292 211780
132 625473 128309
133 748402 88548
134 505919 952091
135 521204 178090
136 688866 229520
137 605261 928249
138 524515 249356
139 966330 998294
140 663839 113543
141 288197 1016685
142 565097 954615
143 719618 121800
144 823137 160193
145 547480 949319
146 789290 234374
147 535487 1028330
148 298830 902714
149 605557 161584
150 719075 165479
151 525141 917155
152 521396 992156
153 224366 1008975
154 498856 169730
155 271151 929492
156 568515 943634
157 779490 165176
158 222011 1042777
159 759942 50881
160 451724 894551
161 677058 102707
162 883507 1074646
163 631307 139222
164 933182 1046200
165 740432 141197
166 596607 998295
167 749520 139129
168 614723 929791
169 711397 181479
170 658893 119858
171 516756 258233
172 226473 911687
173 569120 878051
174 544638 962572
175 732461 146814
176 621283 922902
177 735260 145101
178 262349 1040628
179 238090 996807
180 256537 1008123
181 336321 1006679
182 1018152 1053753
183 705006 64906
184 272673 941118
185 902530 967779
186 370164 970413
187 735875 143858
188 711934 110961
189 574379 134262
190 995624 912193
191 532085 885151
192 510612 933284
193 587294 168878
194 1051504 997913
195 240872 993280
196 974651 937287
197 664055 197394
198 951798 1008796
199 458422 164954
200 696045 188796
201 284745 958846
202 714278 185161
203 668826 194431
204 650354 59467
205 919954 966370
206 561784 885727
207 740261 99266
208 542376 948546
209 514233 240036
210 523733 167207
211 974460 996767
212 874120 1021461
213 346307 940852
214 292427 941691
215 232890 962792
216 682612 70832
217 233333 960656
218 550235 1021062
219 557100 924716
220 1038071 1005531
221 220177 887584
222 523571 980622
223 559888 950796
224 719218 140770
225 1004146 981804
226 602550 289988
227 526049 146458
228 583064 159672
229 537296 263643
230 525555 175888
231 502795 1030203
232 499689 179845
233 998119 957176
234 477124 244265
235 545652 901757
236 702006 135698
237 654867 151338
238 457040 196462
239 738186 193276
240 406091 185134
241 734624 118474
242 518955 980201
243 834761 123600
244 474053 928017
245 744107 153670
246 254292 959357
247 958627 1002008
248 726291 27943
249 476395 216711
250 981956 1064765
251 698121 131158
252 570249 183463
253 713657 116888
254 601240 873480
255 961382 959123
256 1001703 952435
257 543290 248074
258 603403 944301
259 440151 950838
260 724125 116403
261 524296 945177
262 692615 233393
263 556721 198847
264 967821 951419
265 299423 966023
266 518347 900981
267 537246 928242
268 785220 183790
269 986264 980203
270 583301 216835
271 992138 1008414
272 264676 902896
273 282653 983488
274 510843 123140
275 448878 165499
276 225197 980172
277 525683 974821
278 353172 994002
279 1017090 1001902
280 776034 149643
281 292198 959893
282 520613 962312
283 611741 203746
284 498346 987034
285 301857 954012
286 517850 953982
287 574598 198054
288 463497 878333
289 517247 880834
290 965037 965397
291 319093 963913
292 251119 988022
293 1000484 967861
294 518091 133308
295 543705 897287
296 256406 951022
297 663554 167676
298 260063 953465
299 562089 942779
300 466160 190098
301 208070 968380
302 996561 958954
303 263292 957772
304 290026 906876
305 613112 167159
306 940625 953177
307 219000 916292
308 248492 918337
309 895086 1073306
310 441710 214824
311 695766 111809
312 742152 139751
313 763317 118591
314 248972 946667
315 465566 125806
316 988001 963959
317 283883 968447
318 308714 933883
319 225871 915728
320 487094 956761
321 299108 928021
322 273281 955782
323 470693 907091
324 488072 911245
325 582285 951718
326 539503 917841
327 524804 883092
328 494621 968226
329 965238 887542
330 755596 134463
331 688651 125565
332 530693 968733
333 779437 114090
334 924005 961918
335 528232 846914
336 952484 954750
337 316667 1029119
338 592028 924201
339 774061 185691
340 971129 961780
341 522488 995765
342 522749 875009
343 279546 916488
344 1021402 991049
345 338352 947815
346 576714 940448
347 574288 923456
348 534236 943093
349 256731 978578
350 687166 38135
351 217185 1029241
352 532719 1032914
353 295495 976183
354 214255 927706
355 569123 239065
356 982554 974519
357 620755 184428
358 288628 982378
359 693242 163377
360 213991 803131
361 905084 1015035
362 267534 973634
363 237712 966474
364 277366 956773
365 977493 1056449
366 293867 957218
367 226324 957031
368 714495 152821
369 560017 175264
370 786645 148229
371 940036 973493
372 728944 149727
373 187188 935979
374 428877 859254
375 313353 987169
376 975694 1020102
377 737593 62996
378 731266 142642
379 248710 961922
380 395808 923738
381 691094 180616
382 986871 932164
383 468439 930023
384 276067 917004
385 296425 1004153
386 533428 997861
387 986518 1036073
388 454311 144306
389 978612 986512
390 461544 928043
391 494392 254490
392 906328 987302
393 261250 944321
394 720514 98717
395 527183 894395
396 584905 216639
397 523256 896077
398 554073 206460
399 708767 184647
400 245596 958599
401 1004246 1003853
402 535174 219999
403 193130 961560
404 566006 139424
405 993782 887897
406 534587 177695
407 790932 120862
408 277596 907471
409 458996 159612
410 1024619 1000332
411 929445 936068
412 981500 1041719
413 584972 186947
414 978605 994073
415 941883 933661
416 479896 291152
417 437135 973669
418 281474 976952
419 1053100 991215
420 281617 915173
421 535221 929792
422 936804 939655
423 583729 944559
424 522809 257266
425 976975 1013839
426 761717 180516
427 507659 993621
428 675531 208874
429 690332 112367
430 228669 934297
431 915666 954388
432 539472 913650
433 1015500 977815
434 283542 1019491
435 424028 962719
436 1018477 858459
437 262439 934611
438 697206 141078
439 680682 147603
440 562403 173391
441 292586 916285
442 535797 885972
443 412890 299530
444 963759 1001245
445 573905 108612
446 300121 901562
447 605359 150412
448 1017424 993501
449 587924 203806
450 539421 887676
451 270424 933434
452 310158 960403
453 203813 1049641
454 577483 178974
455 988622 994072
456 469133 968147
457 296511 952764
458 235429 955811
459 547787 175649
460 622336 184821
461 306477 940573
462 439040 889218
463 906184 965616
464 518205 956174
465 525567 194291
466 545660 194488
467 948221 986968
468 221770 883315
469 716453 115027
470 281854 954896
471 726548 146366
472 309147 1014776
473 669930 154284
474 982241 1026041
475 613268 185573
476 676025 172739
477 967077 1042082
478 728485 88618
479 535946 181727
480 585007 955461
481 459727 177310
482 885617 963671
483 718680 163179
484 505056 954558
485 718432 103587
486 201536 991784
487 966525 1038631
488 567089 920241
489 1036013 955293
490 763349 106619
491 263460 899947
492 217636 935443
493 550879 906686
494 513693 924596
495 226336 959201
496 970769 952314
497 593069 172337
498 333680 970586
499 576069 237629
500 212427 914616
