NAME : portcgen-500-510
COMMENT : portcgen N=500, seed=510
TYPE : TSP
DIMENSION : 500
EDGE_WEIGHT_TYPE : EUC_2D
NODE_COORD_SECTION
1 441934 266921
2 542120 628458
3 567744 908017
4 501687 893206
5 261434 306120
6 482853 769490
7 500633 781586
8 497776 830205
9 345957 228839
10 543984 967461
11 459408 915815
12 486213 573869
13 552387 857586
14 585256 874858
15 245948 347047
16 451146 296663
17 501146 969246
18 348875 577341
19 491430 349261
20 557029 259270
21 329747 169878
22 545426 933042
23 201692 253932
24 451618 222002
25 469350 554875
26 478649 860093
27 276900 286191
28 534143 643241
29 266407 260268
30 450768 690277
31 510157 931832
32 540407 851477
33 425279 796166
34 497245 846075
35 460659 806196
36 259360 401439
37 561713 815377
38 560348 832946
39 611755 853984
40 407653 769480
41 504362 281340
42 455633 678457
43 499537 285728
44 449086 652925
45 459477 706235
46 504288 293962
47 465349 307699
48 421049 833613
49 213631 259682
50 439319 611808
51 262804 223624
52 497176 836913
53 355834 226044
54 446413 629309
55 455344 646775
56 474045 800322
57 568103 901671
58 284525 254581
59 432567 621267
60 516654 938969
61 520785 604929
62 278418 292414
63 597432 899397
64 224365 279033
65 520404 301857
66 307676 317738
67 455456 217057
68 520016 865536
69 179790 261267
70 525922 938557
71 325538 177334
72 562627 827679
73 214018 253855
74 551087 859874
75 195947 207235
76 473051 283449
77 532534 282199
78 606960 852772
79 261697 227833
80 422849 628527
81 499739 252891
82 426988 531370
83 511665 312081
84 520871 844573
85 514999 839248
86 392636 631608
87 512304 668418
88 259904 332505
89 458786 856588
90 445401 304360
91 605705 999701
92 291348 246806
93 270186 217529
94 454986 684895
95 440000 871010
96 353916 288619
97 425954 622655
98 571472 875724
99 490165 276971
100 596550 894749
101 442040 870221
102 487611 798870
103 506840 869768
104 483534 571313
105 542461 803607
106 527743 828063
107 483657 282625
108 245761 262202
109 461668 262594
110 447277 895509
111 564913 866923
112 274488 253029
113 310168 240258
114 440563 191597
115 529126 975438
116 525874 817081
117 537908 767091
118 517799 593229
119 478651 261011
120 520595 270481
121 461712 308592
122 498365 264335
123 501216 851843
124 533531 832275
125 499877 820232
126 488037 871872
127 328721 301295
128 333197 249387
129 532177 844839
130 442743 287936
131 540405 935374
132 489529 240886
133 509959 611430
134 556423 541922
135 476589 827697
136 506253 563887
137 460740 635910
138 548030 921437
139 440409 256583
140 299812 247464
141 588988 889131
142 473159 866592
143 532994 876644
144 427457 164694
145 234878 256588
146 525507 908985
147 521320 817887
148 523671 800576
149 275232 278590
150 509050 962824
151 620868 755452
152 533115 839755
153 308955 285271
154 506466 641264
155 263513 303668
156 442373 338147
157 512902 602345
158 552146 875538
159 605433 745019
160 508017 682559
161 424038 555102
162 489399 677518
163 583214 915059
164 510514 358730
165 447344 846179
166 501214 152656
167 227095 255586
168 521346 904595
169 516012 208322
170 527159 802565
171 517059 739359
172 211226 235554
173 391063 304765
174 398913 274230
175 295777 262587
176 235543 277677
177 429165 631113
178 534051 854656
179 418520 656461
180 219950 225471
181 512223 854446
182 541131 846156
183 464528 266627
184 530719 865181
185 507733 837283
186 524161 315479
187 229900 234687
188 443005 165078
189 456573 350659
190 237959 219337
191 430023 303299
192 464694 791745
193 285398 288024
194 606786 849242
195 555878 923930
196 554224 906429
197 276844 285085
198 443538 203903
199 405798 680375
200 191140 267476
201 567017 838526
202 499792 593691
203 514406 790594
204 363062 239204
205 528523 251021
206 418037 607683
207 505839 754399
208 532864 879824
209 442420 597150
210 470076 802310
211 517286 788959
212 294386 230940
213 446759 651040
214 402207 280089
215 464487 577409
216 465718 282117
217 448263 667500
218 487069 833589
219 352963 655404
220 523407 787924
221 417853 370234
222 474470 276104
223 484350 747759
224 543738 925921
225 436779 806249
226 500634 834569
227 529258 264065
228 498907 264369
229 419719 795137
230 440326 622517
231 452484 351687
232 443100 582651
233 565625 216972
234 535047 939251
235 458244 311669
236 427460 229534
237 471274 630197
238 456993 290534
239 403376 600991
240 453442 581616
241 279583 225307
242 478910 809167
243 471912 268312
244 580541 888694
245 428710 206727
246 453300 580858
247 449962 271906
248 253558 307985
249 525955 877545
250 494919 211669
251 294285 254499
252 509171 900421
253 256160 250815
254 498222 914021
255 248576 229017
256 507892 600165
257 235845 306264
258 418965 566861
259 270083 332175
260 455566 576812
261 467101 236480
262 450247 588642
263 469196 564626
264 550014 304289
265 421244 537659
266 381529 305542
267 356825 293183
268 455171 798075
269 519412 865917
270 483219 822171
271 586481 929375
272 622656 874123
273 292520 214177
274 295394 259328
275 493328 850524
276 447950 240837
277 583113 950397
278 191203 287064
279 582872 821656
280 229554 195674
281 549914 592097
282 214678 289544
283 445898 691756
284 477684 620613
285 564405 609619
286 535571 650561
287 503561 659413
288 458487 694219
289 558463 843472
290 593695 948922
291 472846 906166
292 590216 838910
293 539926 809542
294 481457 270857
295 575059 589182
296 467543 634823
297 517695 799794
298 415224 829197
299 462937 571203
300 454950 644396
301 476978 558009
302 529613 871833
303 484390 222777
304 514221 933539
305 196675 270562
306 395936 728253
307 553355 823559
308 438094 249913
309 562403 242463
310 357323 536112
311 392907 637016
312 565025 836070
313 523494 876523
314 452737 229612
315 461087 845324
316 523487 843952
317 473865 701396
318 569324 864338
319 252576 240279
320 402854 620730
321 293624 354746
322 494016 289234
323 517918 851909
324 481902 321859
325 380029 320856
326 520735 930119
327 291995 299190
328 476909 423703
329 479790 610847
330 254669 362440
331 490967 249342
332 529395 863974
333 260638 262387
334 612387 918085
335 349224 598846
336 493847 868805
337 557956 787950
338 453675 829644
339 488888 917499
340 475614 590324
341 470403 832032
342 447137 567492
343 493731 222554
344 244633 231466
345 475932 325800
346 484481 241463
347 558530 864285
348 581972 222228
349 532105 839188
350 463761 326348
351 489430 907821
352 541907 836005
353 555267 842416
354 448849 148101
355 359604 206056
356 485627 558918
357 240771 237335
358 283213 348834
359 435689 793760
360 337866 277382
361 501976 232471
362 554894 887605
363 509698 809002
364 511724 830337
365 521156 245452
366 405280 593849
367 462488 665700
368 617527 888249
369 534866 251995
370 388202 194705
371 497822 612425
372 470549 694108
373 570374 907736
374 428610 736453
375 559219 812640
376 304703 241974
377 435369 771902
378 278889 235205
379 491804 753205
380 505250 893221
381 495607 848337
382 501002 808525
383 456029 224386
384 379931 619154
385 439618 134366
386 423910 862300
387 472289 288768
388 467980 842476
389 531053 962191
390 543665 875024
391 537846 864693
392 494846 815924
393 505130 606129
394 431993 578696
395 498914 642289
396 502705 277804
397 500506 870011
398 420879 516806
399 280956 281846
400 220038 250684
401 474091 196685
402 304316 268981
403 411773 293447
404 453781 315864
405 232617 203535
406 308810 295306
407 307023 269604
408 423830 276436
409 249516 268474
410 258629 311068
411 497511 163924
412 648191 867210
413 452935 230253
414 500132 547458
415 365881 592820
416 512613 762847
417 462072 564014
418 282933 242529
419 479986 622664
420 522576 323406
421 532268 813670
422 283544 237326
423 530917 880233
424 531090 810377
425 599100 856142
426 434606 611108
427 505944 244975
428 500294 914986
429 436727 607457
430 364631 872926
431 467938 809833
432 580839 871795
433 289515 310470
434 609199 906485
435 235380 289676
436 577253 863543
437 294638 331950
438 421494 616326
439 525580 870546
440 320728 206981
441 573994 906803
442 534711 756618
443 568949 942407
444 465914 245804
445 201679 310139
446 469850 790793
447 403793 689236
448 528010 835761
449 511299 849647
450 359464 561376
451 414946 625957
452 237429 253056
453 535296 885094
454 326310 314922
455 514272 861630
456 545163 915767
457 582212 942578
458 415014 277707
459 303974 414919
460 480027 762256
461 444498 880021
462 276815 289076
463 525795 313819
464 253846 200947
465 400313 271615
466 265224 309610
467 508413 918364
468 425571 254181
469 483023 627256
470 444848 757153
471 468125 354672
472 487969 777235
473 492519 628809
474 488234 279365
475 224654 264195
476 456961 365899
477 538480 859961
478 236421 306027
479 493985 621573
480 396407 282219
481 466790 822529
482 421900 706872
483 582889 917123
484 547583 887457
485 186135 221003
486 423038 849613
487 499496 842447
488 472091 574050
489 318536 258015
490 519776 250101
491 495237 872520
492 484805 838446
493 434086 240360
494 221910 248820
495 444497 651122
496 527382 311349
497 526039 852290
498 473269 806532
499 504247 926518
500 498245 806155
