NAME : portcgen-800-804
COMMENT : portcgen N=800, seed=804
TYPE : TSP
DIMENSION : 800
EDGE_WEIGHT_TYPE : EUC_2D
NODE_COORD_SECTION
1 967320 204397
2 291150 388410
3 367844 747755
4 63656 51712
5 408392 310726
6 -5814 -563
7 930703 93111
8 853446 594786
9 314536 399003
10 933809 635412
11 59930 -21497
12 308019 403253
13 413105 782652
14 1211 29165
15 25102 -13605
16 906758 664136
17 81421 174720
18 58682 108028
19 7623 54958
20 38689 158810
21 420219 306558
22 367440 819445
23 39576 89158
24 -540 126342
25 451259 860004
26 888696 622380
27 340141 786129
28 404697 799846
29 1015994 154207
30 -29846 11088
31 450151 745856
32 312057 805153
33 405016 256866
34 32005 15929
35 378451 292154
36 945177 205938
37 373640 778275
38 436845 816250
39 870183 611447
40 28955 -17085
41 918227 175284
42 429813 717612
43 265533 372468
44 20975 148966
45 427654 869723
46 316865 412226
47 869090 661310
48 37249 110983
49 839995 600156
50 260931 337469
51 92519 24195
52 892606 622056
53 17141 124365
54 897983 609985
55 345727 794658
56 341043 799725
57 390785 238944
58 432721 781011
59 60884 172579
60 411523 790414
61 315809 759044
62 354727 780676
63 442784 203374
64 46296 65070
65 916027 106313
66 984578 186966
67 310232 381955
68 111459 135456
69 993539 160796
70 285461 405979
71 43040 112349
72 40258 85582
73 914615 559078
74 904813 198064
75 4205 113474
76 104310 134040
77 429339 813354
78 931931 175570
79 81388 8210
80 400181 251045
81 359702 797231
82 297162 403557
83 349716 393113
84 425038 764631
85 250026 413266
86 383596 337532
87 386819 757392
88 464354 731896
89 -9821 32929
90 351123 486175
91 858075 624822
92 488342 825692
93 383873 760409
94 418412 703662
95 428382 796616
96 909567 550454
97 275591 393214
98 49943 43683
99 306884 800925
100 431329 224451
101 30852 194105
102 29090 99275
103 422474 253656
104 821684 586108
105 968561 154857
106 375898 790954
107 339518 384282
108 454116 205948
109 13561 111176
110 52468 108724
111 106365 167613
112 266748 421049
113 416885 784016
114 52336 -10950
115 384221 802307
116 110797 132302
117 395614 856654
118 835931 625881
119 63730 130058
120 930924 581246
121 351077 792537
122 354867 344128
123 349844 742682
124 948182 127277
125 284168 382694
126 27420 111236
127 999625 203494
128 463536 819288
129 332826 846809
130 971577 633643
131 459870 240527
132 857094 619740
133 55935 74497
134 27014 70545
135 923651 196612
136 364113 440942
137 391169 760173
138 321891 433586
139 47670 110075
140 299884 360575
141 334260 322634
142 875268 565084
143 372826 775761
144 834310 563451
145 72137 159611
146 840162 620888
147 1027761 133017
148 368309 793086
149 371666 422940
150 1015421 187382
151 112550 162423
152 451349 262617
153 333161 397143
154 889416 627281
155 102788 154486
156 379828 268192
157 856747 610339
158 3736 9923
159 897252 652686
160 876682 627712
161 422589 846367
162 935088 640262
163 365299 839975
164 958826 187512
165 323487 420985
166 384170 797642
167 311902 370203
168 981282 165394
169 939315 566353
170 301709 405788
171 430752 241218
172 64938 102693
173 479730 744216
174 920849 143686
175 988779 135134
176 847929 633403
177 866521 580756
178 975293 638134
179 939822 141334
180 924398 222750
181 275880 807481
182 376018 789012
183 412316 763592
184 428653 779470
185 395459 836419
186 108650 94191
187 406394 276928
188 426824 810672
189 322967 470019
190 1037624 154112
191 278220 422187
192 895200 707182
193 332118 858835
194 78838 -14486
195 383914 802128
196 935273 172941
197 15485 45510
198 54493 68952
199 109097 101671
200 460656 824687
201 83262 122085
202 439220 277124
203 370041 833122
204 423570 233012
205 443968 753985
206 375527 270220
207 81657 113394
208 456642 274567
209 826631 624892
210 898281 601793
211 447688 866914
212 403508 759315
213 335161 472570
214 19965 26331
215 881013 566535
216 911756 133989
217 418245 866766
218 1023482 648494
219 280177 440400
220 302679 364264
221 957489 659614
222 305885 396708
223 838034 651395
224 449508 248391
225 345366 783877
226 103276 195531
227 826172 653708
228 113035 120920
229 8753 54945
230 14498 146160
231 454016 223935
232 284771 428084
233 838542 632180
234 346603 373590
235 38590 166499
236 463517 833948
237 446792 305897
238 433842 795765
239 47101 -13061
240 36553 7761
241 299449 429673
242 431252 263976
243 846946 671023
244 953866 214943
245 930989 177843
246 74606 29721
247 888174 589298
248 456268 722193
249 91957 117758
250 340200 817815
251 76798 91435
252 57257 73195
253 885559 164764
254 50503 24441
255 33447 74176
256 859093 651398
257 909118 610514
258 324821 405751
259 339967 386389
260 23413 84282
261 894436 623373
262 33538 74744
263 875761 645780
264 806756 641424
265 3612 24117
266 1005674 181461
267 13852 63146
268 396272 821542
269 978374 140587
270 334365 408665
271 996935 153420
272 362731 771135
273 100846 158570
274 449385 789815
275 903368 674603
276 91065 157106
277 891668 616352
278 406869 257190
279 447583 800318
280 31309 15859
281 863726 612139
282 -18007 47458
283 338124 778372
284 433792 255320
285 111259 164433
286 1017639 174814
287 319821 829859
288 949774 206620
289 976765 181488
290 19266 42674
291 357256 430742
292 12255 95177
293 867781 599550
294 77204 174746
295 417086 262845
296 912381 612009
297 99752 104590
298 34301 94592
299 892875 592653
300 22802 60346
301 403385 233535
302 360902 739104
303 21597 176120
304 305584 421300
305 878448 636218
306 462404 250603
307 411819 814251
308 435825 779407
309 54566 111577
310 897587 643195
311 288149 359143
312 418588 814187
313 -6764 -2045
314 967524 193752
315 954789 163620
316 46695 126631
317 404801 257327
318 -15915 38057
319 978867 201585
320 953914 199527
321 429964 801291
322 286712 372345
323 397047 268071
324 901156 144917
325 426014 747607
326 233902 359489
327 931358 187295
328 444215 802282
329 475916 783991
330 946179 606237
331 928371 210640
332 128304 52979
333 894123 690907
334 47593 109006
335 926338 576856
336 278623 494553
337 29633 143035
338 275198 481718
339 377079 444206
340 439265 290707
341 358146 770364
342 254537 403202
343 62243 15343
344 396241 198362
345 273749 387719
346 348178 371387
347 910996 646093
348 356986 736931
349 332116 739240
350 55213 175511
351 399650 275343
352 402786 802730
353 286170 361287
354 388237 186814
355 881491 607184
356 948956 156327
357 458001 805163
358 25742 43489
359 852172 674373
360 427814 306549
361 945772 151876
362 30712 -4543
363 110535 86913
364 -5776 34849
365 459188 279793
366 45566 134069
367 937604 152282
368 48693 46717
369 83908 63916
370 935810 227336
371 358406 738633
372 914365 590674
373 942286 217771
374 445699 795151
375 279219 403034
376 96709 14920
377 342705 773808
378 50573 44944
379 341775 454743
380 433340 235086
381 414193 319026
382 870060 602479
383 80731 160352
384 917611 633690
385 438086 218326
386 343546 787901
387 37038 118813
388 864928 624223
389 395001 804381
390 324353 824037
391 479741 804075
392 879840 639138
393 964312 190954
394 28024 117769
395 839948 633582
396 323696 440490
397 252468 377311
398 436782 220721
399 922903 202894
400 24438 -8056
401 971788 119467
402 264894 461830
403 849030 597015
404 900460 199135
405 6000 172240
406 42849 108996
407 979264 140223
408 907116 595650
409 296925 765767
410 26211 83634
411 890321 613741
412 403559 236143
413 451363 725883
414 4905 36259
415 68828 146306
416 895101 617532
417 316102 356938
418 61537 133951
419 458975 801962
420 370179 784738
421 321253 411735
422 893498 234006
423 382524 760528
424 335600 795312
425 -5263 27696
426 407529 218658
427 452838 212505
428 952285 642954
429 42591 6517
430 32831 92739
431 -22 5631
432 288711 340037
433 335823 443103
434 84337 -7305
435 381939 741173
436 108288 107776
437 943386 656546
438 7049 149447
439 363451 768495
440 338756 799323
441 31944 28025
442 971090 222192
443 1004117 212141
444 951877 541130
445 429364 258065
446 274282 433045
447 980785 207685
448 435988 809887
449 879336 589360
450 65533 80756
451 93226 34709
452 347715 412672
453 79779 125541
454 357404 815665
455 847164 564327
456 459331 781898
457 922737 160684
458 920928 167894
459 938561 126575
460 310051 455291
461 404617 223317
462 8295 89900
463 400706 806004
464 76697 -16534
465 435675 267829
466 47124 48797
467 442633 259614
468 345721 834254
469 10230 196346
470 5024 1577
471 371137 410268
472 411046 149465
473 892751 632994
474 871943 582682
475 369855 363676
476 918910 129168
477 426786 287356
478 435632 208571
479 426140 250082
480 316270 823231
481 333246 446212
482 288678 340678
483 439361 305542
484 371423 739889
485 51887 171273
486 366502 261295
487 995463 164038
488 66238 40355
489 330569 413874
490 456449 744008
491 -1574 65191
492 944039 196424
493 492821 763176
494 52494 65257
495 907466 149067
496 293834 400233
497 311652 791790
498 10261 68479
499 448260 804420
500 420488 850528
501 888008 618828
502 294038 404210
503 269974 397730
504 959830 124561
505 76894 26143
506 349156 805239
507 348839 802628
508 346144 249320
509 904875 648292
510 349804 794859
511 924838 667626
512 29986 169209
513 1015609 192392
514 247161 404081
515 24231 106718
516 981426 221436
517 874457 597451
518 903339 137885
519 904203 610101
520 256356 388590
521 72406 -30775
522 388351 819944
523 11210 178033
524 338927 787132
525 402234 821209
526 57983 136072
527 396197 318624
528 96428 105498
529 99341 37237
530 374666 758050
531 463415 792580
532 390221 818605
533 54684 9216
534 430030 211321
535 301714 404751
536 431187 314178
537 241063 406615
538 48864 29660
539 281242 421266
540 422483 798455
541 957384 157646
542 356246 414361
543 277748 445394
544 430855 856227
545 368093 758291
546 924367 627799
547 1004697 217324
548 449408 799256
549 372167 778913
550 895913 600190
551 67097 186266
552 310074 772141
553 885735 609973
554 334858 820916
555 883903 590536
556 311475 741418
557 80962 57084
558 316635 398313
559 374170 276931
560 28229 86815
561 499084 832951
562 383145 759211
563 1001904 168124
564 1030255 182330
565 102845 131339
566 892992 631467
567 849984 645902
568 335018 334780
569 395855 790398
570 115576 87212
571 401563 819576
572 334844 349575
573 907879 581221
574 405200 240453
575 412227 783997
576 -16073 72899
577 352849 729386
578 895497 581900
579 425939 738051
580 5347 122936
581 836408 662300
582 70785 41981
583 852515 631861
584 940744 608630
585 68857 162064
586 519513 797058
587 80886 76717
588 374477 370594
589 132917 118074
590 883730 599346
591 423777 823219
592 971281 138849
593 390315 270808
594 404654 793292
595 81709 112123
596 16844 19300
597 6708 73439
598 871883 635728
599 -32322 24849
600 3704 -2646
601 467271 222375
602 416158 804551
603 423751 787921
604 475390 845823
605 450763 821042
606 442994 766446
607 132954 98669
608 80620 107743
609 883062 129770
610 26474 42228
611 402789 205760
612 916237 593340
613 114545 129821
614 917039 638351
615 363143 799800
616 -50733 -32
617 417622 818923
618 35343 7398
619 417571 247812
620 436467 764558
621 335570 400840
622 308198 486866
623 896076 564234
624 359595 777660
625 425155 798388
626 -35872 -7668
627 87689 63541
628 989084 139571
629 342366 394714
630 423149 749024
631 33804 -24725
632 450971 222878
633 913343 610884
634 373247 794975
635 29155 -6520
636 328807 405744
637 44222 2003
638 317 83807
639 929799 212178
640 65153 18519
641 1029648 113104
642 956872 201210
643 295145 409886
644 390287 753271
645 431529 223031
646 324686 723297
647 100732 163502
648 985660 201802
649 376427 195207
650 938082 199545
651 28672 70917
652 395896 875451
653 99851 132556
654 68958 109576
655 30980 104834
656 309326 807876
657 92219 163646
658 95999 82593
659 909730 121333
660 367480 795226
661 335655 799034
662 315856 432741
663 409309 832836
664 937230 122159
665 63199 122060
666 892332 592304
667 363103 725772
668 359270 794092
669 275116 468962
670 387187 725458
671 76790 110947
672 374816 804370
673 412361 209265
674 50580 88408
675 270352 376617
676 947765 219805
677 419542 177609
678 47509 72726
679 256353 436873
680 5189 101179
681 125019 140827
682 341042 792504
683 931580 649387
684 354599 802061
685 66397 79961
686 966987 206310
687 472545 300042
688 962247 126003
689 865427 595679
690 368101 239895
691 897733 172609
692 54761 78517
693 428788 794909
694 401727 853471
695 -17111 105872
696 381078 789747
697 457450 313572
698 391424 263460
699 352173 752724
700 959548 221150
701 943646 167999
702 351642 774230
703 350624 220525
704 894493 665532
705 341468 785175
706 464694 809276
707 36064 23965
708 430567 314287
709 884117 610308
710 467201 806067
711 976552 183577
712 455213 778026
713 19214 40857
714 978163 135999
715 267707 378194
716 469022 781234
717 324269 812866
718 880956 651475
719 891862 648305
720 929749 183037
721 362353 797624
722 300795 439237
723 504440 813402
724 13872 76220
725 375574 269062
726 42506 25778
727 862287 568297
728 337402 466676
729 409131 209275
730 495079 822320
731 343820 754108
732 421849 747860
733 63966 71774
734 365414 270340
735 304882 417171
736 915839 175356
737 44510 25735
738 422078 221759
739 480548 732843
740 296457 402362
741 426134 807936
742 835137 592781
743 47455 -15224
744 304505 364373
745 949772 656534
746 928780 146082
747 3191 152819
748 299113 421496
749 461486 250247
750 85039 171217
751 350205 234929
752 863356 645727
753 840620 586206
754 86965 135531
755 394140 830556
756 497256 785753
757 465392 833923
758 94713 83535
759 845405 656016
760 420777 306378
761 979791 225427
762 285820 389073
763 904428 663211
764 346740 784777
765 913051 631173
766 94260 -84
767 246550 453765
768 402873 840879
769 80474 155497
770 436137 842317
771 72246 91591
772 1013878 617463
773 939297 611489
774 334224 363136
775 465701 816642
776 407487 811023
777 375697 313772
778 293953 414818
779 416182 747282
780 876832 633691
781 -51596 27169
782 973867 200484
783 44408 114713
784 388199 828807
785 351886 808474
786 386021 319533
787 18983 63422
788 295460 398550
789 903501 580805
790 7114 174769
791 -15054 107957
792 415660 235567
793 51009 177191
794 91236 130929
795 34916 11209
796 416363 198398
797 370388 847618
798 341300 429802
799 378963 754664
800 414162 808671
