NAME : portcgen-900-903
COMMENT : portcgen N=900, seed=903
TYPE : TSP
DIMENSION : 900
EDGE_WEIGHT_TYPE : EUC_2D
NODE_COORD_SECTION
1 182950 6236
2 851527 738014
3 397593 232459
4 852515 674119
5 847111 730058
6 148883 342549
7 59668 356547
8 911686 681613
9 660099 275406
10 664146 227531
11 690418 300022
12 636340 753694
13 670457 230390
14 113953 334875
15 644890 444878
16 682656 727565
17 819375 668237
18 635025 436994
19 221730 56932
20 805976 688973
21 391855 208558
22 673644 306024
23 678901 742077
24 435829 288164
25 249911 59593
26 470058 239624
27 229813 49949
28 113934 345850
29 229935 72343
30 444847 312674
31 729636 350911
32 308710 243782
33 539648 691875
34 471682 303415
35 649625 290581
36 838720 728281
37 859648 662215
38 95907 370961
39 877786 677884
40 841665 675104
41 83318 518383
42 236420 63759
43 731697 268562
44 591327 676201
45 183826 -36411
46 683128 335825
47 194109 -4940
48 667263 778923
49 644489 714286
50 404221 309302
51 748921 319032
52 828265 708250
53 215296 18368
54 636993 437802
55 399013 244349
56 661247 429238
57 414716 269396
58 237810 33918
59 673837 731602
60 13303 505326
61 115161 346181
62 707773 324556
63 694255 333661
64 203442 41128
65 644162 484472
66 584902 723221
67 862202 729818
68 666709 425471
69 552419 683697
70 107839 333987
71 144748 565148
72 639687 716886
73 833624 679612
74 457166 284832
75 81553 523987
76 474280 256187
77 835019 748129
78 662366 789464
79 828038 717464
80 837464 726293
81 112976 369028
82 670007 726330
83 882165 753202
84 672587 276135
85 555527 693311
86 633699 474634
87 403788 204276
88 619672 390468
89 535527 727372
90 883381 659005
91 648319 657614
92 728799 449840
93 513676 699014
94 453051 686440
95 56032 347492
96 643537 750533
97 854819 721557
98 103108 382410
99 76180 354203
100 628057 401113
101 682396 437499
102 122567 319667
103 214156 24639
104 573645 733604
105 586106 691953
106 112874 248768
107 839750 694202
108 930461 722214
109 595524 412468
110 64672 523022
111 381651 305857
112 824011 741436
113 403859 264547
114 98759 510237
115 233970 57402
116 90331 334219
117 155331 485741
118 443134 325023
119 622215 509651
120 670945 242563
121 187226 287424
122 204295 -2980
123 862176 703791
124 221133 58493
125 221510 36146
126 547267 653378
127 604427 765061
128 457694 301905
129 138571 386481
130 823404 762333
131 879373 697431
132 837842 665752
133 584443 692331
134 211544 -6530
135 820742 686173
136 227043 41018
137 700317 344497
138 536857 710659
139 413691 232874
140 655263 744610
141 892362 734115
142 625119 747038
143 701308 444246
144 656973 355666
145 66794 318800
146 140085 295426
147 238933 26726
148 193699 63573
149 593453 721870
150 418833 322666
151 416857 360641
152 578000 693104
153 855714 617126
154 863426 680315
155 545341 711369
156 166780 357127
157 428468 226462
158 922013 694507
159 885919 701296
160 60410 452792
161 438308 261549
162 173176 9394
163 319884 43319
164 754253 306735
165 735973 264718
166 950692 717463
167 827571 681624
168 738683 315889
169 683230 384010
170 124589 486232
171 530417 689307
172 629146 431136
173 621749 428187
174 95846 449392
175 602821 434901
176 620486 449108
177 211317 16477
178 877945 691485
179 447262 265604
180 632510 656244
181 629975 821995
182 646505 452689
183 405740 338381
184 713869 345870
185 604407 475808
186 58188 345551
187 122119 537952
188 902149 694192
189 91143 509757
190 263368 27669
191 105090 358013
192 416057 306855
193 860530 711193
194 469545 226742
195 188214 340750
196 382373 286743
197 531017 693265
198 65720 242144
199 600636 457223
200 686392 824067
201 635853 288816
202 579173 773535
203 667693 718702
204 915362 685739
205 204573 1672
206 63245 435043
207 652392 486773
208 429267 280091
209 552161 651955
210 278955 53187
211 140468 266492
212 637046 706634
213 117325 334903
214 629805 420934
215 862418 730744
216 72069 473608
217 443403 279844
218 78202 299559
219 582428 648316
220 667160 442654
221 725903 241560
222 74662 555601
223 572131 490650
224 559393 685806
225 427424 241189
226 51337 464184
227 614974 440591
228 430776 304788
229 712340 797185
230 672641 317258
231 36714 487641
232 240531 25119
233 725755 397691
234 365936 246673
235 853008 727882
236 103882 455820
237 627475 641127
238 638673 472581
239 651762 733674
240 732880 324523
241 599259 733901
242 241812 24888
243 735900 275010
244 392585 323000
245 177869 86675
246 724646 310732
247 739504 272860
248 186479 36391
249 234351 -7011
250 621668 760143
251 133261 518624
252 715749 273956
253 882403 706134
254 228074 68327
255 429195 274902
256 664066 263282
257 430400 300249
258 921266 706789
259 385522 265443
260 382698 278384
261 178790 348639
262 718699 263749
263 686381 737026
264 570890 662843
265 840219 772556
266 729644 300462
267 58245 501168
268 177461 290804
269 869020 682700
270 606539 410727
271 845207 701164
272 588853 694231
273 631255 433036
274 569052 618312
275 697480 267917
276 706816 254443
277 99730 525294
278 596594 754185
279 862932 729335
280 94650 372369
281 675178 820341
282 460005 267392
283 500761 698109
284 715044 730957
285 854487 702123
286 62839 523767
287 576106 620604
288 683757 512156
289 41289 507580
290 242309 50784
291 230252 10441
292 726276 427608
293 682703 791046
294 105724 475026
295 182596 40369
296 657920 359030
297 462690 280043
298 680025 263777
299 366278 265032
300 423053 263019
301 631708 703060
302 696966 230719
303 139636 351944
304 623390 498419
305 548058 429786
306 628505 369750
307 193187 49239
308 143086 360902
309 354311 260288
310 229978 18506
311 98222 342238
312 416267 308140
313 824554 700015
314 462696 292032
315 645818 830992
316 725311 293676
317 546338 629483
318 584323 653246
319 671643 390842
320 584087 672287
321 270808 3265
322 447283 273298
323 667165 415211
324 895960 729409
325 732126 305733
326 447536 266295
327 753750 292712
328 404770 267574
329 36459 537162
330 620158 783138
331 260630 -10835
332 625019 711381
333 695802 757799
334 817129 752455
335 866747 672161
336 799550 736936
337 696738 326210
338 539687 699793
339 758563 703060
340 813991 682209
341 225407 -31301
342 758392 282973
343 109994 305647
344 103272 496837
345 44405 448551
346 682391 435935
347 260770 21360
348 427792 299389
349 94376 309331
350 669534 828487
351 784017 289889
352 806337 675931
353 650430 706315
354 709831 250160
355 883893 706993
356 423967 241429
357 828483 656948
358 617134 745904
359 825072 676986
360 838418 724194
361 189114 44302
362 685842 736684
363 543996 656140
364 869195 728716
365 854156 657871
366 637737 795517
367 878151 727037
368 233899 46696
369 405265 244148
370 867165 705292
371 24191 535938
372 411407 246300
373 639873 444871
374 230486 -32698
375 414555 238864
376 97609 355450
377 683174 360220
378 65778 482377
379 383698 274993
380 876318 663708
381 666304 668890
382 846925 686048
383 221966 8009
384 108620 545521
385 482276 274461
386 402418 275345
387 675671 288207
388 65077 509283
389 652113 757528
390 486914 298989
391 615307 430481
392 888390 703734
393 480294 253432
394 118169 271849
395 118517 356489
396 708359 795686
397 669557 774657
398 557927 671758
399 43435 539766
400 704454 304342
401 873663 653308
402 72910 337897
403 698020 745825
404 725708 283995
405 214607 17743
406 45872 446551
407 658008 247051
408 636782 482141
409 87208 528164
410 217331 292374
411 662651 507696
412 625832 490456
413 598037 646547
414 560935 743218
415 251644 33665
416 232248 35227
417 717339 273136
418 852386 663662
419 530221 676237
420 126891 473893
421 695547 305135
422 692455 740191
423 677086 465400
424 260640 27294
425 58872 498644
426 199214 31482
427 121822 311369
428 650517 751242
429 568316 673982
430 551362 644464
431 751220 291449
432 190470 22432
433 637180 427666
434 83006 502690
435 418892 292908
436 564355 687056
437 138067 318634
438 723321 306850
439 737199 307024
440 235126 32471
441 745428 736447
442 106959 290670
443 844612 724076
444 673524 705843
445 849539 693202
446 80468 553264
447 96398 337249
448 604718 788016
449 565247 660230
450 599051 775815
451 108301 462514
452 82893 360884
453 527035 666738
454 386205 251444
455 233679 15897
456 874148 698226
457 83180 504896
458 151445 245810
459 218992 68180
460 629831 768957
461 123957 292564
462 691815 734874
463 90051 523150
464 616469 440241
465 562968 692175
466 653311 474043
467 674275 793603
468 124281 316130
469 434824 289367
470 226174 74174
471 577593 482988
472 847020 734325
473 695989 330930
474 251825 64039
475 11473 510862
476 411695 290869
477 57668 503808
478 913229 758894
479 67466 517188
480 886789 742566
481 281241 -3907
482 749452 354739
483 587291 661575
484 225718 12603
485 633708 297339
486 568366 735251
487 418529 255920
488 421019 281984
489 458150 262155
490 418238 320630
491 87564 454568
492 638883 449304
493 853412 676073
494 86201 512297
495 578158 667714
496 664306 685735
497 666677 785915
498 90456 462662
499 885370 752028
500 874753 696198
501 113573 463979
502 645646 463033
503 80379 447358
504 544060 676373
505 518878 681892
506 421259 307789
507 145959 309619
508 701182 404029
509 852228 690408
510 601598 681464
511 448788 250259
512 896811 729692
513 683906 234676
514 661827 329647
515 226866 66209
516 690475 291141
517 420498 251646
518 591200 439427
519 836302 707083
520 674012 752991
521 62811 540648
522 130988 303195
523 234918 4015
524 630169 266043
525 715568 316864
526 597064 699238
527 666289 753757
528 691124 766171
529 856135 699379
530 627913 468599
531 186732 56991
532 180330 26267
533 680190 327033
534 414833 269929
535 874206 644807
536 72948 371388
537 890897 711540
538 654801 736553
539 197531 74708
540 50355 478497
541 433093 306368
542 558447 699925
543 682749 316466
544 658960 250682
545 628451 410720
546 686016 299091
547 608562 451407
548 887550 662884
549 408438 276299
550 819105 697110
551 699855 244954
552 872591 713439
553 161165 328250
554 648503 460735
555 700164 487439
556 247421 20410
557 68915 511572
558 241841 18658
559 240240 76797
560 593668 710603
561 696889 770328
562 654588 299097
563 380924 294760
564 191839 36633
565 404680 282195
566 736052 276928
567 704295 422647
568 859509 727794
569 685170 437761
570 679949 296387
571 660878 795203
572 726954 330649
573 865738 689619
574 690926 757807
575 52660 515697
576 466507 293565
577 539907 707198
578 445929 341602
579 569702 470062
580 459938 302673
581 148103 312105
582 859054 705705
583 648965 785592
584 393500 228350
585 678332 712901
586 451068 310694
587 404260 317991
588 212659 -13310
589 677851 764569
590 890468 735649
591 653935 763037
592 233895 22554
593 718359 288669
594 648326 786845
595 511754 682025
596 260380 -27930
597 639174 386118
598 565528 715610
599 33782 506394
600 92728 494838
601 651484 299968
602 206478 8676
603 147230 336969
604 603902 460010
605 99909 400522
606 386819 278470
607 612412 415482
608 179283 356418
609 89421 488521
610 93581 360639
611 894962 690453
612 722315 296384
613 746268 263341
614 287826 8075
615 407555 274710
616 256547 87077
617 193826 319090
618 689162 475937
619 169319 331823
620 853216 703823
621 825936 681260
622 686900 230201
623 539917 643175
624 659631 427985
625 569292 679553
626 710170 804678
627 280675 66356
628 91131 466898
629 812550 651925
630 121122 480859
631 771678 255671
632 681627 833555
633 78593 504400
634 197795 24267
635 612009 649077
636 596134 487153
637 578415 695692
638 720589 218192
639 711294 447257
640 656598 651278
641 90507 466658
642 596650 608569
643 592037 643193
644 675017 705819
645 674830 779256
646 153533 329639
647 267847 7553
648 57495 465690
649 707618 250327
650 705803 763297
651 683397 284479
652 729103 253219
653 668080 296936
654 855273 680656
655 673211 732739
656 475416 253178
657 720875 334844
658 604255 753415
659 566961 692335
660 582054 715605
661 693382 444468
662 207585 72608
663 374670 251728
664 904385 743010
665 677711 762171
666 226001 55347
667 828276 761253
668 647109 755877
669 103171 496805
670 238884 -16214
671 110899 346193
672 610319 459698
673 680285 263885
674 133628 306584
675 56850 429826
676 126627 440815
677 827500 672677
678 638542 721782
679 568081 751994
680 59017 464202
681 182374 37173
682 657365 410950
683 647774 746783
684 102805 301621
685 714002 285258
686 250276 -43681
687 867696 767100
688 419971 288515
689 753163 308430
690 424504 243924
691 429135 311670
692 37626 444314
693 210186 61859
694 646494 760520
695 836884 680238
696 672685 811076
697 97796 272010
698 63246 295190
699 711840 261658
700 827901 742915
701 896129 664518
702 711740 294522
703 430778 249805
704 246102 60331
705 725048 257968
706 235102 8733
707 616996 524050
708 668651 772994
709 160862 284731
710 602249 466267
711 404781 256436
712 627038 421282
713 714488 767873
714 144123 352337
715 725846 226559
716 400211 283721
717 750597 297260
718 387100 302265
719 597857 618423
720 31982 485341
721 153396 327981
722 35226 501981
723 835800 709827
724 637684 399900
725 168715 317990
726 241510 19068
727 165380 329900
728 441806 278682
729 84500 311043
730 926429 698945
731 861383 673113
732 924430 748155
733 65423 465089
734 848157 720088
735 545821 635053
736 627292 451325
737 78288 450194
738 285803 39908
739 568686 684543
740 83170 311905
741 872195 739070
742 504172 691536
743 729301 258685
744 408642 243599
745 621775 650770
746 696878 702227
747 638454 310264
748 717031 318744
749 52901 505717
750 699964 456930
751 366145 295829
752 576520 695332
753 734607 300413
754 576945 680458
755 229880 45379
756 864946 735452
757 650216 744495
758 680282 753170
759 814111 306939
760 706778 275776
761 633671 430525
762 713644 345217
763 94464 495578
764 111015 485854
765 652357 722235
766 719076 333680
767 101556 333462
768 891196 678978
769 394547 302679
770 604213 715166
771 217329 20652
772 49935 482880
773 647364 766539
774 836500 705392
775 444682 291714
776 915343 614248
777 672348 276995
778 133561 485082
779 85226 357261
780 122204 356047
781 627336 333744
782 275357 -10587
783 78338 512371
784 631305 462370
785 569289 653868
786 428319 274647
787 623185 459967
788 697792 791885
789 -7548 527960
790 686968 455786
791 387962 223248
792 423578 275650
793 654275 762918
794 608918 760174
795 67898 500762
796 642699 707505
797 550182 639135
798 404411 268108
799 806599 702555
800 576665 671216
801 838465 743701
802 672186 719026
803 709830 344795
804 65776 542625
805 812505 715643
806 173503 43390
807 382628 218589
808 671364 762747
809 110491 508653
810 81686 535798
811 637203 368027
812 534776 701267
813 507173 665473
814 423541 267126
815 396348 280653
816 142128 283364
817 646799 456699
818 375946 287493
819 879067 693539
820 680174 262400
821 471801 250220
822 814516 702545
823 638395 427656
824 553988 726303
825 691500 716548
826 658358 767703
827 878690 724449
828 50807 497418
829 595440 697266
830 566018 685685
831 504871 715638
832 178839 52168
833 233055 47584
834 867393 718109
835 213342 56061
836 688021 702466
837 712625 372852
838 443301 250028
839 375912 253934
840 134389 373328
841 663980 742110
842 817738 747036
843 58046 486148
844 81734 325237
845 629915 297500
846 67045 500615
847 189338 12873
848 698053 474562
849 645061 433315
850 896014 739988
851 76989 296506
852 572652 684961
853 673098 714605
854 446551 261533
855 394322 325080
856 259463 -46300
857 107436 512117
858 666318 302270
859 642755 769453
860 847480 713067
861 280320 54626
862 647443 460921
863 615972 680422
864 744670 271690
865 672287 449583
866 651154 735783
867 122452 264524
868 724742 235339
869 617051 660001
870 575889 657377
871 555772 680354
872 115349 295820
873 229326 -20733
874 655202 470166
875 253924 11845
876 99551 379597
877 556564 713981
878 252168 100749
879 118074 431896
880 434086 244318
881 661805 485401
882 682737 325435
883 95841 298965
884 114625 391314
885 680940 771982
886 843911 716446
887 619224 281682
888 599646 677556
889 917434 707649
890 408942 290829
891 654223 426659
892 34584 311248
893 38797 505065
894 398087 268439
895 654515 742166
896 884002 692194
897 712546 287257
898 39794 295483
899 653556 799273
900 111492 310354
