NAME : portcgen-1100-1102
COMMENT : portcgen N=1100, seed=1102
TYPE : TSP
DIMENSION : 1100
EDGE_WEIGHT_TYPE : EUC_2D
NODE_COORD_SECTION
1 510827 469445
2 1063707 656534
3 523438 137434
4 911607 475661
5 501143 459437
6 511191 136120
7 497939 129350
8 268987 726218
9 974894 68380
10 634268 66948
11 691771 80499
12 112926 622603
13 304417 708176
14 358046 236487
15 329978 312774
16 111111 971691
17 858155 421396
18 946267 78991
19 448246 472430
20 72971 919252
21 577387 470624
22 105378 628123
23 363365 249126
24 132578 896304
25 977788 672714
26 940773 36225
27 309505 701064
28 528980 430712
29 332704 332596
30 326080 263827
31 305081 713792
32 748280 90697
33 858340 470443
34 983026 675825
35 896230 501821
36 662523 70373
37 109552 939183
38 861627 428593
39 1005044 48004
40 493037 473835
41 267571 766342
42 1019942 687659
43 295067 702048
44 963963 611957
45 993461 759686
46 684894 43638
47 840754 470116
48 725798 118302
49 252716 320708
50 298813 662362
51 535954 181605
52 452850 105669
53 85513 939311
54 990983 695791
55 93935 871832
56 858539 386514
57 975995 42479
58 870880 456523
59 295680 672517
60 511710 160469
61 506736 217085
62 858726 447145
63 56764 917460
64 315707 688071
65 328011 750822
66 493827 162926
67 709505 65568
68 755756 64989
69 309662 266533
70 978405 700948
71 730841 77676
72 65100 1029009
73 526742 446819
74 1002341 693844
75 577923 452754
76 45740 969636
77 505795 452070
78 979992 44570
79 980591 97000
80 1003741 690791
81 975877 77551
82 319335 244949
83 110051 647673
84 804779 388693
85 984235 633275
86 57545 584500
87 305337 714958
88 889141 390412
89 863531 418534
90 574148 443260
91 275416 729135
92 511096 130678
93 563050 499662
94 316780 210738
95 990120 624054
96 116539 573769
97 454592 166414
98 87233 974941
99 718874 94711
100 152197 654837
101 318814 268894
102 999629 85937
103 1018245 683583
104 958919 82125
105 968657 101374
106 306331 717609
107 487560 468433
108 451289 145633
109 448347 181458
110 969192 38938
111 1034228 679776
112 1054882 75791
113 114850 957572
114 979479 695481
115 528295 146571
116 839896 443316
117 54022 981371
118 293373 739476
119 301170 276725
120 458274 467639
121 48225 970970
122 343518 671134
123 460172 129857
124 116807 555835
125 118009 592392
126 730998 72806
127 942382 741059
128 96279 933414
129 541979 444292
130 1013068 715884
131 822877 428411
132 537679 158366
133 54359 963857
134 473448 163584
135 306911 295790
136 470968 128875
137 294519 316270
138 262317 254421
139 299264 223651
140 527952 427164
141 885754 452298
142 849931 437203
143 955918 83808
144 703969 71131
145 122896 589503
146 467429 174859
147 515674 466524
148 267139 686002
149 19272 993645
150 301722 248434
151 494213 178449
152 1007590 45230
153 531918 384658
154 542465 148788
155 976866 693733
156 989431 687623
157 267223 729537
158 15215 895639
159 37558 958480
160 982679 687070
161 996007 633693
162 697577 72264
163 30202 951409
164 906816 463466
165 461555 151554
166 551265 150237
167 308089 676701
168 859879 450666
169 152852 584438
170 508858 452440
171 519315 430937
172 511339 72831
173 696554 38776
174 969429 63096
175 507116 123554
176 556152 403169
177 433271 157156
178 76817 987445
179 731970 94425
180 111630 657178
181 261985 749745
182 109893 547862
183 581775 470932
184 964988 92603
185 678847 71920
186 672215 93578
187 295188 275630
188 998586 66227
189 284941 273019
190 307842 283072
191 955876 644785
192 509361 494737
193 312206 229967
194 898281 457656
195 557195 417636
196 1050262 733661
197 302714 735257
198 911174 480380
199 517525 168264
200 526229 107870
201 264684 701272
202 1003993 85442
203 256393 675289
204 671809 55903
205 669788 58251
206 889801 393997
207 907528 489533
208 678667 58666
209 520819 188555
210 550409 452234
211 143795 886696
212 495600 387627
213 9743 973581
214 324528 695610
215 941730 634930
216 461896 189997
217 30596 936572
218 676619 95310
219 689252 102725
220 478234 183780
221 275887 236878
222 43437 601606
223 509772 167055
224 412452 155914
225 700149 87085
226 483379 437956
227 547693 509865
228 734469 90709
229 678962 79735
230 64026 907419
231 116574 601746
232 967622 51609
233 514115 99858
234 542617 156262
235 477376 200959
236 440161 135424
237 886439 489113
238 524540 144787
239 884354 477771
240 1019270 659044
241 886126 454077
242 761811 97969
243 291248 677324
244 321981 279071
245 703107 79529
246 434478 128675
247 1032436 80035
248 297486 281122
249 305605 209629
250 56073 935073
251 508783 140330
252 76712 639712
253 423269 139723
254 99257 950723
255 278708 701186
256 468483 161639
257 715501 94764
258 333135 743680
259 511070 111013
260 319781 251248
261 998564 679608
262 139819 595395
263 1013729 728252
264 3520 965667
265 488300 404445
266 503793 229110
267 735551 81999
268 986366 62086
269 491156 114344
270 564225 425210
271 276553 691887
272 979654 618736
273 485605 111014
274 437049 137888
275 644598 64029
276 369368 266826
277 142443 601296
278 705483 148996
279 723957 76092
280 1010014 642385
281 849105 436026
282 974949 59772
283 546461 479487
284 515989 110040
285 467963 119436
286 715359 77421
287 519030 449380
288 95219 928671
289 519267 411133
290 704013 46863
291 994061 85098
292 986948 646908
293 675048 73255
294 552671 420389
295 942455 35761
296 255250 199818
297 500963 453311
298 467321 466066
299 971881 125705
300 736950 71769
301 479167 139585
302 468058 149394
303 479882 124525
304 539303 487336
305 990082 86689
306 272164 274945
307 285128 698509
308 548214 156825
309 1002690 710263
310 969052 76391
311 294616 246984
312 913872 78626
313 722090 61376
314 1071867 664935
315 284537 263517
316 986069 57636
317 52352 615907
318 1054678 676117
319 311221 702709
320 964617 712460
321 1040326 684965
322 271151 244472
323 52568 960775
324 675932 118286
325 533452 128446
326 456856 137533
327 819679 408656
328 465457 436579
329 683478 64188
330 272107 266875
331 321721 687143
332 440921 143200
333 306225 695668
334 457246 164267
335 290256 694313
336 911925 47888
337 34032 987877
338 957994 666450
339 285513 727562
340 77744 605011
341 981965 48636
342 126572 590594
343 509371 437251
344 451762 87950
345 341109 263638
346 517929 511126
347 283585 306605
348 151423 549252
349 849076 453566
350 1014769 707994
351 892131 92721
352 52773 945478
353 551614 458946
354 525962 509999
355 440375 215534
356 320278 324072
357 675151 105563
358 73867 894947
359 522226 159222
360 740151 111603
361 709000 86421
362 757568 50359
363 936473 633367
364 448421 128673
365 80359 604907
366 308478 666824
367 61141 930665
368 517755 130617
369 508888 132208
370 545734 430591
371 1041357 56634
372 123960 920872
373 292982 681056
374 556225 444489
375 282554 277737
376 708860 36445
377 43418 926321
378 303526 241261
379 673343 46646
380 980189 650932
381 317615 696886
382 985727 672814
383 483391 172551
384 533330 463054
385 59353 949632
386 480487 172261
387 906691 424307
388 453590 131982
389 839668 461179
390 97059 616619
391 541786 438692
392 236402 254101
393 276046 226919
394 343339 713748
395 947774 670505
396 999770 29365
397 52671 885156
398 333911 255763
399 831159 390469
400 690210 79397
401 333883 253941
402 978141 51171
403 705251 104703
404 276530 679470
405 310459 265586
406 283528 640729
407 39289 635022
408 539974 91924
409 943364 35718
410 874452 467097
411 255776 666829
412 960567 706091
413 110996 626627
414 384444 272827
415 292358 267024
416 984615 99387
417 673097 91130
418 509881 124890
419 302917 289517
420 94439 601560
421 535417 143646
422 250583 295217
423 863788 499901
424 505041 186294
425 730892 38758
426 477602 146942
427 99808 582166
428 72818 576043
429 944061 48845
430 490662 473179
431 524612 104594
432 307825 720365
433 959190 49212
434 515816 451526
435 23131 924011
436 547898 172308
437 1012124 37009
438 288774 234072
439 270765 297024
440 331473 268556
441 842717 462456
442 311101 268378
443 312895 755119
444 1031276 685130
445 285649 737153
446 512134 451158
447 1061192 724457
448 934936 69277
449 86497 625344
450 466655 196931
451 70342 629444
452 55438 968351
453 37815 960210
454 522223 165894
455 109401 963337
456 582102 499992
457 584354 453907
458 898983 409056
459 172669 604382
460 1008782 86738
461 291017 692337
462 1018531 687376
463 1005020 65372
464 148528 593602
465 1087269 649589
466 707638 120014
467 67942 955192
468 46820 944690
469 1037964 703151
470 727526 98903
471 936542 38478
472 540816 455422
473 989413 716976
474 524725 190926
475 463019 459271
476 545571 432235
477 83317 593896
478 465736 196147
479 998264 680889
480 499727 219128
481 442327 123809
482 323345 733520
483 337470 247675
484 999771 730277
485 300653 686853
486 531479 466062
487 1020988 734774
488 92987 901669
489 520542 155078
490 841859 484188
491 995335 620619
492 468794 151375
493 133120 525056
494 108366 593574
495 525226 405307
496 298965 729381
497 304383 639918
498 300078 318296
499 573971 450558
500 238253 643950
501 82907 942342
502 440694 136949
503 972888 39076
504 305899 223640
505 943145 443279
506 860445 468330
507 701566 39468
508 134173 575626
509 491818 434277
510 656865 44637
511 65819 926134
512 439635 157698
513 955587 67381
514 736813 43777
515 497360 464639
516 485687 162896
517 562026 500513
518 507618 461482
519 426301 145363
520 1010313 65492
521 66897 961546
522 681708 95916
523 519056 452026
524 989317 705841
525 550388 160927
526 309395 362353
527 724035 29216
528 334472 783235
529 364836 667382
530 1002906 654594
531 57277 902485
532 313638 225947
533 298239 253971
534 26308 958458
535 535191 87635
536 830309 449591
537 958316 87677
538 304756 751284
539 1022268 670041
540 1002734 665214
541 316813 730557
542 971386 710614
543 814914 404124
544 89847 565621
545 870792 427028
546 566848 460257
547 998520 70823
548 602754 446604
549 517616 483740
550 322889 725129
551 843930 442266
552 873774 403015
553 795528 100555
554 288531 665145
555 996806 19019
556 448628 184997
557 289126 689177
558 37479 964110
559 580796 412432
560 317735 682632
561 670073 164329
562 263970 240977
563 824694 467277
564 1005519 649206
565 1000974 688801
566 543956 169942
567 1007792 679621
568 128731 573485
569 29130 954661
570 296987 255079
571 88503 989720
572 581466 425498
573 537690 166052
574 107286 917484
575 317512 306526
576 709758 74907
577 106600 555057
578 566610 452398
579 705637 71236
580 511292 109163
581 861552 428752
582 1025016 686516
583 455531 184770
584 716957 67844
585 843102 412108
586 78807 916072
587 148066 889514
588 513873 159665
589 28727 958927
590 886121 450991
591 1041720 61115
592 525015 488887
593 881759 414671
594 724808 56931
595 517735 407611
596 70663 536127
597 56186 923414
598 537404 461266
599 515148 441748
600 958583 83236
601 1030986 680452
602 316112 216141
603 831758 443466
604 531123 137983
605 100995 610438
606 1010345 113541
607 521757 487780
608 484555 170185
609 512894 414225
610 920597 477220
611 1021658 717350
612 993370 132707
613 107465 899057
614 289535 748797
615 1039663 664242
616 48537 905477
617 302416 246898
618 259291 707604
619 718350 63381
620 892172 409286
621 519950 146220
622 487967 146476
623 98186 882878
624 675165 96861
625 585103 89910
626 269752 230949
627 980089 768798
628 50994 913930
629 117359 915653
630 479434 183518
631 985487 54765
632 297183 692504
633 687760 83945
634 457954 118223
635 311611 787934
636 644473 36354
637 80208 874341
638 1044769 689331
639 466897 115421
640 257696 681047
641 264031 716900
642 896619 480699
643 134656 551855
644 956821 89172
645 1060496 718984
646 527261 387741
647 725930 76843
648 94752 574992
649 302457 675212
650 981464 711182
651 58316 597661
652 482556 163745
653 504695 120635
654 155131 596099
655 461758 173151
656 338173 702579
657 267855 715032
658 248050 706345
659 727630 86000
660 506632 114292
661 464743 200159
662 929766 111759
663 86895 979611
664 57836 957367
665 522916 407723
666 975362 714802
667 469603 161677
668 131375 594474
669 499114 184036
670 493265 164296
671 966812 66383
672 479009 192358
673 116838 563121
674 447259 222721
675 77181 927136
676 514065 142288
677 62439 939417
678 736052 91144
679 467473 157512
680 827621 408213
681 481522 423086
682 940206 73749
683 967260 44872
684 990026 706862
685 487256 158996
686 354714 668294
687 990657 726488
688 548805 92628
689 892468 407655
690 508829 161368
691 847253 417267
692 89295 619647
693 134233 592661
694 355825 261994
695 1007182 676040
696 104368 960663
697 125364 633754
698 962703 66908
699 857630 426318
700 801966 381083
701 456143 143108
702 864582 387154
703 472498 141287
704 1009249 659451
705 79622 941216
706 705623 95148
707 684520 96411
708 329714 279154
709 237231 227724
710 491139 182644
711 720459 101878
712 731200 26410
713 865049 425525
714 363187 715604
715 33099 939265
716 481722 215151
717 912504 460089
718 955661 55035
719 749328 74333
720 95214 604584
721 460751 156437
722 99662 589623
723 672527 -1861
724 314796 678265
725 979773 661150
726 513143 379971
727 852648 406734
728 406891 180722
729 518995 443394
730 491848 165046
731 514046 143347
732 328944 257979
733 467281 131398
734 380504 132841
735 995768 79567
736 122513 573822
737 977663 83714
738 636253 63822
739 282309 264209
740 419052 158048
741 450822 227791
742 914476 425058
743 281359 712899
744 467808 407218
745 852492 401818
746 79004 940373
747 449943 195035
748 326928 684119
749 91600 594346
750 492232 75491
751 441533 85816
752 475359 146088
753 798018 55264
754 876308 451717
755 888193 486466
756 58932 938809
757 533223 480587
758 314222 234949
759 900237 477289
760 722498 48281
761 1023159 680864
762 49182 904209
763 506575 59411
764 85053 577851
765 819019 408051
766 94030 917443
767 69566 940095
768 106338 602516
769 331372 699982
770 550416 106662
771 482573 167909
772 320355 710916
773 516765 160712
774 477706 178607
775 851274 399930
776 945644 57742
777 955746 56977
778 377301 719631
779 507799 174417
780 735170 49763
781 82024 555593
782 480532 152738
783 443047 192285
784 529860 438533
785 271887 232326
786 527796 476751
787 521958 423884
788 108253 598966
789 882657 459815
790 104384 948785
791 300064 721188
792 987516 111661
793 492113 491950
794 272006 645373
795 860571 440423
796 978043 38240
797 344969 227371
798 295090 678030
799 510935 139615
800 532233 380746
801 320131 711914
802 545284 170180
803 61828 904518
804 969632 65165
805 959041 102485
806 291715 221039
807 100284 581418
808 851765 462681
809 536880 444155
810 470589 152738
811 822170 464655
812 282441 265034
813 966007 662736
814 55003 918893
815 882559 446056
816 55491 940819
817 317529 749694
818 725837 47849
819 870830 413200
820 864957 428137
821 1008940 690608
822 313469 284455
823 82536 536371
824 78152 602555
825 450396 121581
826 418851 160428
827 904108 442471
828 1022026 123803
829 1028481 33685
830 314777 301969
831 529928 441879
832 42899 959990
833 288007 698219
834 487488 141322
835 498765 429351
836 288724 312334
837 652832 97284
838 880423 449765
839 130865 591047
840 510972 136602
841 59958 867561
842 849382 465815
843 315580 248983
844 161921 541955
845 1012456 649137
846 957049 63227
847 61015 935063
848 70003 900575
849 91396 858778
850 252652 669234
851 120219 561798
852 445012 155922
853 770665 163247
854 509913 473307
855 697033 65315
856 822534 467422
857 496355 156588
858 460054 459411
859 495047 155597
860 903697 425751
861 971846 65939
862 288060 282946
863 63991 889319
864 98412 623234
865 861650 423019
866 1011697 658934
867 64058 618209
868 94971 942911
869 284703 302591
870 888104 444320
871 962852 653932
872 495247 103219
873 1007842 730097
874 408500 175735
875 322452 268931
876 524269 438807
877 894447 450946
878 518088 174892
879 29859 927521
880 1003718 37610
881 311891 252407
882 728716 97334
883 329319 256220
884 126860 944691
885 125147 622172
886 520305 496491
887 123872 582560
888 437113 147428
889 716740 95319
890 996400 657911
891 875107 426258
892 444840 129690
893 848376 392900
894 309359 279742
895 721540 100795
896 457449 158477
897 877501 421398
898 308171 757224
899 506982 483871
900 71854 616768
901 494580 104746
902 950665 52852
903 850864 448317
904 708500 85859
905 295807 661167
906 948025 15688
907 303314 722266
908 496881 159644
909 298028 285207
910 304979 221366
911 509560 423451
912 320029 255795
913 114445 567910
914 22776 954685
915 45496 936304
916 445615 171754
917 516972 467229
918 62312 663403
919 1016126 72825
920 735056 91035
921 961975 679974
922 503059 468262
923 530598 440241
924 331265 707979
925 513480 436312
926 263910 683089
927 41322 955633
928 329934 687268
929 1002712 684118
930 1005771 655501
931 675383 132864
932 88841 619902
933 759176 409319
934 851200 418305
935 960897 30371
936 530864 158484
937 451781 469481
938 321016 728826
939 644199 95757
940 74729 942351
941 528611 426408
942 897642 426474
943 529970 481153
944 876689 452580
945 686640 62371
946 505221 96921
947 94459 591824
948 263937 286224
949 479567 442643
950 478282 424661
951 311075 736164
952 434192 177679
953 46811 969032
954 1030738 686852
955 321497 263547
956 977251 685282
957 536344 91377
958 325409 216600
959 730036 61643
960 359638 220377
961 985031 641205
962 85977 915279
963 300103 247675
964 747455 71635
965 96774 630706
966 533769 415622
967 996736 661931
968 316736 701769
969 961488 132639
970 444809 181844
971 281480 658250
972 878334 427287
973 498973 155251
974 10829 944632
975 1003753 83261
976 883553 474982
977 311969 675175
978 68670 962121
979 378109 677188
980 328750 271307
981 957853 57205
982 643299 102359
983 851311 437109
984 331503 252672
985 705319 66738
986 338648 268365
987 58629 944123
988 1006457 626235
989 503705 132553
990 497303 229569
991 66854 937720
992 327714 201005
993 94311 655817
994 913040 431227
995 744973 113606
996 506835 169537
997 991812 41556
998 305275 656232
999 325924 684139
1000 499480 160285
1001 519976 101510
1002 321557 266155
1003 546228 455079
1004 333956 663491
1005 702370 87296
1006 1038700 707995
1007 330645 700427
1008 866422 465433
1009 97085 940171
1010 719351 61005
1011 435539 124061
1012 66807 938197
1013 296016 284205
1014 303644 714457
1015 292315 231825
1016 244835 742988
1017 697376 91773
1018 442105 121446
1019 288442 665670
1020 36755 954649
1021 489520 196473
1022 973523 56428
1023 508809 89988
1024 573088 412163
1025 48686 918955
1026 892812 411403
1027 1014137 686880
1028 523294 415460
1029 252125 732949
1030 108782 636225
1031 684222 86772
1032 659392 17837
1033 849861 446943
1034 483597 182304
1035 490043 183081
1036 55831 929843
1037 1053281 704449
1038 341496 286129
1039 736837 63902
1040 73183 929735
1041 268369 650332
1042 607281 121920
1043 310839 267263
1044 301027 282609
1045 457582 151348
1046 259234 291496
1047 1005000 99694
1048 310835 281071
1049 475486 175915
1050 301398 675894
1051 509695 472229
1052 429096 119592
1053 124464 965098
1054 999447 645173
1055 841564 370383
1056 327180 715173
1057 522940 118368
1058 725573 87483
1059 883846 466854
1060 516053 431551
1061 30458 972483
1062 85293 567429
1063 504806 428210
1064 66307 906801
1065 64279 605583
1066 951052 679647
1067 57128 970775
1068 1031276 684724
1069 982891 667756
1070 453509 102959
1071 297738 681972
1072 341540 686040
1073 83786 584260
1074 324965 249485
1075 92031 613940
1076 134886 587168
1077 1000758 102203
1078 273259 663092
1079 1035635 67715
1080 979319 619613
1081 282095 699150
1082 359418 638407
1083 491043 173926
1084 547693 169441
1085 107969 610041
1086 881459 372661
1087 648719 95310
1088 334225 282029
1089 700999 72995
1090 107263 575808
1091 942488 33032
1092 461156 171058
1093 492002 497964
1094 554535 423304
1095 79540 955280
1096 942601 706123
1097 285589 230019
1098 921732 687394
1099 694282 68182
1100 46018 991303
