NAME : portcgen-300-307
COMMENT : portcgen N=300, seed=307
TYPE : TSP
DIMENSION : 300
EDGE_WEIGHT_TYPE : EUC_2D
NODE_COORD_SECTION
1 415434 664174
2 684731 424427
3 493684 574789
4 576258 381063
5 667978 392235
6 755230 669466
7 690249 343578
8 815793 404247
9 679705 660176
10 418517 714975
11 734935 813337
12 435259 742811
13 706444 363883
14 417323 630527
15 723148 614024
16 634517 337681
17 408787 601755
18 708075 333179
19 792284 660030
20 646053 627636
21 752617 371115
22 537865 583303
23 303951 622603
24 640435 419233
25 378425 590142
26 613441 642681
27 448838 668633
28 633687 707784
29 479563 561963
30 659215 351124
31 474344 657962
32 443416 509220
33 444231 524006
34 623958 446521
35 556024 668300
36 469825 591005
37 740779 576622
38 734771 350490
39 448558 608103
40 640737 658463
41 570725 358628
42 430150 610944
43 654252 702924
44 642001 611606
45 578058 479935
46 439328 595563
47 662575 383930
48 748216 327388
49 738566 759000
50 634343 405580
51 409722 630150
52 617994 530067
53 411982 625283
54 450211 592262
55 736689 374392
56 779953 720190
57 795027 292819
58 733501 346709
59 692859 694492
60 650379 453454
61 467005 717743
62 729813 650150
63 448711 639414
64 695972 618025
65 653977 340189
66 694115 454846
67 683778 593820
68 433687 649931
69 728757 356174
70 514834 663358
71 349545 658641
72 683799 496347
73 661640 687191
74 638671 374431
75 449908 640042
76 697316 399623
77 656994 706824
78 753284 377964
79 498887 674039
80 629847 375677
81 630600 364735
82 480802 685233
83 641623 377353
84 556367 593110
85 645969 665007
86 779043 652032
87 428411 696573
88 552144 420845
89 425455 620338
90 616959 465630
91 757498 368105
92 708173 670186
93 435808 646699
94 655740 393677
95 722324 419227
96 440144 637367
97 399908 691089
98 439692 600190
99 449167 610421
100 465511 629081
101 577268 373074
102 785303 771859
103 538388 843538
104 339044 554614
105 747419 371509
106 645874 319691
107 730604 688692
108 674420 412026
109 571290 701713
110 374965 624850
111 456898 631962
112 726340 666227
113 621287 670300
114 743734 660076
115 398900 534498
116 486572 615189
117 594262 493032
118 580589 643217
119 499793 587627
120 529667 643703
121 738818 655497
122 477847 695266
123 742597 574005
124 354453 760631
125 578914 609943
126 668347 494169
127 618864 405777
128 695433 610786
129 463862 687510
130 655399 649874
131 710732 582157
132 705457 380312
133 703485 504116
134 633824 559128
135 698775 465543
136 726585 455230
137 378920 595296
138 636371 309054
139 415187 652529
140 398010 700437
141 716900 365218
142 703473 358428
143 439175 647747
144 478081 679529
145 682676 362436
146 749206 666551
147 727523 377031
148 722472 623478
149 641507 350918
150 647439 361476
151 801690 642383
152 671168 448062
153 642787 639320
154 723415 329400
155 692354 615351
156 490990 524591
157 841436 608914
158 619721 389730
159 579873 511051
160 699126 622112
161 705196 449370
162 678673 366164
163 782530 453038
164 624148 707266
165 647152 353961
166 710701 704973
167 780279 597629
168 775369 318507
169 807530 636897
170 509932 562638
171 697612 639660
172 641775 661305
173 469149 615533
174 636146 475682
175 498354 598357
176 757244 275953
177 737473 614272
178 505723 609103
179 627109 428374
180 520450 710139
181 537489 642683
182 716304 814928
183 406400 725025
184 728992 373170
185 684897 643097
186 847538 277154
187 356432 622964
188 702024 389681
189 775755 609514
190 392903 611518
191 737148 420514
192 620488 380040
193 522977 672136
194 482103 607994
195 629221 323091
196 525333 630176
197 641565 337514
198 412861 662328
199 748297 545929
200 520262 698482
201 745208 744292
202 469817 594380
203 470427 581772
204 661215 641892
205 723601 654920
206 717207 344365
207 753331 641234
208 713081 702308
209 515840 569373
210 649340 734996
211 585761 396789
212 743650 586577
213 431114 611361
214 774467 372187
215 658538 441511
216 505105 702448
217 731159 424695
218 681546 684009
219 766919 700632
220 646467 355102
221 445056 629266
222 660782 687704
223 634362 325956
224 831754 636555
225 473120 595418
226 650333 372032
227 690407 431572
228 692090 641030
229 678471 482043
230 664856 372696
231 417225 693941
232 756515 733459
233 710540 681472
234 639036 366052
235 815441 636780
236 602515 703042
237 507327 623896
238 422764 681357
239 697447 285646
240 716000 749864
241 560740 477672
242 660810 367903
243 628746 451201
244 728056 685357
245 808405 553584
246 430132 677011
247 695000 678181
248 707473 425893
249 489298 685890
250 731465 751213
251 759225 408965
252 735913 413807
253 741818 765032
254 591767 665628
255 691087 700844
256 770946 729402
257 517894 672290
258 745138 690658
259 678223 576106
260 458545 621264
261 749363 622370
262 402113 656367
263 646715 680749
264 365312 754296
265 452888 640519
266 449767 714817
267 480990 498706
268 498712 480796
269 649822 349527
270 718357 385022
271 687795 399983
272 797096 432713
273 663561 403555
274 670177 335578
275 664323 321782
276 418551 586686
277 729794 622949
278 751795 638988
279 703949 456103
280 412221 686593
281 518941 746095
282 832320 715300
283 658306 433186
284 673088 596938
285 760266 633585
286 694231 656880
287 369419 595603
288 718837 319985
289 465586 634377
290 683956 628196
291 744123 554495
292 457816 560758
293 670033 591647
294 727167 704534
295 607273 445108
296 578638 425949
297 416557 626355
298 754461 629711
299 487861 542840
300 855797 779249
