NAME : portcgen-700-705
COMMENT : portcgen N=700, seed=705
TYPE : TSP
DIMENSION : 700
EDGE_WEIGHT_TYPE : EUC_2D
NODE_COORD_SECTION
1 296407 1002388
2 430292 1003958
3 397932 960718
4 373416 753731
5 119989 159122
6 488934 749426
7 351025 991572
8 56586 95065
9 354213 730957
10 422850 911528
11 736789 179094
12 501674 984064
13 359426 1022229
14 -2618 954652
15 430086 753690
16 404824 773202
17 94982 96786
18 405236 1022221
19 387528 932215
20 322441 961888
21 404522 928876
22 970988 600681
23 326354 912538
24 311510 980746
25 -26059 858249
26 1043883 576788
27 404065 735716
28 25198 883193
29 542925 1002534
30 361143 746279
31 996087 586174
32 333844 863313
33 684599 168915
34 427563 785423
35 642922 167199
36 1026286 616079
37 79553 90896
38 376684 737847
39 346992 931462
40 20829 913507
41 435255 709198
42 377430 962790
43 794711 222250
44 1024246 587368
45 353485 951098
46 1189 853998
47 427553 971021
48 447012 776105
49 984541 508103
50 -41496 883183
51 306469 1031198
52 324211 965745
53 388767 960923
54 976036 587027
55 456601 1013391
56 342389 1000157
57 73171 105979
58 385376 747411
59 1012507 532355
60 385902 945630
61 451104 935616
62 973001 608897
63 -23509 871856
64 62928 106459
65 352039 962527
66 706254 131165
67 348581 997789
68 391861 791130
69 61910 131517
70 712106 194370
71 431813 970455
72 961026 597398
73 771186 129675
74 117233 55974
75 401880 723407
76 17119 903909
77 311884 1037515
78 479930 955765
79 365902 971530
80 374599 726742
81 988473 583839
82 997323 533729
83 72201 139970
84 7275 892087
85 416359 733039
86 352215 949906
87 330540 964627
88 111594 113854
89 93386 136206
90 681483 222285
91 24183 899853
92 727652 135570
93 433444 978521
94 439754 998698
95 697661 228379
96 -7980 938979
97 15514 881623
98 66824 201690
99 104453 151435
100 117462 103493
101 -59964 867484
102 418881 760169
103 726876 230325
104 496522 1004475
105 357912 964385
106 359652 955440
107 -8800 769014
108 64764 101363
109 359233 1032547
110 629019 190087
111 41433 920624
112 28221 99284
113 16678 936390
114 322860 958248
115 114106 122526
116 328466 763514
117 -33549 799195
118 952146 604724
119 417375 793476
120 999789 593428
121 713220 221911
122 457731 983630
123 -49903 956378
124 985251 613226
125 73657 99117
126 171968 105615
127 385569 764801
128 40846 97809
129 755127 151587
130 46512 871382
131 342608 965000
132 419751 754043
133 754647 123197
134 807583 187798
135 352519 749154
136 719712 182466
137 379155 949261
138 8201 886723
139 121194 168696
140 906702 575964
141 1028584 582612
142 365719 770909
143 313469 995732
144 25547 974755
145 60701 890506
146 316705 908926
147 343484 958478
148 430878 948991
149 410865 1083796
150 12751 815022
151 448233 925126
152 957476 540947
153 777818 190433
154 89089 134645
155 105022 141579
156 403743 693811
157 439148 961663
158 374462 737366
159 72028 153311
160 376110 970703
161 173925 130508
162 353914 820051
163 68593 862238
164 933771 568837
165 358947 736403
166 418801 976079
167 632667 238507
168 378652 1002902
169 945794 593985
170 48461 167568
171 682009 164880
172 997980 604432
173 332210 946665
174 973988 533926
175 725178 142927
176 -19921 919775
177 38333 90635
178 386005 739878
179 420251 960446
180 357075 760760
181 -55161 877387
182 712974 75477
183 983159 676848
184 137757 182836
185 52664 956916
186 -9566 847662
187 129153 125775
188 683663 162084
189 1010948 629899
190 378148 794949
191 480431 816296
192 454761 673387
193 388166 946193
194 41301 160112
195 435873 934354
196 437243 994851
197 456809 896611
198 1005233 568564
199 939944 577598
200 893408 558538
201 729394 183728
202 371138 1017001
203 124865 70969
204 378761 917625
205 331426 996040
206 487249 937977
207 990942 569160
208 933701 586655
209 -5450 859754
210 355927 952924
211 71199 78081
212 955581 600208
213 -14782 892841
214 304396 1031848
215 488534 1021288
216 340412 791138
217 375721 992874
218 399754 784577
219 465611 776122
220 430498 968545
221 704387 190672
222 354370 772141
223 608056 220059
224 109853 116836
225 419676 791874
226 -82699 876505
227 935595 532121
228 436431 702963
229 428882 978561
230 358759 876409
231 403296 997671
232 388978 735763
233 1050308 602508
234 467695 999389
235 368708 993405
236 763079 182277
237 1008575 586268
238 318934 915946
239 393379 777829
240 955512 535701
241 407599 872167
242 437564 1035824
243 1053942 600895
244 387181 730571
245 384552 965024
246 304659 963250
247 -68718 816002
248 470761 898909
249 397420 1033123
250 380374 1021012
251 40442 868458
252 411557 1003022
253 418185 788639
254 123783 116288
255 1058172 548141
256 1000290 631753
257 962946 613060
258 390363 707685
259 758349 124807
260 413007 713684
261 294569 730858
262 799880 192132
263 723658 222216
264 1011785 577258
265 16445 913916
266 382379 687173
267 388120 678158
268 959572 538974
269 311745 1028081
270 35507 908525
271 -12006 900612
272 926364 518658
273 763021 190049
274 713109 204334
275 908579 667411
276 417409 935041
277 394886 964448
278 994737 600860
279 496321 1001995
280 365773 725412
281 402244 913814
282 362869 984947
283 376290 768877
284 415815 712482
285 1030257 563752
286 -4220 967868
287 886958 673817
288 112999 207853
289 24234 957965
290 7227 868269
291 397942 1032524
292 435771 1012981
293 993982 586762
294 430970 985376
295 665660 109455
296 49560 76231
297 -34244 889994
298 457590 929070
299 329544 957172
300 2388 948711
301 162974 135162
302 678510 116770
303 412917 763381
304 455311 923981
305 363576 996289
306 435670 720665
307 362878 735436
308 92794 77933
309 445467 963118
310 69508 177769
311 1045115 578511
312 1021953 583485
313 696980 205455
314 77238 51448
315 1032055 628617
316 100785 39759
317 96230 41072
318 459733 993499
319 749137 171413
320 60381 126223
321 131107 129871
322 410806 971109
323 99343 127951
324 677872 206497
325 726362 106803
326 15795 915678
327 354415 970765
328 29046 856529
329 403895 1032904
330 442491 909593
331 404678 730053
332 63031 169615
333 690016 154163
334 326318 1010896
335 304473 714988
336 927240 666444
337 466239 942988
338 713881 194642
339 449989 987180
340 50369 161268
341 970981 533723
342 323572 975861
343 377001 1013927
344 -13770 832180
345 53334 60412
346 463793 766804
347 339673 950676
348 -6979 906793
349 83806 138135
350 30675 209874
351 339692 810703
352 375366 887714
353 -30629 887924
354 67246 964829
355 336461 739745
356 99197 75016
357 33519 930691
358 467210 1050830
359 414564 760179
360 102329 135699
361 399850 960966
362 449371 945847
363 421495 782304
364 292837 991261
365 409032 794450
366 413063 961145
367 702968 219742
368 395445 819281
369 433642 967376
370 -42978 854800
371 725306 205387
372 343231 938976
373 978995 528654
374 671389 192388
375 708818 183169
376 988989 565971
377 694683 179508
378 41356 930086
379 386354 929690
380 380927 1011157
381 688175 210774
382 98750 64760
383 79889 879426
384 730530 197224
385 86055 60467
386 74482 110124
387 63842 122361
388 425637 961084
389 52195 115833
390 33310 761201
391 431984 807438
392 498774 920606
393 912674 570634
394 55692 101911
395 380107 757556
396 400284 776782
397 716324 163133
398 6657 878257
399 -444 879445
400 66705 127299
401 347875 688277
402 399834 721314
403 410994 993310
404 723099 168181
405 967549 519243
406 380268 703040
407 -6377 854596
408 7870 858100
409 435121 1023363
410 639116 122110
411 392360 983113
412 7717 904201
413 168659 145718
414 966902 575869
415 955498 588811
416 1004480 536680
417 1006499 552204
418 55802 170638
419 650915 194444
420 339333 761560
421 960695 495238
422 150850 108971
423 389928 960260
424 313407 768534
425 406602 938938
426 485171 996211
427 668716 162634
428 194502 102152
429 342021 973024
430 440385 949448
431 982307 595217
432 1023659 496973
433 381689 684610
434 421049 976713
435 -22086 839966
436 110737 117243
437 166737 96056
438 317271 981163
439 456468 1022737
440 999258 615218
441 692745 158120
442 -1440 809236
443 392075 1051937
444 382931 753625
445 339991 791779
446 125358 90102
447 362257 702240
448 421425 979254
449 392878 934325
450 1010344 570385
451 355799 761167
452 390125 1005157
453 60583 897252
454 23439 107442
455 344573 969563
456 4178 890661
457 486216 988502
458 1019971 565400
459 56825 161870
460 325170 1010668
461 370678 995818
462 -22617 908726
463 54585 162659
464 1002164 609570
465 -15284 935003
466 424051 992771
467 91921 132660
468 483977 1011583
469 676160 232480
470 98845 76552
471 379656 987597
472 699270 144556
473 -40378 889997
474 433553 966248
475 50304 94666
476 986853 592146
477 758361 217933
478 962219 584741
479 403433 915027
480 913852 605996
481 110748 101213
482 136047 57070
483 317254 920532
484 716624 118511
485 408251 1021000
486 -16263 809021
487 428455 992972
488 339039 747481
489 430233 931879
490 366426 804476
491 156417 82001
492 431206 997765
493 978176 592185
494 736220 187540
495 364799 806173
496 100253 51670
497 354336 935622
498 993717 595957
499 103328 837474
500 413178 1066862
501 374874 930006
502 -18251 904904
503 -40084 912625
504 708415 202973
505 696032 172402
506 1011911 576425
507 429131 913615
508 980082 612158
509 415945 976062
510 165191 177333
511 79237 117466
512 335435 1027408
513 326482 898645
514 455795 1044542
515 1048775 568961
516 405872 761120
517 114503 124279
518 32660 128793
519 -30964 894164
520 406595 1041459
521 463170 997978
522 406240 717538
523 656323 182482
524 -107583 908303
525 379937 983967
526 47635 910082
527 662912 167158
528 -58122 881695
529 -19258 869489
530 696745 167570
531 24433 892216
532 -22932 828677
533 716691 190955
534 419738 762783
535 27946 927198
536 17775 61954
537 4952 835294
538 71870 77773
539 422068 985550
540 369223 796108
541 87151 134742
542 318723 761291
543 14211 864461
544 933671 529865
545 437526 900019
546 696299 169865
547 1051145 529449
548 57895 112995
549 996914 579985
550 660655 236969
551 379963 935180
552 685083 166110
553 80622 984698
554 -20259 894757
555 333380 971515
556 31796 878475
557 419734 988143
558 993574 572721
559 3664 855867
560 944588 594356
561 424500 998187
562 960337 618768
563 693088 177361
564 117182 115591
565 116619 115392
566 470596 914758
567 685882 249604
568 408849 839814
569 381388 993929
570 451604 957286
571 115610 93857
572 13282 110522
573 728851 123371
574 108447 160758
575 78230 101137
576 419861 988927
577 365246 905561
578 406192 705250
579 412412 777655
580 347688 967303
581 340609 1001598
582 359359 740018
583 -28965 906470
584 662425 171632
585 958498 547170
586 126803 75204
587 969569 587246
588 10493 901777
589 -12229 891529
590 -2181 901723
591 389558 970669
592 426255 911012
593 289443 980761
594 752681 167340
595 114975 149738
596 18971 962330
597 372296 980332
598 390824 948241
599 445951 956003
600 996448 587518
601 961860 578683
602 396838 792867
603 939282 583245
604 987034 598257
605 692013 142324
606 1004792 583854
607 23100 831168
608 396306 913109
609 459688 969215
610 127088 160678
611 726432 134955
612 678223 171592
613 61089 147976
614 966032 602037
615 -14245 867669
616 952849 631603
617 704442 161701
618 398920 953808
619 472711 956153
620 49360 905968
621 730321 202827
622 104233 158321
623 43653 901770
624 681620 221295
625 467485 938323
626 380947 1019488
627 416309 973418
628 111856 19199
629 -21472 888344
630 490998 943759
631 981603 570395
632 429323 943354
633 961514 556458
634 -22358 938880
635 386777 909313
636 412951 803650
637 925015 602680
638 397780 1012319
639 388243 1001511
640 20838 879752
641 371404 935321
642 102691 144454
643 683372 204438
644 418357 735349
645 66101 148340
646 1037330 528300
647 973711 540401
648 405761 1009099
649 382435 700360
650 399300 720514
651 940783 570104
652 383668 999756
653 379886 938441
654 657308 153975
655 487932 942357
656 519639 936394
657 392611 996690
658 711268 199517
659 66083 149391
660 403463 973509
661 313370 998459
662 37906 71798
663 439413 736336
664 498870 978380
665 -46276 851460
666 727641 179201
667 457772 963905
668 319096 987602
669 668485 154721
670 446377 962835
671 1028365 583329
672 1008580 579200
673 745025 219704
674 718813 163200
675 291779 965983
676 932917 571766
677 427658 958433
678 -5616 888283
679 402197 810261
680 85224 123161
681 432449 961531
682 363667 810515
683 96763 97771
684 367463 961944
685 415657 961589
686 363708 788867
687 352621 829411
688 359938 936649
689 371875 791906
690 974989 532512
691 78477 875249
692 42583 913731
693 369214 785758
694 338689 1051586
695 703307 186629
696 512098 967800
697 53906 186755
698 382511 807367
699 97955 151443
700 992887 549999
