NAME : portcgen-600-610
COMMENT : portcgen N=600, seed=610
TYPE : TSP
DIMENSION : 600
EDGE_WEIGHT_TYPE : EUC_2D
NODE_COORD_SECTION
1 28191 209229
2 866411 696134
3 367834 783297
4 410055 767136
5 115446 232595
6 88506 253238
7 394686 788744
8 743298 690676
9 378301 775492
10 387742 773063
11 439555 764601
12 781761 768277
13 897371 653398
14 501811 815330
15 445565 780825
16 324826 765701
17 405015 742696
18 370286 802778
19 394651 737545
20 758732 713336
21 455632 765036
22 407876 808028
23 367087 815770
24 528158 812087
25 448411 728332
26 28836 238874
27 52589 240381
28 425876 760391
29 520771 754124
30 882753 829937
31 888474 693076
32 394738 753435
33 470892 724624
34 392822 788753
35 917255 733348
36 944409 689855
37 156713 163781
38 465091 815851
39 120914 86673
40 123036 274224
41 839466 788313
42 417990 724990
43 226539 163778
44 467113 826268
45 757431 750711
46 785307 734133
47 909350 808890
48 354527 769105
49 421032 750279
50 48229 209539
51 127884 86559
52 375804 787295
53 919379 728173
54 911711 667054
55 895347 753010
56 849547 729554
57 491597 806755
58 439539 901353
59 759242 741077
60 138175 -33770
61 185798 77167
62 210074 154913
63 426209 796465
64 913853 690460
65 396821 743147
66 935178 768577
67 167061 124281
68 37942 189905
69 936037 660616
70 2501 263766
71 393452 860732
72 483134 732419
73 822537 711312
74 784302 706978
75 91342 194605
76 802608 769713
77 196731 46151
78 339213 770337
79 791547 714902
80 388438 737293
81 27343 222636
82 882689 645035
83 945367 716189
84 24006 241505
85 925002 741075
86 763135 773755
87 178717 103799
88 78571 250922
89 481709 754791
90 854354 738140
91 496340 793615
92 432073 785547
93 380920 754627
94 70139 253174
95 156504 135384
96 993804 769560
97 22778 176145
98 174381 107038
99 969628 764010
100 276149 123347
101 804346 687087
102 160926 74473
103 454745 749531
104 916398 793310
105 361577 822100
106 63829 211097
107 104386 170677
108 831014 762257
109 187518 175138
110 -3671 237598
111 959911 724110
112 698987 737467
113 821264 746351
114 920985 733078
115 890712 800481
116 174722 100672
117 44379 196028
118 402341 768080
119 520017 697009
120 69078 227722
121 236268 52112
122 765787 676503
123 516533 785656
124 391327 810817
125 786593 773434
126 397717 780140
127 729599 737059
128 189334 129780
129 414533 830512
130 220209 62808
131 470737 776454
132 78112 227141
133 188300 129237
134 166223 118371
135 891905 707046
136 791917 818646
137 198422 151843
138 111004 125337
139 430182 779671
140 177617 67605
141 467431 759419
142 227232 109289
143 482494 748455
144 386199 829664
145 74477 240588
146 748113 738948
147 379443 677892
148 959594 705878
149 376534 728700
150 517608 765113
151 873106 689634
152 113244 211026
153 810101 660544
154 231954 107480
155 229542 113174
156 456007 778645
157 448036 780450
158 216662 52818
159 548572 699613
160 395732 805713
161 462625 757749
162 427280 791425
163 36772 223487
164 370211 806684
165 532755 816870
166 468282 857643
167 822327 718343
168 410819 897073
169 478066 732991
170 386862 775140
171 200448 108414
172 455601 804219
173 773293 752383
174 448784 740845
175 448644 765610
176 464085 806594
177 534450 788911
178 132159 69984
179 500954 730025
180 938885 783290
181 132781 190290
182 360652 749355
183 383215 749599
184 168968 112078
185 96459 124316
186 420828 759245
187 459242 793191
188 958150 744558
189 781407 698772
190 42133 239336
191 54974 195160
192 37759 244943
193 878515 710096
194 189473 81242
195 456265 772317
196 960185 722404
197 796910 721920
198 183966 88146
199 413617 855860
200 204015 126881
201 236215 100160
202 782378 795003
203 985072 769267
204 846861 698621
205 238255 114015
206 209239 90539
207 129253 84587
208 388263 771910
209 396704 875881
210 54698 203161
211 970900 720527
212 170216 63461
213 19101 236190
214 189628 87250
215 211237 69713
216 730246 754217
217 506448 822599
218 21638 177796
219 451531 800609
220 441310 775792
221 394352 814763
222 384257 792842
223 969067 732575
224 232560 157162
225 849031 756076
226 412432 766745
227 50618 255844
228 345048 807093
229 449308 784205
230 145459 101036
231 120802 84171
232 771227 737407
233 892139 765156
234 51260 232026
235 759127 779475
236 503159 741119
237 835403 706230
238 89774 175383
239 433343 743778
240 185485 139165
241 24966 226694
242 390139 731554
243 101236 238028
244 892150 775683
245 110759 46132
246 834112 719635
247 792508 689922
248 151558 3225
249 937897 772736
250 398166 723715
251 414867 773417
252 204178 96507
253 804635 763087
254 59783 220785
255 903925 716844
256 333721 742982
257 778927 694838
258 396776 771430
259 7068 229004
260 907883 741532
261 824708 779431
262 515265 730334
263 50156 175564
264 181153 174805
265 444607 714511
266 215610 113592
267 329707 783435
268 815021 719427
269 835016 665349
270 7665 241794
271 891411 716544
272 913686 769597
273 798390 683636
274 63343 204088
275 753549 683113
276 391057 819287
277 367968 839397
278 391595 671725
279 899298 765186
280 11190 193212
281 793937 686396
282 460339 752659
283 523928 652948
284 252746 137077
285 345998 885881
286 491091 796261
287 483044 747124
288 983906 732951
289 911855 696617
290 132760 40161
291 792003 749777
292 94254 194321
293 483872 761140
294 205523 163974
295 922986 815671
296 359419 823219
297 146114 157146
298 505377 734533
299 461436 760198
300 918568 762114
301 45080 226809
302 803256 681045
303 470519 743280
304 400572 773952
305 432378 741475
306 424917 751985
307 63914 110212
308 878187 680652
309 61212 269006
310 202727 119637
311 388171 754238
312 527256 772057
313 786449 672166
314 233497 104171
315 497277 840721
316 822406 717970
317 418955 819502
318 911289 771860
319 141360 115784
320 927754 640033
321 437397 753420
322 349479 827019
323 357453 796064
324 792074 697325
325 225812 108311
326 767037 730194
327 181354 106452
328 340381 754327
329 390504 820100
330 218927 66267
331 951726 685259
332 924825 764964
333 150521 89008
334 235568 89696
335 141326 117552
336 769699 793367
337 457068 775880
338 830593 836420
339 84063 235596
340 255687 93110
341 876761 737242
342 480814 757113
343 967767 705608
344 412982 769769
345 26625 257732
346 438350 721435
347 184377 146086
348 177562 129321
349 436264 768812
350 445630 749142
351 485108 793930
352 203568 143732
353 794412 713928
354 307272 814695
355 466679 780449
356 53217 267466
357 456519 772915
358 846110 750686
359 -3156 235397
360 421984 819703
361 87415 264153
362 55713 153468
363 785351 694838
364 436283 808153
365 801182 711866
366 41674 307665
367 804723 786760
368 32305 203217
369 464855 759174
370 794126 759432
371 343452 751982
372 251155 38065
373 541417 716352
374 306826 787958
375 64629 247947
376 411916 772107
377 1051 214968
378 840194 642531
379 252700 43059
380 6121 174848
381 934841 630473
382 -40134 236029
383 417465 828723
384 443264 812150
385 28404 200930
386 7295 176286
387 775808 754179
388 511552 768741
389 119012 83224
390 879821 709305
391 216022 55850
392 957990 655559
393 400030 759799
394 135601 -44950
395 227062 76431
396 496301 750562
397 173851 10255
398 345724 827494
399 441475 689372
400 128959 293146
401 85056 295308
402 66539 303295
403 957357 725180
404 743194 764432
405 412525 812211
406 951200 745052
407 146756 249866
408 211585 52415
409 919487 734087
410 488822 678877
411 916668 716977
412 520059 825489
413 739606 750528
414 132603 70554
415 465148 774976
416 69883 199584
417 799880 779829
418 443520 746464
419 501111 761293
420 753193 718725
421 151504 56998
422 359636 749615
423 386772 799336
424 454786 758511
425 960434 722519
426 -1400 231340
427 98293 265831
428 884075 747736
429 183546 62282
430 158391 37952
431 485971 782321
432 896472 732856
433 447939 683425
434 89549 308315
435 716156 686037
436 902674 669924
437 477893 810171
438 498243 761632
439 72081 246216
440 793865 683601
441 817444 680834
442 300687 35303
443 467375 733541
444 762623 690600
445 156078 75884
446 229838 89315
447 767823 703415
448 901546 698537
449 122569 268815
450 806776 699515
451 53273 198406
452 354472 777824
453 370908 698221
454 791743 714052
455 809490 747737
456 29211 262574
457 411130 741354
458 408436 736204
459 967762 683909
460 398634 757550
461 934610 722499
462 431007 693175
463 414987 754527
464 444951 767552
465 405893 728890
466 852012 731665
467 804364 723297
468 40171 256020
469 175305 102448
470 227219 58115
471 332344 815651
472 899546 757839
473 795759 755174
474 158535 76662
475 372708 818152
476 14297 214149
477 201239 23969
478 307228 927354
479 234801 90490
480 441965 748541
481 932021 796701
482 869578 665029
483 155458 117418
484 920797 716614
485 84580 273595
486 416279 770854
487 840147 710901
488 424256 761693
489 228397 83139
490 948423 787170
491 790685 731643
492 881249 708623
493 786589 645543
494 731796 788815
495 243347 144565
496 59146 267750
497 -1040 237010
498 277420 78215
499 852608 739949
500 502887 691197
501 212377 59824
502 233348 99444
503 347035 812179
504 746262 648791
505 769194 684112
506 53969 215429
507 801306 723300
508 748254 688974
509 436341 788026
510 403169 780337
511 734832 737111
512 380082 765116
513 188773 149102
514 500447 846994
515 113316 285160
516 443888 756576
517 302032 795195
518 741858 741643
519 461986 756189
520 319227 838322
521 960668 738077
522 851384 689523
523 28254 240834
524 183094 129735
525 911283 685280
526 126367 308844
527 688878 766951
528 952324 802795
529 753557 775742
530 938663 797847
531 96229 270551
532 379433 822957
533 69277 233406
534 488337 774410
535 939987 723712
536 37422 258358
537 829371 799934
538 808639 775579
539 816092 720417
540 233114 90698
541 837651 788105
542 431567 798005
543 93055 235704
544 42378 238330
545 430268 732949
546 921107 777700
547 435271 773194
548 341222 783334
549 964149 673844
550 931454 754216
551 40019 245614
552 448011 799579
553 390685 788052
554 136355 65559
555 475620 680057
556 474444 762181
557 801353 776014
558 126004 65464
559 830223 734941
560 455309 870830
561 426842 780510
562 432950 705334
563 359930 807047
564 241208 139860
565 865279 682432
566 93968 279566
567 738123 800946
568 152141 97908
569 181238 124511
570 70116 262906
571 159126 104524
572 98357 246259
573 882082 804310
574 711755 723689
575 252067 50326
576 371806 729635
577 217019 81155
578 877760 722427
579 429521 765662
580 750198 603007
581 771538 740325
582 85875 177148
583 338767 683043
584 147143 105063
585 467016 804064
586 948870 696560
587 729025 735291
588 25683 185484
589 785138 718075
590 315787 654469
591 98315 307763
592 730677 754811
593 233110 78278
594 810791 759185
595 866292 712072
596 158175 127977
597 174713 112628
598 814867 766061
599 464695 751783
600 421322 763890
