NAME : portcgen-1400-1407
COMMENT : portcgen N=1400, seed=1407
TYPE : TSP
DIMENSION : 1400
EDGE_WEIGHT_TYPE : EUC_2D
NODE_COORD_SECTION
1 181180 353528
2 456669 603642
3 84296 577551
4 207656 675194
5 267766 677733
6 573833 185929
7 559409 412534
8 743138 19427
9 670029 580113
10 200834 389137
11 515404 335692
12 594673 205510
13 440970 600455
14 784830 737637
15 734997 8528
16 561935 415396
17 647584 597679
18 568723 299813
19 247458 687565
20 531640 328365
21 657576 600345
22 497099 612705
23 262067 669138
24 735950 8447
25 245626 212262
26 510274 368563
27 748146 540772
28 217202 676241
29 121100 585466
30 238742 694479
31 620113 571945
32 783444 785695
33 148525 598089
34 205218 358463
35 642248 568090
36 147605 580716
37 236937 713102
38 480456 621354
39 691974 575256
40 622486 419368
41 622618 197857
42 216255 202633
43 110466 569845
44 78321 562391
45 561213 386333
46 586873 363868
47 293889 713043
48 640475 611339
49 195318 340163
50 557723 395884
51 595118 393011
52 669372 629645
53 102402 604567
54 756343 595234
55 623950 134050
56 544596 324483
57 476758 591751
58 771530 763612
59 287849 714245
60 157610 572279
61 93088 587320
62 760086 557636
63 819941 606879
64 170060 147594
65 703750 23605
66 323772 679133
67 237733 709155
68 650450 567215
69 656724 583125
70 600519 291153
71 228440 174798
72 232351 150784
73 551564 326091
74 416496 648845
75 233039 642238
76 631567 202771
77 564749 114395
78 746333 578733
79 225285 683957
80 537205 282805
81 434061 624474
82 779728 46760
83 611393 153411
84 601642 195239
85 200351 224822
86 626614 155485
87 731016 -11256
88 306884 736401
89 522285 343042
90 567510 376594
91 617941 198728
92 571122 387035
93 634266 594126
94 706797 62036
95 119777 528465
96 600434 316561
97 211155 368830
98 751940 561165
99 118284 514326
100 634391 190916
101 605814 163904
102 645070 599791
103 577221 304607
104 619060 350328
105 562190 275186
106 769325 760084
107 755834 8757
108 595254 404686
109 173333 341098
110 556522 400164
111 611474 397058
112 198555 195733
113 778924 754991
114 630819 378959
115 844462 769015
116 223394 349913
117 487593 628753
118 185106 319615
119 606842 447480
120 171531 346999
121 277712 682347
122 606715 574440
123 135475 350850
124 238553 191389
125 542732 275721
126 234294 704402
127 189262 211926
128 607812 364124
129 235535 656656
130 229375 729960
131 437451 581000
132 237150 651634
133 586613 127301
134 221147 349285
135 542145 387400
136 580450 366678
137 635681 615066
138 763255 755123
139 124934 376224
140 113718 557860
141 762403 739820
142 476202 619872
143 615034 457663
144 629488 675639
145 137906 543649
146 568354 281811
147 794092 770141
148 237533 666887
149 606256 418700
150 611096 406977
151 573167 115877
152 256779 689154
153 756587 575216
154 98718 548512
155 436678 633014
156 175228 537734
157 611366 410087
158 766013 560573
159 322796 703563
160 563356 410321
161 776660 748046
162 118806 578777
163 614290 428600
164 567304 375585
165 605665 315854
166 108113 576750
167 686492 600263
168 763011 707001
169 441145 602597
170 201871 199521
171 793761 786784
172 269328 704054
173 622894 598549
174 604037 212481
175 166765 339445
176 569651 359337
177 212998 219401
178 202259 142890
179 632865 201292
180 144551 585276
181 203043 341547
182 613966 434054
183 607187 588810
184 597481 642883
185 617940 391281
186 234819 197858
187 596029 191350
188 609562 411951
189 537634 357351
190 299557 704294
191 309102 702064
192 752476 35590
193 271608 673604
194 574804 273918
195 244488 700078
196 748022 704468
197 564015 301118
198 588267 182900
199 755988 606448
200 228915 194304
201 726972 23130
202 752289 16567
203 226734 196994
204 731529 568428
205 709571 35970
206 212161 686523
207 532107 358685
208 87749 570146
209 327469 694275
210 741780 602988
211 556877 268216
212 713176 739564
213 653410 574251
214 265734 739090
215 636826 429461
216 768178 713659
217 568141 182795
218 581716 335714
219 240730 226212
220 783805 741273
221 206105 663767
222 236815 129293
223 713100 534012
224 234875 691740
225 423974 648889
226 407977 603866
227 555202 339539
228 800010 752567
229 558018 325404
230 497611 311804
231 154492 353384
232 511904 300227
233 189941 662913
234 197793 351919
235 674368 430727
236 542926 355846
237 446044 663473
238 594477 388131
239 434661 634850
240 317143 729981
241 792046 521993
242 134995 553537
243 600756 108113
244 429943 577382
245 642512 612190
246 621608 360618
247 787806 726327
248 588898 303216
249 424826 659289
250 612981 375110
251 567861 355195
252 202548 173325
253 654445 381134
254 285141 691736
255 234138 645365
256 598679 182818
257 626939 368343
258 165305 361739
259 205346 654077
260 749691 77211
261 709933 1321
262 576595 390684
263 633669 366595
264 241845 690381
265 654676 419973
266 198463 671469
267 167825 214118
268 261636 719108
269 619583 194709
270 123675 584999
271 568267 361566
272 465294 583518
273 614306 652606
274 681738 34615
275 734628 55495
276 737725 36420
277 591171 437593
278 758524 12213
279 572046 287320
280 542880 335599
281 454528 620491
282 577627 310423
283 763208 22593
284 603916 117797
285 724671 601380
286 653374 196268
287 712630 -2432
288 647601 617730
289 218469 695071
290 761021 56145
291 251480 198569
292 543921 350058
293 728250 22087
294 67852 561086
295 238968 675800
296 634399 431918
297 423451 632239
298 236976 182964
299 569901 407884
300 792139 724956
301 801206 720697
302 504840 632721
303 569746 351712
304 717500 613347
305 745089 741572
306 259247 177810
307 716319 598535
308 757747 558633
309 242682 677692
310 619124 427484
311 749056 26896
312 768223 721007
313 745583 573506
314 303310 668310
315 224688 175505
316 275826 689086
317 155738 396727
318 790266 58020
319 202208 687304
320 770458 561338
321 717903 519111
322 201828 656962
323 562904 360788
324 436301 598123
325 143657 320153
326 209977 689595
327 136731 577219
328 654838 459789
329 618344 564993
330 734422 568889
331 625685 398865
332 615640 364587
333 794682 25700
334 585921 330374
335 741050 625248
336 220432 703821
337 623876 131664
338 626027 594285
339 436414 625363
340 776647 619737
341 583306 342704
342 635931 602264
343 609638 180016
344 602612 429551
345 275512 224885
346 603175 190156
347 734304 700303
348 583653 336681
349 571666 379285
350 560394 314541
351 616364 165687
352 725831 -4552
353 551955 291012
354 105550 589484
355 426787 592558
356 245150 150610
357 757611 748747
358 85930 524480
359 232885 706765
360 144045 337263
361 467355 616939
362 76659 562766
363 246394 210662
364 425823 625590
365 197730 658459
366 559562 370846
367 605303 398581
368 149892 547202
369 789625 733859
370 149761 572276
371 665537 603661
372 737409 23866
373 210380 687850
374 600694 427291
375 220043 380435
376 534018 399172
377 738725 48625
378 264768 165419
379 676187 207183
380 729754 19532
381 643204 592507
382 438044 655629
383 623743 201926
384 785781 582843
385 744449 53459
386 606521 319950
387 763997 595813
388 136174 542965
389 785769 545153
390 582536 178296
391 183517 182516
392 554967 368276
393 422040 611488
394 760278 52660
395 312703 709724
396 176680 342192
397 668212 640701
398 460255 597027
399 844883 690312
400 613800 183698
401 233983 217815
402 464755 613353
403 149874 537435
404 236634 188782
405 629044 417497
406 206243 195259
407 123593 557762
408 270740 680618
409 691699 608573
410 163622 356041
411 240682 189059
412 759315 576664
413 579533 325283
414 621493 395782
415 634234 441764
416 256210 703019
417 581341 385831
418 645798 400581
419 128077 339015
420 300738 693874
421 262304 735955
422 173570 561204
423 225378 384888
424 569015 319120
425 414872 649243
426 723750 572490
427 134488 536575
428 552566 281972
429 719389 38227
430 807319 702164
431 646993 449403
432 641272 175344
433 599057 150492
434 598368 404970
435 255080 141090
436 709337 771666
437 612629 425646
438 755614 593239
439 798081 772326
440 295786 666164
441 580957 358545
442 554523 321102
443 275279 720952
444 180032 660034
445 583705 291836
446 642614 582442
447 721405 573556
448 736040 67788
449 237808 642907
450 619376 219534
451 430727 574779
452 625583 571063
453 202673 358455
454 740307 586259
455 181972 567354
456 630435 215389
457 250597 628504
458 202537 715401
459 536304 441056
460 211433 150938
461 211679 200910
462 264510 709329
463 660350 623008
464 140038 618869
465 644356 585077
466 220546 194373
467 124872 577101
468 783304 747754
469 166668 378848
470 203899 683872
471 96688 556317
472 553080 448744
473 771466 765016
474 575336 406972
475 143543 605131
476 433309 621316
477 213012 677039
478 627530 601402
479 637982 384714
480 207344 690111
481 577888 335076
482 767582 550421
483 220885 679355
484 130298 375027
485 747033 716397
486 586856 211792
487 212363 218754
488 621390 188494
489 176920 396205
490 588725 364824
491 591409 305256
492 745727 21732
493 649209 431283
494 200619 721757
495 519962 300398
496 244269 201856
497 171342 366366
498 801885 65940
499 422645 639251
500 531326 362553
501 533707 294136
502 224513 672647
503 659271 577507
504 579665 188784
505 722579 -1110
506 781675 767925
507 405352 622797
508 523838 304478
509 245022 703502
510 760323 735811
511 763028 61605
512 771162 36929
513 590208 354937
514 799013 587100
515 563122 295635
516 548251 341666
517 595001 595446
518 789968 47720
519 137596 587019
520 579951 627582
521 458108 625079
522 125999 551977
523 637595 579790
524 591715 385437
525 283394 696093
526 747418 726703
527 630433 142169
528 158039 344013
529 611840 591845
530 606176 346435
531 647318 174802
532 406812 556046
533 801668 778200
534 253938 736245
535 747510 51003
536 580197 380914
537 597563 601122
538 631812 118453
539 696363 577462
540 286665 672201
541 512384 332105
542 713519 81005
543 186425 389183
544 613771 425325
545 131089 528815
546 610905 437780
547 159652 328569
548 244448 669249
549 536857 317568
550 599694 199312
551 226146 719012
552 541040 420470
553 446452 599568
554 609172 594693
555 589351 186299
556 166571 382912
557 265236 690925
558 551979 295592
559 549995 292061
560 671634 615282
561 125254 569661
562 734133 580503
563 741090 728745
564 589760 184398
565 220001 655134
566 574776 344260
567 779511 24425
568 746944 -43962
569 71431 586144
570 609092 337727
571 705784 32415
572 568976 312917
573 572015 377044
574 670693 515899
575 178638 250116
576 618473 545527
577 207350 181473
578 268860 186815
579 606481 567536
580 411984 628881
581 613904 314009
582 591764 388665
583 621102 367100
584 643002 449726
585 699499 17330
586 157533 360865
587 144481 340716
588 729276 46830
589 259884 212432
590 618007 387261
591 131616 329854
592 733745 621960
593 253152 699814
594 739253 582608
595 605003 337891
596 581803 351181
597 629942 570471
598 645695 611236
599 584146 398970
600 597772 280877
601 750953 770553
602 797459 736232
603 178346 400424
604 245959 168701
605 219337 659771
606 252439 742197
607 272496 716303
608 214209 681308
609 618119 583611
610 585118 380965
611 619899 205090
612 650688 595619
613 270263 694183
614 621624 561764
615 116831 596236
616 235814 673335
617 654204 571735
618 560378 198308
619 417140 633140
620 558742 351337
621 751012 584028
622 630295 580496
623 628580 395993
624 791265 589470
625 664682 136552
626 206748 687631
627 535180 345976
628 615473 157418
629 653435 617585
630 791037 767780
631 556327 383391
632 454156 635786
633 121717 552938
634 286301 674327
635 714899 -7864
636 629525 618422
637 178765 418945
638 590854 139782
639 606300 415485
640 258717 233183
641 797641 781392
642 741099 600988
643 587819 368380
644 659524 583906
645 789064 605338
646 646719 549528
647 228523 660819
648 769186 725208
649 210748 304726
650 222298 162548
651 590554 338832
652 727205 764220
653 549246 328316
654 258114 666119
655 246178 671400
656 201621 654575
657 763203 -8364
658 286740 645293
659 243761 650458
660 233795 184943
661 183655 316927
662 204003 361986
663 200132 167752
664 190430 402025
665 533009 369040
666 469352 637276
667 166686 741334
668 778630 591519
669 770746 538979
670 624654 638945
671 146750 530347
672 243188 199306
673 779646 76219
674 631343 581634
675 560920 413556
676 776964 769523
677 101994 548902
678 766388 8161
679 815840 724621
680 252751 666186
681 725499 748653
682 303352 664514
683 113371 615711
684 726033 -10624
685 622378 409589
686 626493 615009
687 787466 727760
688 110682 340799
689 243900 189069
690 652404 405748
691 580986 435625
692 639606 590977
693 291212 686879
694 189410 560554
695 428820 610247
696 224413 699163
697 779065 628954
698 116056 387944
699 556427 364025
700 602487 411510
701 226192 650922
702 618835 405905
703 250580 665968
704 648250 631042
705 772819 746051
706 107025 350830
707 732116 581315
708 577654 403051
709 723304 -1385
710 535585 370181
711 127243 368160
712 81038 596471
713 433062 616041
714 241738 703023
715 461559 640480
716 476208 678164
717 624802 393841
718 198362 363369
719 478285 599882
720 766045 593068
721 152558 590459
722 788209 599023
723 68504 566512
724 566834 382583
725 272572 711314
726 783773 760002
727 745556 588781
728 169484 157914
729 746621 703896
730 767266 604611
731 620823 359482
732 163588 347286
733 585259 383546
734 190376 352895
735 130526 363850
736 606710 146382
737 790892 738162
738 642249 429982
739 595918 392165
740 601271 306882
741 664836 620928
742 648444 494466
743 608604 203772
744 729230 605449
745 198919 190154
746 732289 17398
747 251977 684622
748 780186 683113
749 240573 195596
750 623389 176329
751 613944 311511
752 149846 552783
753 576231 344162
754 587958 192924
755 569597 383708
756 262352 719579
757 756421 51563
758 572346 160188
759 583738 469156
760 563806 358684
761 747871 603747
762 761623 29295
763 655683 558073
764 215022 657823
765 531347 336929
766 584089 244288
767 604807 171945
768 756625 -14
769 574695 268815
770 223354 185026
771 788880 -2283
772 184941 367255
773 199002 363581
774 99120 574190
775 603839 180183
776 382589 630057
777 401089 621219
778 127465 526742
779 748696 7186
780 227834 679291
781 549209 410447
782 669653 596650
783 554652 397210
784 123872 550933
785 769728 57198
786 282289 691291
787 399696 614399
788 589128 299110
789 107273 503859
790 786827 84683
791 607031 183907
792 414207 673233
793 734597 553885
794 216409 684029
795 177783 364038
796 753937 24438
797 606122 593940
798 124647 390670
799 665537 663921
800 643794 606144
801 732496 54730
802 786814 562462
803 724867 67384
804 551753 155554
805 581273 406600
806 252312 683935
807 588637 420244
808 65901 605958
809 741262 54855
810 203329 707188
811 424497 586688
812 758588 584248
813 226959 686638
814 772262 749166
815 591856 159780
816 741392 23856
817 609170 362662
818 613358 216749
819 631593 156956
820 739139 47412
821 208386 701020
822 196021 657821
823 613625 153020
824 501861 644149
825 69109 556101
826 625495 366268
827 588594 628666
828 280058 189087
829 103815 554321
830 187606 371878
831 108135 590415
832 250904 218018
833 647439 429027
834 594520 315937
835 790590 603981
836 608891 358011
837 758247 552310
838 612758 197469
839 640630 592242
840 149246 552329
841 93722 560832
842 672856 436451
843 269217 669490
844 638263 167164
845 252271 661066
846 199718 666521
847 591804 132778
848 658577 633942
849 125989 563645
850 584380 304687
851 289711 718807
852 592949 352567
853 771257 569860
854 573317 314108
855 574486 555666
856 623094 178175
857 118880 325614
858 582408 304249
859 658768 410906
860 220766 337726
861 699815 557503
862 155481 375455
863 196594 656150
864 648129 446996
865 453117 635374
866 454991 685710
867 642748 575707
868 624644 591259
869 414521 650363
870 258712 742468
871 240613 716781
872 432166 603678
873 629390 619029
874 556877 181063
875 246791 740213
876 313168 721765
877 441832 631714
878 248309 704339
879 816880 715852
880 581566 309357
881 626759 624089
882 222322 633552
883 563153 408126
884 144501 610922
885 570278 251164
886 252432 149462
887 239299 674435
888 171409 334812
889 193097 357182
890 257960 748483
891 647167 614132
892 392592 610284
893 627425 358692
894 724971 48366
895 546055 345096
896 658487 143413
897 256859 726150
898 212092 176773
899 434863 618419
900 580563 191916
901 284095 663153
902 751650 -15657
903 444591 600894
904 227000 668962
905 652203 614269
906 783053 733437
907 120431 324618
908 90600 552840
909 777294 35918
910 616201 147152
911 660287 643745
912 253984 225980
913 634228 567312
914 219311 152108
915 422878 592042
916 758088 764394
917 613365 385203
918 222569 224173
919 237098 666051
920 684904 636276
921 745507 15590
922 762498 583085
923 635180 398803
924 178600 595934
925 764710 21655
926 299811 668657
927 608646 191641
928 191992 677734
929 803456 750874
930 162633 324712
931 734993 546282
932 728729 -24973
933 644022 170611
934 579118 573236
935 569990 353429
936 612140 627274
937 438022 613522
938 581511 193448
939 586474 385214
940 622977 378189
941 610497 599164
942 563123 398345
943 583517 366211
944 572796 370966
945 794475 718513
946 132691 545312
947 282130 696992
948 751126 695811
949 285442 637186
950 814210 761375
951 629606 615343
952 431105 609425
953 218097 166004
954 627337 395180
955 781471 12091
956 734949 581049
957 656699 409503
958 248445 703802
959 107020 542105
960 223147 653906
961 611070 161632
962 212482 204143
963 478865 629714
964 561407 309019
965 127304 339222
966 772831 576079
967 421586 624733
968 401528 607619
969 571868 415577
970 293201 705491
971 741924 614858
972 645378 181009
973 244743 704465
974 817137 621253
975 617799 393067
976 525070 407420
977 131624 595634
978 399109 634183
979 833507 751228
980 586735 302646
981 573114 406935
982 824730 762838
983 737142 46817
984 777115 -24822
985 294812 719488
986 222390 649990
987 663084 203725
988 565281 268816
989 170484 344020
990 575825 178958
991 740579 748551
992 570926 311701
993 672372 384322
994 90533 588428
995 567264 315900
996 420001 606504
997 265984 209605
998 724681 1625
999 289344 169638
1000 622869 164685
1001 449854 628966
1002 216979 360270
1003 806493 719974
1004 270364 686031
1005 788277 590995
1006 763493 4858
1007 191902 385130
1008 223207 158005
1009 582256 155253
1010 749815 601978
1011 737861 594859
1012 742126 755001
1013 294173 710848
1014 279590 696921
1015 641102 180848
1016 737567 557496
1017 753128 -6525
1018 780061 78169
1019 188434 353603
1020 584910 370119
1021 202441 357249
1022 699717 603083
1023 645711 202258
1024 548781 322005
1025 626403 576968
1026 188589 225736
1027 200602 379013
1028 639807 200968
1029 614309 365500
1030 275439 699165
1031 636596 413235
1032 154458 338047
1033 551538 424162
1034 603078 369303
1035 255136 178865
1036 749885 4961
1037 622284 441996
1038 211201 175185
1039 128303 543265
1040 433421 639772
1041 126243 549343
1042 327345 676996
1043 237979 206800
1044 389882 612688
1045 597834 618577
1046 687469 94353
1047 736046 10213
1048 625706 582947
1049 694050 582459
1050 474384 628460
1051 179366 327104
1052 587173 348476
1053 779677 21817
1054 554894 313643
1055 141895 349038
1056 437098 605328
1057 563943 394594
1058 611536 136269
1059 750545 -6671
1060 650257 564747
1061 601406 596058
1062 223110 675545
1063 246485 194662
1064 248269 705799
1065 133830 343678
1066 581440 362402
1067 92480 598070
1068 631765 390992
1069 568088 381873
1070 650679 583833
1071 754934 748057
1072 206028 704108
1073 630478 187760
1074 271311 704997
1075 248947 194247
1076 746208 709193
1077 655204 443127
1078 415505 618464
1079 739399 587644
1080 542345 310403
1081 443975 656190
1082 825151 752234
1083 200980 344379
1084 282190 717282
1085 174289 328071
1086 535615 263985
1087 204123 651584
1088 292034 726239
1089 601688 168852
1090 442280 621208
1091 239117 143836
1092 763551 607855
1093 795233 551759
1094 605560 378755
1095 600266 571421
1096 609854 433014
1097 160426 569350
1098 230168 690537
1099 473407 618129
1100 265579 683172
1101 255973 729139
1102 233174 186101
1103 229441 186059
1104 210512 360964
1105 605211 422259
1106 800308 771003
1107 637383 451630
1108 552931 313602
1109 291685 699506
1110 632479 176218
1111 620436 204850
1112 272291 715487
1113 240916 686158
1114 248105 687144
1115 783859 596069
1116 778677 582155
1117 65580 587624
1118 549452 304927
1119 561375 140653
1120 99318 594788
1121 730658 573926
1122 172900 382727
1123 167952 361359
1124 152120 372223
1125 629371 609583
1126 571907 396139
1127 647121 316322
1128 448642 604454
1129 725987 30502
1130 605918 419134
1131 594979 390898
1132 196956 344148
1133 721022 15049
1134 531807 311517
1135 747626 34073
1136 221883 721431
1137 264870 697796
1138 442752 577823
1139 91596 562794
1140 279747 714191
1141 563069 374782
1142 407308 611587
1143 601162 192801
1144 846739 759037
1145 203374 192010
1146 195085 177361
1147 530668 360368
1148 762300 50582
1149 267131 664321
1150 740500 554804
1151 556532 347629
1152 606055 390247
1153 667057 578718
1154 201825 716306
1155 777327 -3340
1156 597613 618079
1157 779582 767759
1158 604901 289480
1159 581491 431642
1160 758528 528458
1161 269716 664618
1162 804589 616218
1163 279750 192774
1164 543900 378870
1165 240054 699603
1166 420564 635566
1167 687785 596231
1168 180199 709785
1169 195771 633822
1170 593391 171808
1171 680893 39022
1172 629761 445105
1173 638093 449771
1174 524668 275017
1175 221605 691937
1176 194736 170282
1177 593616 382378
1178 796077 684265
1179 745119 -2356
1180 241763 174703
1181 434962 623617
1182 531476 397480
1183 688697 28385
1184 227381 157620
1185 294629 673054
1186 611486 573343
1187 75828 582363
1188 224467 195135
1189 133205 554083
1190 266668 701829
1191 279855 650118
1192 283413 714663
1193 536151 351554
1194 97659 573841
1195 743597 605824
1196 728830 743525
1197 755759 569518
1198 641086 149762
1199 227999 656583
1200 183043 697999
1201 733387 39852
1202 727868 7616
1203 206345 212201
1204 189069 380848
1205 469328 627006
1206 772635 746969
1207 140020 316957
1208 622665 621675
1209 162907 435107
1210 621903 387899
1211 178870 361001
1212 433070 653413
1213 792702 743592
1214 750285 526820
1215 653242 150938
1216 597314 384059
1217 799705 744194
1218 433334 598641
1219 447288 650617
1220 172084 698877
1221 602509 262436
1222 585523 352859
1223 774023 26380
1224 78564 611408
1225 753475 574275
1226 156889 550877
1227 535912 432281
1228 746975 727143
1229 166006 355853
1230 198278 187914
1231 740366 54894
1232 196113 161212
1233 288505 703001
1234 750528 67181
1235 601364 343487
1236 597460 352277
1237 743459 577657
1238 778895 552683
1239 755571 720054
1240 256394 123596
1241 572996 165902
1242 212392 668450
1243 177454 667594
1244 194417 358991
1245 218598 711745
1246 208736 208675
1247 746483 622971
1248 759861 563025
1249 430537 587391
1250 549845 262750
1251 589798 414849
1252 645139 608860
1253 771323 693312
1254 217623 208754
1255 546897 372189
1256 212598 347073
1257 239962 655290
1258 460437 610914
1259 230402 182067
1260 213904 337409
1261 752788 555022
1262 667670 379644
1263 152063 361357
1264 224097 179534
1265 614936 123373
1266 729958 12476
1267 221395 223965
1268 401649 631465
1269 417661 604586
1270 542524 319487
1271 178018 324912
1272 798500 27190
1273 614780 591087
1274 129936 622943
1275 412422 636280
1276 267396 638666
1277 740828 569242
1278 232535 209499
1279 554872 306153
1280 636291 380150
1281 637211 183003
1282 781498 768866
1283 262209 677365
1284 690518 577654
1285 733952 552996
1286 151048 318777
1287 767680 591333
1288 628336 619991
1289 622135 404089
1290 783838 722708
1291 810418 738521
1292 764442 603022
1293 559881 414618
1294 611222 617816
1295 632497 216319
1296 613344 183324
1297 608494 436168
1298 105131 573564
1299 734401 577338
1300 745694 599997
1301 767557 13370
1302 581310 279279
1303 178458 219529
1304 621589 166814
1305 169789 273397
1306 103494 603301
1307 714835 542354
1308 249727 702443
1309 786462 733964
1310 538200 346176
1311 750969 19004
1312 297617 683653
1313 617133 416588
1314 619849 390941
1315 780728 805137
1316 264430 187210
1317 818965 731341
1318 716557 597211
1319 231522 210494
1320 117418 592326
1321 610579 207503
1322 122127 572241
1323 719001 7364
1324 601827 374091
1325 588360 301799
1326 770477 599549
1327 473703 624362
1328 689200 553051
1329 686352 607804
1330 249372 204524
1331 155982 562774
1332 792936 715735
1333 250184 732635
1334 729018 25213
1335 531112 324237
1336 548653 351689
1337 179881 352563
1338 575983 350305
1339 210682 195666
1340 569500 126857
1341 402283 570450
1342 179143 355270
1343 635010 632738
1344 396589 629072
1345 611701 138043
1346 780633 524183
1347 209830 704175
1348 798557 -7428
1349 570712 155975
1350 821498 782211
1351 650502 394895
1352 792436 750936
1353 175715 657724
1354 202184 163564
1355 600428 170554
1356 129740 563669
1357 660557 579200
1358 642661 587073
1359 590870 151520
1360 724165 621328
1361 244067 160195
1362 831281 600428
1363 536989 357360
1364 221270 710425
1365 608501 597278
1366 780755 279
1367 293957 738765
1368 608854 587423
1369 766321 585436
1370 792926 622081
1371 189024 367677
1372 655945 619723
1373 167633 600311
1374 448189 645086
1375 254871 689367
1376 578332 285959
1377 637756 225944
1378 596073 357802
1379 65827 598511
1380 748173 602291
1381 227162 221445
1382 795854 762476
1383 738969 543695
1384 789603 753192
1385 762386 32198
1386 622775 169767
1387 160406 675242
1388 215112 361507
1389 741685 560291
1390 237458 662763
1391 147574 579677
1392 411539 653556
1393 762773 -22151
1394 541969 331557
1395 545134 340457
1396 540237 314837
1397 101902 517695
1398 534600 316722
1399 237670 704597
1400 745073 581505
