NAME : portcgen-800-803
COMMENT : portcgen N=800, seed=803
TYPE : TSP
DIMENSION : 800
EDGE_WEIGHT_TYPE : EUC_2D
NODE_COORD_SECTION
1 895355 721117
2 535925 889156
3 470424 561206
4 909762 797582
5 475054 797174
6 1002337 795591
7 971289 818973
8 506880 711167
9 424097 949955
10 434318 972536
11 601494 638456
12 409213 738471
13 838595 753018
14 449095 996590
15 988183 861072
16 923398 740988
17 1053875 880376
18 917990 800167
19 976593 727025
20 891796 700535
21 457901 543246
22 731283 634841
23 531193 944066
24 927129 886458
25 649449 628202
26 395192 622520
27 456429 639337
28 416732 570781
29 653895 864371
30 970751 818799
31 339240 567479
32 552820 934681
33 925339 725042
34 393192 580848
35 565502 953832
36 619607 866000
37 471310 986111
38 935935 807374
39 608670 980634
40 736415 604251
41 458823 557489
42 489104 795744
43 607407 628489
44 859904 724379
45 991201 824270
46 642367 626723
47 1008640 810218
48 907247 771149
49 445690 942588
50 574994 977275
51 937025 810465
52 883255 744865
53 393451 972466
54 681103 640855
55 413381 603278
56 407698 961766
57 424110 801584
58 544071 734236
59 719346 614619
60 392346 624986
61 606680 805112
62 708127 672169
63 654869 851823
64 634185 842344
65 435246 906687
66 680137 688057
67 372039 971908
68 1016538 742939
69 543596 804145
70 917687 825551
71 432379 583912
72 686576 589279
73 889341 760727
74 418083 564539
75 905211 850288
76 936104 789811
77 534798 945652
78 489647 946712
79 480402 707653
80 943590 786992
81 466431 799189
82 619725 838329
83 541265 793162
84 413169 603138
85 638282 665347
86 609726 647463
87 936291 733441
88 1019444 776904
89 881375 772731
90 570717 928290
91 647591 633316
92 685840 623474
93 615593 888677
94 430375 958613
95 615804 660177
96 926660 803461
97 626103 932932
98 700716 643868
99 855401 711072
100 520585 773760
101 383062 924256
102 524972 759541
103 527789 927403
104 546163 924179
105 606245 858126
106 957501 813634
107 676339 649612
108 484342 946253
109 609983 633890
110 521215 762128
111 895652 782389
112 654950 615230
113 894781 741245
114 524562 734877
115 946216 778285
116 462400 948934
117 470316 722714
118 457459 898471
119 640451 653695
120 389031 580255
121 442197 617456
122 582936 887224
123 620055 902589
124 840057 707579
125 584911 989046
126 516056 974826
127 693964 577549
128 867434 820821
129 611132 624525
130 870974 733600
131 425653 614206
132 654128 652819
133 622704 877243
134 509587 1009841
135 396345 902617
136 637921 844161
137 642093 871201
138 670403 877253
139 1015525 687533
140 406392 751248
141 544606 888912
142 624999 859107
143 510676 801642
144 483720 784593
145 667051 833553
146 499909 582404
147 637304 870075
148 681490 817098
149 579262 913411
150 875122 791517
151 435859 1038114
152 664711 861736
153 484418 948253
154 878468 681762
155 601511 899211
156 607337 849569
157 411212 615826
158 650348 925758
159 502981 588658
160 676380 674438
161 529385 914519
162 526222 743645
163 622327 852597
164 621986 758232
165 1008766 812334
166 526124 956746
167 611007 776265
168 375077 674038
169 499662 763133
170 703083 596427
171 589815 888788
172 509087 746964
173 507819 955987
174 710455 902419
175 549315 975718
176 920470 775945
177 437642 958774
178 636958 841769
179 869892 782490
180 479921 618959
181 622880 846277
182 526655 692309
183 608967 815408
184 894740 771436
185 584903 933760
186 415742 1007763
187 369331 934783
188 384130 981498
189 639883 669603
190 967577 795088
191 845086 729399
192 480581 717543
193 575042 946618
194 446589 909766
195 444743 880792
196 593280 890324
197 530347 918649
198 673996 881768
199 813685 701139
200 578944 839534
201 855410 708644
202 652085 644842
203 935676 806890
204 442261 944763
205 526491 942808
206 464800 607371
207 659395 922159
208 903142 761428
209 496379 724767
210 520936 722229
211 484288 950973
212 544967 1041828
213 670446 579860
214 504810 971532
215 726393 670163
216 671682 608391
217 904716 723852
218 547265 944682
219 501505 631630
220 451756 945219
221 746686 598662
222 988725 844786
223 890875 755984
224 430076 936772
225 433329 857116
226 393681 906690
227 653765 668826
228 541904 1036121
229 459553 956064
230 871570 744987
231 431782 580596
232 541147 908074
233 597974 840119
234 397018 597811
235 453910 959128
236 422688 992372
237 414644 769087
238 456267 893909
239 596166 679064
240 424519 1021040
241 519651 1019879
242 529051 797875
243 985328 776273
244 979049 776371
245 652964 608537
246 855283 759827
247 412086 619143
248 506927 575724
249 563799 983268
250 427332 599133
251 879703 790103
252 572965 772256
253 576579 937286
254 606706 840674
255 458484 627347
256 468498 969287
257 822299 735381
258 445577 746029
259 513140 934009
260 640923 841291
261 622340 564452
262 472476 982241
263 701705 634021
264 586314 654591
265 468459 752071
266 675542 663424
267 477472 608895
268 489437 699995
269 435468 927105
270 651580 677261
271 599037 954183
272 618609 907699
273 450029 1030263
274 938029 735255
275 533546 780650
276 550828 949316
277 974707 809961
278 613537 867996
279 944768 753579
280 423868 642045
281 845180 729829
282 520812 785797
283 401685 603716
284 595662 876548
285 643664 820685
286 413807 950361
287 374274 569415
288 655174 572672
289 868838 765636
290 927984 769629
291 1024563 850064
292 516845 804572
293 466865 561835
294 578406 947136
295 589485 837772
296 601514 833743
297 403072 586279
298 500672 723216
299 668304 581932
300 931249 798204
301 970394 771073
302 483634 786612
303 619005 636701
304 532089 779435
305 677815 900122
306 382551 515675
307 580542 854669
308 1044606 764772
309 925086 745564
310 416095 613857
311 427687 591848
312 740346 603376
313 863234 737312
314 507880 733144
315 660904 821049
316 540829 939574
317 586362 830989
318 514208 925404
319 419607 606841
320 418139 882552
321 444356 559741
322 934876 782228
323 465862 530071
324 990522 783740
325 555291 942168
326 856814 763350
327 910609 730621
328 519307 767446
329 825635 729702
330 498879 962292
331 359033 575688
332 855987 781579
333 685855 830759
334 934918 821499
335 823611 731502
336 977431 818945
337 497398 800321
338 483757 972533
339 892854 781532
340 642053 868403
341 476688 781705
342 946523 756763
343 402244 961081
344 527539 742288
345 691070 598794
346 681526 672928
347 469320 741658
348 489591 898442
349 399883 962469
350 548433 902873
351 457711 602325
352 850091 765777
353 662842 591437
354 528998 742968
355 664750 877349
356 625821 852734
357 830747 758673
358 474518 723583
359 905441 759665
360 415724 905772
361 984344 751214
362 669608 630862
363 596661 984102
364 847459 694885
365 611522 833948
366 609358 883076
367 897235 752030
368 490020 745979
369 448009 925907
370 669780 649829
371 642194 808187
372 710604 607673
373 728382 618062
374 555411 872355
375 522756 957308
376 811870 727511
377 594074 930349
378 584434 858896
379 656541 864914
380 848567 795862
381 395620 584257
382 479887 740944
383 476846 783076
384 474893 740444
385 865188 803110
386 490165 922890
387 838529 777034
388 431769 989668
389 465026 689205
390 573378 947254
391 945718 792398
392 879013 861923
393 997232 774655
394 590721 868585
395 399594 938249
396 477995 773956
397 679100 621681
398 979912 809637
399 983176 765034
400 629349 640480
401 929784 825964
402 464306 640223
403 497118 941520
404 452796 611442
405 558454 913778
406 447615 979798
407 631086 900382
408 963972 832463
409 676079 600861
410 539191 743203
411 397581 948781
412 523289 924820
413 500027 762001
414 983381 775971
415 684046 584497
416 468330 581120
417 482742 769237
418 690124 800646
419 954554 883492
420 918007 782307
421 921052 814692
422 580278 889569
423 486362 773692
424 860142 769954
425 421078 560303
426 480967 769754
427 474069 803561
428 432080 658900
429 584093 914555
430 669305 676534
431 653692 842897
432 659017 687135
433 700201 561737
434 518156 1000997
435 473522 563139
436 908991 792089
437 463396 533642
438 556740 949931
439 792295 751544
440 547478 776919
441 646626 635245
442 477349 823603
443 466754 537597
444 650253 620425
445 449988 645682
446 916999 754399
447 908438 730673
448 918019 779172
449 426411 580611
450 375210 944335
451 391805 656155
452 501124 606681
453 566807 964185
454 874887 750408
455 606437 973457
456 668827 675251
457 713154 819769
458 918153 722027
459 456945 924914
460 548508 728133
461 452285 570468
462 578712 907452
463 458018 969127
464 462730 643899
465 981470 794247
466 672337 859087
467 941727 775866
468 664371 536703
469 576321 982029
470 522872 796714
471 668988 854631
472 574807 996588
473 475244 778124
474 636347 928687
475 545806 913194
476 644456 884718
477 961870 736929
478 804226 740971
479 578973 996738
480 672849 656030
481 678423 650709
482 439685 903292
483 674449 646738
484 578918 899643
485 504034 774963
486 451024 732264
487 481496 943443
488 464271 971539
489 892413 751867
490 447753 938231
491 510135 705446
492 472572 1035936
493 889061 725572
494 606380 898222
495 453694 914582
496 669406 636375
497 481874 605434
498 617287 857250
499 455432 595369
500 477257 923144
501 381247 555879
502 966343 788439
503 967251 784231
504 519021 705592
505 451497 938439
506 430263 929370
507 598785 599197
508 655281 874233
509 551216 928445
510 385327 633768
511 514028 593181
512 527879 940489
513 411181 949935
514 693316 603999
515 449849 540319
516 512684 752675
517 892595 810625
518 425388 882618
519 886896 721223
520 357365 619434
521 449463 586076
522 449055 780444
523 434377 999867
524 499007 860039
525 892307 775114
526 510752 956323
527 474310 935917
528 588861 947373
529 560008 753117
530 836652 786098
531 531818 553363
532 525116 929714
533 529421 986301
534 627982 981039
535 457401 939784
536 625506 1001332
537 608759 645199
538 678038 623677
539 580266 867481
540 511056 988050
541 957138 818339
542 690234 631433
543 659663 645161
544 425422 923211
545 654329 894546
546 582974 936573
547 924496 729411
548 947965 817735
549 533271 667589
550 434820 994089
551 458642 990614
552 431053 608843
553 920716 803419
554 660421 655749
555 898361 737016
556 428213 605784
557 559887 736026
558 585912 878339
559 578159 633021
560 893835 755878
561 498065 805452
562 439079 972375
563 478846 744597
564 954116 763207
565 652530 759828
566 536598 897163
567 477768 815729
568 573578 973141
569 951414 845888
570 946784 791166
571 682625 839019
572 632531 851777
573 956905 785960
574 640109 839775
575 944445 810590
576 656718 661995
577 611100 600829
578 897831 768766
579 473727 926063
580 1006794 769811
581 912217 745879
582 829354 740550
583 510253 977515
584 960875 804774
585 847521 719241
586 443861 951206
587 625720 594991
588 436011 576291
589 938732 826445
590 620075 906181
591 668933 607533
592 560682 908664
593 485406 776263
594 546760 695257
595 472640 984293
596 683000 648297
597 521516 755562
598 669781 582882
599 501190 663966
600 673651 668969
601 466292 572686
602 677945 655824
603 547682 853134
604 748832 637874
605 711537 652617
606 605762 819639
607 456101 589968
608 566991 933567
609 840158 754776
610 526592 928807
611 913665 810622
612 696849 633865
613 392084 672211
614 940188 808306
615 657647 808751
616 818397 739598
617 632971 644218
618 905401 723342
619 397104 583862
620 978993 829471
621 594615 970133
622 967666 823034
623 435290 553072
624 551409 1020135
625 438902 593472
626 646743 877300
627 845436 777854
628 1007063 731925
629 466495 592972
630 485880 785801
631 429152 1023675
632 957070 782110
633 626130 806619
634 443378 677310
635 643035 628930
636 398427 893107
637 447590 573862
638 956220 822974
639 592485 663841
640 946016 830337
641 457382 550231
642 440749 616317
643 937034 644801
644 468927 973112
645 614522 904863
646 614929 802069
647 607167 805080
648 508988 776199
649 455626 988724
650 649640 893585
651 984100 839822
652 837345 729125
653 683229 642100
654 518888 799555
655 546737 939666
656 551970 921251
657 673888 641258
658 508741 748457
659 1000014 833471
660 450133 951497
661 540065 993436
662 925225 750548
663 574401 967171
664 507089 939600
665 480718 978601
666 684605 669196
667 424959 948323
668 1002340 757813
669 641698 853810
670 540925 978542
671 840566 711477
672 668060 882449
673 445447 550974
674 662990 846351
675 365916 641397
676 557377 929475
677 489950 811284
678 649064 806076
679 954467 750533
680 569211 882355
681 471888 550533
682 487823 904366
683 822968 764420
684 479469 941782
685 864163 751846
686 447126 1006751
687 455787 981067
688 469253 769255
689 480721 772926
690 981674 769293
691 368927 604400
692 630511 800150
693 921100 810086
694 674633 855617
695 936218 816108
696 453258 934662
697 966322 807127
698 948126 753566
699 348011 546718
700 526824 756643
701 897770 704193
702 502730 766398
703 869063 717530
704 555945 931732
705 491465 694028
706 951949 799227
707 970687 740161
708 992247 824754
709 891761 782933
710 410677 987222
711 923874 750184
712 391202 941169
713 706178 839818
714 659709 644319
715 641301 613855
716 420786 485587
717 452190 967017
718 636224 773603
719 465134 564150
720 1002011 876552
721 570093 888170
722 926805 817753
723 490151 884510
724 374521 609139
725 487014 781099
726 862572 755268
727 878898 765433
728 401861 997005
729 463324 960972
730 599601 867079
731 476913 947596
732 961791 788626
733 656456 611538
734 710383 662868
735 448083 616908
736 943469 752527
737 672645 626252
738 405454 567477
739 466636 759657
740 436166 585527
741 643004 821809
742 650414 595679
743 940051 800285
744 469253 607086
745 486376 726946
746 930469 723260
747 483510 762758
748 968517 720991
749 484361 790796
750 564002 1012037
751 457119 572192
752 431229 931446
753 664372 596185
754 427475 548972
755 1084746 825781
756 502518 866688
757 874923 809310
758 660417 917914
759 900576 726195
760 511883 972125
761 648377 925147
762 887492 721051
763 610041 837097
764 457986 971096
765 490410 790348
766 624781 832745
767 577029 959022
768 659509 640420
769 496630 684433
770 375719 954142
771 671278 910010
772 915672 741853
773 859561 755237
774 520475 985915
775 999002 777577
776 463634 597076
777 478049 775287
778 405091 602268
779 539034 761312
780 442155 1005206
781 417316 649768
782 980441 807722
783 598774 931807
784 529817 992384
785 660657 645074
786 426819 607710
787 683148 649311
788 481029 754101
789 585089 934851
790 470324 938729
791 412877 923787
792 653455 660311
793 509528 677018
794 984599 836473
795 653602 605588
796 635497 831981
797 825685 766302
798 613421 865851
799 630682 617846
800 656970 869707
