NAME : portcgen-1000-1005
COMMENT : portcgen N=1000, seed=1005
TYPE : TSP
DIMENSION : 1000
EDGE_WEIGHT_TYPE : EUC_2D
NODE_COORD_SECTION
1 715601 423266
2 687259 416850
3 637779 584094
4 656591 453408
5 91672 1036614
6 639834 734968
7 545259 781680
8 107098 1011121
9 163868 557217
10 169641 582296
11 54100 1013823
12 543602 69909
13 613981 409410
14 657977 776766
15 83364 574763
16 61401 996947
17 330798 746081
18 631628 756801
19 126491 1004989
20 116631 524897
21 630719 458535
22 540961 46819
23 573886 831109
24 570470 839685
25 592903 92156
26 777850 367550
27 300337 767563
28 657003 535113
29 512595 836856
30 610527 421730
31 675824 390394
32 655569 603510
33 756161 355997
34 649765 606814
35 535048 839221
36 637474 423257
37 651191 575040
38 694812 579280
39 552145 34915
40 172865 568077
41 65748 458810
42 549435 53133
43 269427 757754
44 171122 481754
45 659010 584126
46 560324 60608
47 620076 375752
48 513947 853268
49 101515 543332
50 571625 449816
51 593099 435064
52 557439 827924
53 534773 856255
54 640716 422021
55 82329 512068
56 788413 342317
57 540708 51979
58 704028 577209
59 542990 15681
60 286557 757727
61 657381 759580
62 694432 809359
63 595694 416519
64 545303 791699
65 561322 60003
66 667528 569207
67 665503 611981
68 278948 767262
69 631071 405081
70 127208 981687
71 365140 758307
72 656014 406088
73 654632 455080
74 619216 779996
75 652815 809841
76 717724 401698
77 105654 1019937
78 770098 387516
79 627148 446383
80 678686 410229
81 662341 756054
82 652867 474278
83 611641 608588
84 290665 743225
85 478584 874730
86 65578 1001667
87 669265 617236
88 551168 812738
89 725267 418169
90 295436 722635
91 618714 452435
92 120411 551562
93 583351 37064
94 646019 543307
95 655257 417685
96 643067 550496
97 670249 458508
98 606039 412139
99 615333 435738
100 293261 745607
101 676547 415900
102 623118 431734
103 689044 566069
104 609851 591073
105 555202 849392
106 644141 794795
107 707353 395129
108 121799 986868
109 487090 920018
110 572057 857874
111 318530 774417
112 557802 845303
113 593725 4844
114 666675 613547
115 661617 608650
116 86942 961133
117 598725 602377
118 295295 716603
119 514254 14873
120 654324 418359
121 749802 301398
122 656245 583230
123 629993 602458
124 658749 552072
125 603483 823022
126 700694 334589
127 89493 545792
128 683738 389531
129 91356 1004146
130 622959 375569
131 336472 723283
132 150190 532157
133 633866 757272
134 541367 68766
135 66723 503964
136 680056 795093
137 43197 999369
138 600568 429182
139 332713 717373
140 690266 437950
141 536833 19315
142 81300 1034515
143 465644 836467
144 536267 813526
145 690447 752582
146 615328 66901
147 736946 423274
148 603170 567116
149 621824 -21901
150 530594 802370
151 249296 749556
152 120937 495538
153 696464 831587
154 327407 737374
155 778769 345411
156 699129 631077
157 794373 341609
158 75941 947711
159 42982 998978
160 519999 816904
161 565912 793461
162 696870 814715
163 700971 457157
164 317316 735328
165 653328 744607
166 624148 775241
167 648717 574619
168 690703 430255
169 582079 810604
170 665351 548412
171 729989 448222
172 615830 560491
173 80284 520690
174 615732 448858
175 612632 370346
176 100108 980623
177 670414 434470
178 720968 425288
179 632388 758462
180 636006 392864
181 588577 -4577
182 639024 573692
183 701454 432919
184 616085 431372
185 637699 604100
186 710902 411879
187 99655 512749
188 774160 385627
189 43625 984545
190 302037 732772
191 536203 14406
192 87686 490787
193 304382 714651
194 673795 391064
195 632272 727466
196 66473 540631
197 707787 348703
198 634422 402815
199 766692 344655
200 325932 736737
201 733668 336262
202 666076 776820
203 77137 976467
204 566153 -16850
205 553821 793340
206 622395 424047
207 820672 419953
208 326336 731843
209 671043 746170
210 676107 724079
211 542960 46462
212 609471 16318
213 80681 1010368
214 692899 448417
215 691648 382383
216 553987 787457
217 607519 826773
218 669337 637314
219 607400 -6225
220 720365 475328
221 109318 485417
222 532836 821401
223 622419 453621
224 681492 765132
225 24170 972889
226 651369 747032
227 679531 407376
228 291673 745279
229 58502 1007745
230 82883 1005164
231 552004 779014
232 780140 322105
233 114974 583670
234 637503 706951
235 90294 1044359
236 750645 354693
237 620240 752258
238 678534 474840
239 543464 76618
240 781959 382003
241 564404 446659
242 754047 318477
243 136139 510407
244 617637 584665
245 657379 574658
246 118116 602733
247 310638 754310
248 624586 436219
249 704450 412297
250 332796 753434
251 682279 444939
252 286220 756247
253 740935 442734
254 300954 664960
255 692728 805676
256 269956 771573
257 711349 363718
258 664494 462976
259 766830 408126
260 545041 3359
261 541191 862973
262 681275 402185
263 592741 32227
264 589429 409561
265 530494 854093
266 548144 -18834
267 125505 962684
268 811876 388952
269 129079 508908
270 503869 65902
271 673989 409464
272 551607 799675
273 611489 440323
274 567028 36651
275 94265 971963
276 647721 824524
277 350920 716972
278 656381 431370
279 80297 519536
280 612428 424327
281 686935 423037
282 624094 771446
283 344970 717524
284 606454 759191
285 536365 16888
286 313327 810955
287 296071 738673
288 720685 398848
289 534772 840809
290 546755 824708
291 679092 419089
292 610016 -32839
293 545486 -946
294 81934 965505
295 558949 59022
296 757381 438470
297 560962 801493
298 628609 460640
299 633795 5003
300 655350 424349
301 767967 383624
302 701948 595650
303 641756 356111
304 754191 406633
305 632696 586924
306 661805 793874
307 698757 401202
308 122443 981278
309 711547 582228
310 106290 987830
311 764751 408834
312 626989 503934
313 593612 439964
314 657116 613340
315 803684 352515
316 669842 403860
317 654729 839961
318 544677 805188
319 557961 57246
320 791583 373783
321 684789 419879
322 678143 561819
323 541242 780778
324 641182 443817
325 695933 784281
326 649926 620244
327 323919 716560
328 802099 399472
329 717539 425835
330 571151 52210
331 14080 997609
332 243853 763568
333 736299 816509
334 761698 369994
335 314980 728412
336 25662 988333
337 706726 422666
338 78325 534901
339 739363 350658
340 661776 780174
341 95514 1076215
342 361611 743171
343 501943 838967
344 620726 403768
345 159659 546778
346 582092 4702
347 128642 1047043
348 308697 743688
349 671235 807161
350 93781 511110
351 576326 31534
352 72158 549359
353 543598 51077
354 719082 812879
355 490438 860002
356 676086 567074
357 600599 570073
358 654830 639880
359 297153 758055
360 41202 941969
361 623053 574242
362 773158 370088
363 84386 1041474
364 94879 570196
365 489424 864963
366 71721 1006033
367 516157 20009
368 780525 405737
369 149272 469016
370 597934 567975
371 685741 586078
372 324229 778361
373 650176 554250
374 709211 793217
375 576028 10594
376 713786 432622
377 296832 711192
378 722626 374154
379 525629 19233
380 521838 761368
381 558778 840257
382 291075 759429
383 572971 873069
384 529447 70877
385 500843 847116
386 372304 754950
387 679328 782531
388 159155 522255
389 75685 915895
390 141455 562908
391 529745 49180
392 110007 993479
393 719900 767617
394 793705 400352
395 590258 72807
396 531194 780849
397 746296 396039
398 561358 429620
399 285974 686521
400 632218 389492
401 620119 472905
402 94777 1053272
403 770492 332624
404 81405 1003198
405 105196 550833
406 769969 381124
407 521192 854450
408 298586 732317
409 611744 377138
410 79883 582921
411 622638 464410
412 705737 309838
413 544116 71197
414 715035 380629
415 320089 742031
416 601678 26515
417 554189 805385
418 82180 536222
419 30324 1025662
420 71623 534285
421 302718 776182
422 293604 727078
423 644831 751940
424 650809 604133
425 510084 790709
426 655305 442502
427 711837 766125
428 653930 573242
429 661159 465595
430 269267 764463
431 510939 870528
432 115242 1007789
433 543559 848710
434 731571 360171
435 89856 1030374
436 551363 31115
437 83414 492689
438 655546 758345
439 557843 856657
440 62842 995040
441 366500 728727
442 700699 739579
443 75681 946629
444 782180 363716
445 728297 325666
446 593427 458576
447 575600 827084
448 716251 377965
449 618464 563172
450 791042 375271
451 645193 609665
452 590393 462246
453 562748 46971
454 57194 501138
455 115920 502114
456 526230 855545
457 573278 803984
458 27318 990415
459 800796 343296
460 86456 1046388
461 645218 790623
462 25470 1022810
463 511427 36117
464 649801 582678
465 558683 -32312
466 761387 389214
467 745984 364952
468 589356 47307
469 695057 428982
470 77291 939166
471 793899 377119
472 649991 602785
473 644065 426427
474 682447 575119
475 113677 533723
476 321997 733226
477 688020 460444
478 639236 792145
479 540558 864476
480 526897 802052
481 98374 949807
482 346217 712806
483 262499 711403
484 642278 369847
485 611971 796353
486 91202 974256
487 89828 999951
488 633582 409751
489 315025 768923
490 60566 1005952
491 805029 377388
492 4844 880583
493 572127 397939
494 75130 1002602
495 628535 438493
496 702639 436177
497 692294 788263
498 650235 560646
499 646052 763350
500 102329 994270
501 638481 438108
502 669640 776855
503 674737 427471
504 631594 604526
505 600225 393798
506 749069 368891
507 682438 771536
508 635571 745399
509 642174 495310
510 98000 961989
511 755663 448488
512 658432 786254
513 342692 731340
514 727060 790233
515 589107 732241
516 347633 732813
517 111940 983419
518 84390 562011
519 733152 355546
520 132424 532110
521 574340 872982
522 265217 795480
523 552543 847236
524 60069 1029065
525 546960 42730
526 336455 756982
527 699404 545583
528 82380 963635
529 274149 759459
530 728771 390445
531 655707 581043
532 729549 450354
533 629284 765385
534 755574 384760
535 712736 355515
536 302656 687905
537 281519 724184
538 678703 547208
539 644142 -32640
540 64898 971523
541 611526 405201
542 650130 397205
543 721525 451547
544 564646 822970
545 43970 984329
546 504650 785995
547 295055 740384
548 120031 546061
549 637106 686951
550 629342 476854
551 294111 729707
552 550206 822602
553 724647 350227
554 633241 760730
555 573135 79311
556 363615 740984
557 640352 808928
558 60724 976877
559 703236 409967
560 96847 497666
561 698284 377997
562 100975 553600
563 85415 1019051
564 121890 473828
565 712478 362851
566 478774 838430
567 474802 -8184
568 638551 569661
569 669736 399636
570 277775 640520
571 629410 602988
572 586683 445003
573 753564 424648
574 636485 573313
575 68463 992270
576 585511 17961
577 659737 806662
578 684601 749361
579 613673 417426
580 607896 728162
581 288918 727805
582 246572 737117
583 54617 991393
584 585908 544062
585 672854 760711
586 648213 734508
587 488480 11410
588 786213 405452
589 596905 418122
590 605987 17726
591 614695 720527
592 606372 420856
593 636348 802072
594 671921 593383
595 114721 986987
596 599742 -4509
597 567592 31714
598 150240 503556
599 706024 363304
600 689795 614504
601 85372 451749
602 356844 751074
603 664640 644107
604 678827 770419
605 568791 22940
606 564507 819620
607 559883 844053
608 548442 838993
609 754601 560273
610 602402 395841
611 695733 426868
612 667716 496995
613 627346 453739
614 546864 804092
615 640894 664110
616 665059 738319
617 743710 378141
618 298996 784593
619 579100 894937
620 667957 410952
621 118248 490334
622 301654 763418
623 653379 441979
624 62958 1013651
625 62699 1000845
626 292595 762490
627 83511 510476
628 279541 791202
629 635799 404133
630 333245 734002
631 732837 409974
632 551966 780134
633 719281 405884
634 609731 793179
635 644766 576618
636 582275 48723
637 122269 969561
638 126172 997904
639 509519 784427
640 483799 818086
641 116120 994869
642 101029 532512
643 733189 394666
644 638285 611956
645 698179 548373
646 638918 60457
647 695185 415929
648 526635 829825
649 798388 368379
650 98339 493256
651 238433 729142
652 706871 416128
653 325693 753041
654 759714 399495
655 129070 543681
656 587273 37312
657 659330 800194
658 289741 767374
659 150395 534049
660 638682 593581
661 679982 434081
662 726598 389648
663 188613 494525
664 560427 -1347
665 678194 784081
666 671894 598885
667 136890 511609
668 639902 428971
669 741763 386328
670 61134 1007194
671 581720 601548
672 92802 976286
673 581534 43305
674 237103 731689
675 251816 720234
676 659549 373704
677 669880 781903
678 634711 445913
679 66027 1055572
680 666916 442986
681 52931 1024278
682 663368 627496
683 559550 798719
684 697361 743340
685 143173 538227
686 617037 364347
687 571897 734790
688 700571 355671
689 91517 1024769
690 664918 633736
691 620572 591823
692 547120 50917
693 76041 987139
694 695293 764750
695 605894 360984
696 659934 693371
697 696839 751600
698 671708 431298
699 643795 396933
700 683279 569457
701 761746 359916
702 354270 703707
703 695038 599678
704 628742 611488
705 587264 818861
706 62958 951276
707 334996 767084
708 569321 592531
709 324595 773179
710 148769 1036816
711 631238 598760
712 510821 794524
713 635549 590086
714 653187 789988
715 81753 1013192
716 599419 411910
717 343408 764968
718 627585 762670
719 563737 61386
720 727743 362222
721 637066 767022
722 668487 553619
723 678874 393320
724 540314 16969
725 673817 317845
726 165245 547948
727 615130 435511
728 296833 741117
729 761074 376621
730 526946 889444
731 522487 1460
732 657961 549660
733 678939 434485
734 319307 790648
735 725991 373614
736 271505 674264
737 793862 389168
738 737489 391214
739 281040 754500
740 740444 448323
741 705079 771815
742 317750 751654
743 285534 735078
744 681080 401922
745 621889 607698
746 626200 448421
747 579761 -20681
748 328883 739298
749 755972 328056
750 44606 1015665
751 760360 386584
752 605342 427568
753 88744 521961
754 47422 1016635
755 640594 441272
756 663141 564328
757 703819 473449
758 87019 1004775
759 115028 1019192
760 673732 560500
761 558225 817021
762 83614 571023
763 641038 567341
764 608822 423250
765 523197 70522
766 530429 30856
767 556574 55232
768 133161 550208
769 699963 739078
770 545887 11444
771 99891 1030615
772 644841 511668
773 594675 29317
774 583899 405565
775 785212 416405
776 749409 396016
777 551523 819212
778 606351 24895
779 518402 823960
780 316785 723722
781 601852 549380
782 607960 24845
783 649556 568724
784 664688 760863
785 531373 39499
786 680560 591981
787 305881 715553
788 300318 748604
789 593406 65457
790 711990 435714
791 736364 389807
792 92377 927869
793 156689 532068
794 516867 815043
795 219885 727368
796 266285 733026
797 792210 408877
798 537346 788876
799 116776 501910
800 760196 438284
801 796322 315307
802 692566 725817
803 693974 725320
804 544514 3232
805 653879 433327
806 690671 409933
807 606058 432743
808 673308 793391
809 130548 544488
810 633944 436386
811 696445 435743
812 549340 1241
813 60239 1025136
814 336901 738276
815 548926 778557
816 345292 741089
817 735365 380681
818 662876 509973
819 678163 587652
820 623279 744109
821 691376 415596
822 605145 436496
823 680923 390225
824 628934 400834
825 569963 92444
826 105332 962180
827 91956 948663
828 692561 421321
829 90749 510871
830 671637 431635
831 570480 -25692
832 753270 405596
833 641629 616085
834 160527 528828
835 70209 1026726
836 75770 965959
837 129137 1012234
838 78855 534948
839 76209 1022428
840 136103 503431
841 674212 564008
842 642471 433692
843 694261 426614
844 148019 499381
845 79116 1047001
846 602838 606142
847 567946 803357
848 324892 809547
849 608867 603499
850 611957 600947
851 655062 815286
852 762665 372844
853 577163 42232
854 652533 449389
855 123078 570604
856 626887 755689
857 739081 482709
858 344426 800197
859 668448 598649
860 491688 838751
861 675872 585265
862 730254 407026
863 563895 30882
864 521190 871020
865 715684 427677
866 680846 812961
867 704067 746551
868 687322 431584
869 594553 865222
870 293518 736750
871 626439 484787
872 302667 775920
873 102203 971627
874 120519 533718
875 538454 453813
876 335995 786163
877 29927 953495
878 490316 838992
879 735450 383250
880 553650 23967
881 764438 393934
882 706580 406053
883 304620 756603
884 678899 464494
885 97793 482745
886 734335 348773
887 654910 820004
888 157194 589479
889 698899 410778
890 82381 977204
891 318539 729184
892 687628 402696
893 752930 343026
894 565466 32791
895 648698 761026
896 708886 372748
897 774833 360545
898 337040 698420
899 635772 451458
900 491984 741524
901 587395 19968
902 243978 749042
903 32637 1005287
904 732711 368475
905 714951 427339
906 525815 881726
907 621722 374404
908 625978 572710
909 586456 3031
910 628560 589306
911 586465 -15694
912 542201 829475
913 61551 1013891
914 602009 804315
915 552737 41707
916 763252 464536
917 690107 739804
918 98167 1008663
919 722496 384490
920 566208 20469
921 735617 342525
922 87136 994269
923 637173 703353
924 72384 991709
925 571794 14631
926 758135 404844
927 755695 402410
928 775828 380740
929 657509 596527
930 99884 1018388
931 120308 502948
932 114800 1017525
933 287626 771352
934 525327 764134
935 598941 47504
936 38928 1016737
937 105581 506635
938 53938 990710
939 723213 332642
940 285719 725732
941 687749 409042
942 90956 1042561
943 780207 390721
944 743546 380384
945 683033 599710
946 621559 575316
947 278710 737749
948 840184 393247
949 319098 742119
950 567416 -10946
951 301108 736455
952 544908 40828
953 609021 590115
954 136925 503405
955 677095 589449
956 562862 -20789
957 682777 405992
958 110038 1059325
959 706802 408367
960 780977 384944
961 616220 608563
962 715060 419757
963 616584 415092
964 725370 333766
965 110549 1047448
966 290359 718220
967 538846 23617
968 679096 434120
969 648262 545674
970 612539 425368
971 309054 811432
972 95615 495243
973 91918 477576
974 267281 735185
975 784341 374864
976 756990 367113
977 516988 826937
978 508734 752115
979 522420 823672
980 771668 355998
981 626013 426607
982 80714 970548
983 65070 949389
984 107522 463181
985 539458 792997
986 135612 501039
987 566086 791695
988 642481 541089
989 666791 794767
990 526990 30733
991 547550 92785
992 512203 799712
993 804683 360100
994 629980 31221
995 710853 790084
996 110404 1027645
997 558180 796965
998 603258 492262
999 580338 -4513
1000 532080 817369
