NAME : portcgen-900-902
COMMENT : portcgen N=900, seed=902
TYPE : TSP
DIMENSION : 900
EDGE_WEIGHT_TYPE : EUC_2D
NODE_COORD_SECTION
1 561423 287524
2 149495 703501
3 527682 247318
4 86908 711106
5 271602 566804
6 129274 712384
7 975870 261447
8 107456 856338
9 90513 755572
10 349286 923479
11 144116 639950
12 580228 901417
13 132790 674286
14 368494 983957
15 752914 616475
16 232142 599319
17 718443 604825
18 121159 414566
19 596841 978946
20 236944 507391
21 563632 991194
22 89051 783571
23 953437 273740
24 567922 254148
25 574886 232300
26 426512 907005
27 654133 977180
28 4142 415639
29 573158 281979
30 950160 196554
31 940179 253759
32 943181 199462
33 732626 622190
34 728548 648190
35 9808 409386
36 27378 758815
37 788293 655147
38 518614 268324
39 567346 969023
40 228408 518652
41 931248 197857
42 932007 211052
43 607597 919945
44 36046 764163
45 267276 567070
46 666368 268176
47 -15076 417122
48 583969 292580
49 739066 654501
50 236429 512738
51 738217 634818
52 849650 184765
53 86781 744225
54 414376 891381
55 596754 306505
56 306480 508470
57 715497 672573
58 -5382 392263
59 942083 233589
60 557316 236984
61 602622 266822
62 87518 759951
63 548908 245243
64 715252 591684
65 697700 616927
66 28892 760708
67 868450 230339
68 271509 530449
69 17488 449855
70 425285 940333
71 114462 634615
72 370287 945316
73 58798 688826
74 263426 539152
75 553170 276152
76 -4076 369798
77 107046 677692
78 739274 601069
79 619100 948420
80 943922 227260
81 272611 585530
82 60480 785542
83 32834 754954
84 140623 696981
85 434645 908213
86 83533 348712
87 534780 232567
88 743613 618573
89 735857 653788
90 613678 1038422
91 16025 442331
92 611091 221751
93 725631 589871
94 40407 701857
95 166810 477702
96 607565 250979
97 67168 447469
98 401444 893928
99 117940 724325
100 248979 501086
101 34557 411933
102 633432 209312
103 128461 737143
104 776529 591027
105 103024 621347
106 380752 938661
107 71494 769904
108 11899 708644
109 226210 594449
110 428003 917699
111 745533 638713
112 926854 214897
113 362619 907555
114 628248 960473
115 605674 987609
116 367595 916322
117 1779 375915
118 28000 412465
119 91931 738825
120 711870 628886
121 25228 733458
122 920224 145023
123 430128 986196
124 102317 730253
125 638130 989528
126 70108 764406
127 599180 1020424
128 931767 260068
129 603016 360082
130 -27648 435007
131 241435 549820
132 -9431 417731
133 45385 383515
134 789030 608530
135 947966 174079
136 925770 213453
137 244754 520607
138 453431 981220
139 728762 591409
140 602292 254386
141 622032 979374
142 613132 282821
143 -8142 398039
144 274190 488230
145 216067 657662
146 923803 218230
147 604339 982105
148 157892 680162
149 599269 276167
150 173657 539765
151 103171 704543
152 58004 744264
153 197752 734146
154 263318 607116
155 158303 698373
156 636652 940857
157 75415 776446
158 785735 636652
159 401998 932248
160 605743 966793
161 56467 350862
162 35244 350328
163 951834 215544
164 574087 267626
165 888530 183961
166 585374 191270
167 898043 212387
168 922822 235582
169 61348 742091
170 24694 435654
171 47441 779304
172 149684 673709
173 155299 498369
174 12993 779482
175 291127 559739
176 235350 537120
177 885135 183277
178 278050 512387
179 96034 705701
180 553244 951477
181 197595 718811
182 55520 440284
183 451342 948655
184 411110 947878
185 646710 954678
186 547876 284234
187 140432 663312
188 144597 683852
189 31612 377089
190 298686 535890
191 -24749 426628
192 7859 791960
193 570670 919580
194 703882 665959
195 260602 487222
196 122155 663806
197 296485 498230
198 992532 197356
199 641154 960310
200 120224 728447
201 269379 589249
202 148557 709900
203 558800 1005163
204 685570 634965
205 731398 632281
206 258777 545410
207 253128 570419
208 391081 977189
209 760922 583922
210 -4257 383474
211 268368 490648
212 279922 541254
213 343010 917372
214 131344 661503
215 901284 208240
216 597759 311888
217 610208 240113
218 254665 545272
219 88962 715647
220 588108 968004
221 111372 715086
222 624049 577240
223 28554 444395
224 781091 647767
225 46690 742349
226 519122 182636
227 207065 548494
228 109291 642578
229 142804 710590
230 531558 286348
231 226490 522338
232 890616 177087
233 542981 934548
234 715909 651291
235 377149 914649
236 5217 773745
237 611330 942047
238 562004 908273
239 715382 580243
240 73474 388271
241 26887 414873
242 89042 411225
243 119056 667636
244 610944 920982
245 142470 704810
246 594076 1010931
247 284983 467003
248 560573 242698
249 615396 948000
250 709480 611470
251 -16786 346507
252 17792 346548
253 685791 641145
254 401716 935296
255 621346 938586
256 616064 939657
257 133386 649530
258 588234 225366
259 76798 689253
260 139462 716772
261 17041 810500
262 172292 685604
263 85365 686992
264 554194 259703
265 -16558 369993
266 1015517 227668
267 578761 1002731
268 274077 513248
269 12096 792590
270 7202 740289
271 293216 550898
272 426225 907369
273 581474 275291
274 579576 241165
275 576728 907581
276 964599 175871
277 554334 264571
278 430006 958456
279 273963 543036
280 274106 451546
281 515689 1007091
282 243873 553841
283 29593 797203
284 624232 240898
285 969856 216551
286 769869 569324
287 289538 478574
288 12231 758798
289 408365 964765
290 603062 273630
291 574232 978216
292 9938 768010
293 953056 226837
294 248056 481543
295 -1048 408545
296 758523 582776
297 238815 531386
298 940552 251560
299 917048 199558
300 386110 928019
301 429164 1022148
302 79750 685239
303 514299 1003970
304 87585 723159
305 884859 181305
306 438882 923872
307 756976 653170
308 741179 655260
309 367469 933677
310 121320 693352
311 2827 376054
312 771513 700856
313 906922 231688
314 22837 386577
315 35633 402450
316 718255 633058
317 890102 218192
318 64479 772773
319 19802 720673
320 73360 751929
321 755417 684856
322 236332 489309
323 917464 174429
324 116438 687905
325 70736 722997
326 297978 543689
327 372504 917165
328 268337 516873
329 549470 269451
330 132977 671770
331 308505 495747
332 11391 431089
333 897081 220241
334 402896 900572
335 896484 240928
336 445276 955626
337 930093 274496
338 262705 557671
339 575180 239708
340 52108 777090
341 958102 177531
342 574437 233302
343 -15628 798430
344 59562 400406
345 19544 451969
346 202998 699359
347 560877 285800
348 306120 489692
349 246923 544250
350 890531 177681
351 589199 320360
352 174364 660341
353 703628 681983
354 95064 653576
355 81236 413280
356 160755 651574
357 937935 155309
358 119806 683640
359 605220 961872
360 119265 684249
361 917992 215536
362 240303 584672
363 703850 630219
364 644766 935266
365 908477 230278
366 575908 975142
367 594364 307870
368 918447 229233
369 38720 435360
370 147570 725694
371 552145 285214
372 -33163 357917
373 182880 727418
374 555991 244127
375 720133 622264
376 889006 195460
377 56833 361152
378 725947 603253
379 577203 285188
380 114016 651481
381 301156 513267
382 576733 977590
383 259970 539970
384 593698 259656
385 612507 223977
386 249909 498193
387 225085 570967
388 211911 470899
389 48951 740755
390 196793 689399
391 964468 243071
392 52755 775713
393 308795 570224
394 985060 254675
395 37668 413670
396 427442 927311
397 564977 243437
398 638115 221852
399 593820 286113
400 292890 484604
401 936686 198383
402 30568 765139
403 295740 509058
404 53161 776762
405 943808 221696
406 277020 520877
407 440903 881757
408 312673 516468
409 629955 967511
410 59729 785663
411 481006 937460
412 715649 589326
413 684150 678140
414 429570 953030
415 884900 200530
416 939300 185781
417 -1758 787501
418 543091 285920
419 68490 672249
420 606982 972390
421 737069 581050
422 86739 437024
423 576891 244869
424 66381 843611
425 255799 585643
426 156223 683832
427 130513 644741
428 626165 267246
429 618742 1020801
430 238863 473716
431 556812 280568
432 588730 228748
433 968945 212734
434 934799 157934
435 31363 399958
436 69869 430896
437 747689 610164
438 49698 446211
439 763280 637342
440 19047 373126
441 736734 597499
442 616817 963704
443 559876 283863
444 542442 238087
445 929611 195231
446 559686 255529
447 16430 393543
448 399457 872558
449 584560 219639
450 11888 383750
451 77644 684655
452 942350 225694
453 107504 652574
454 947378 173991
455 276122 499457
456 713822 601481
457 54451 755408
458 569359 974326
459 940306 268442
460 39187 391324
461 594697 247525
462 76789 785934
463 25713 429576
464 541631 275790
465 20568 703105
466 974486 205945
467 158812 673157
468 742045 567403
469 68312 764863
470 574394 233152
471 198390 454660
472 71999 784371
473 636917 972915
474 419489 877527
475 567923 278641
476 157356 723960
477 408640 927604
478 129651 655286
479 930723 227248
480 958991 226067
481 448138 956960
482 83603 658930
483 70174 391899
484 878287 228811
485 909684 208029
486 244836 566701
487 930552 235913
488 202525 534252
489 35707 813520
490 439370 940569
491 901390 241568
492 156720 659239
493 733569 642849
494 423838 917216
495 281405 496386
496 354774 918842
497 576003 278235
498 616692 985600
499 652283 974631
500 736214 629115
501 584881 966619
502 293825 545251
503 30862 397909
504 52508 651922
505 887683 260123
506 756112 638088
507 39788 434734
508 872796 248951
509 86165 780594
510 218270 648160
511 384172 910866
512 279300 482100
513 420959 940416
514 402790 911108
515 362169 914948
516 602545 943297
517 54437 405488
518 159550 695125
519 932831 188098
520 283045 529973
521 232563 450512
522 591294 285038
523 417308 886930
524 94657 367388
525 156479 677837
526 292135 527692
527 167995 506512
528 380795 955392
529 263817 541540
530 230213 528434
531 938631 133219
532 590016 947667
533 654390 987087
534 104393 809795
535 22796 423940
536 120536 674615
537 917642 136866
538 212075 522474
539 123443 601520
540 595542 245758
541 887475 215919
542 617459 950988
543 70514 827693
544 668190 591243
545 691983 630597
546 153941 629951
547 583225 265355
548 130722 691529
549 566794 263815
550 242073 469827
551 934177 302915
552 401019 880787
553 150484 677552
554 217387 529341
555 455100 900455
556 546455 325221
557 756454 602658
558 92241 686255
559 971046 186050
560 748810 673628
561 901442 196232
562 593064 918687
563 949496 183891
564 221302 558484
565 8901 767730
566 745647 575061
567 394778 886252
568 237912 535966
569 596948 298814
570 436676 914020
571 635257 314675
572 140219 668833
573 608692 924055
574 628279 967366
575 153551 690485
576 558587 988086
577 32754 417542
578 541319 269405
579 788792 635784
580 24382 424707
581 417688 971516
582 19286 413188
583 11182 390059
584 679287 593525
585 661936 962253
586 607641 955740
587 34082 787590
588 842770 238317
589 116614 777410
590 573387 229955
591 635271 1021977
592 590040 210132
593 669525 633340
594 555002 267342
595 54452 761751
596 577723 340449
597 929628 223848
598 253046 509923
599 893177 233839
600 385219 918640
601 298682 557533
602 442069 849697
603 875441 177194
604 103986 722268
605 895681 143062
606 175920 691230
607 204578 512136
608 934596 237783
609 378922 907183
610 962256 178686
611 26637 390143
612 975523 217216
613 937001 222246
614 414172 933879
615 419188 911191
616 18232 405698
617 212472 628683
618 411117 935843
619 906725 198039
620 659374 278803
621 918760 189515
622 150151 648366
623 708894 605165
624 750569 562400
625 411302 940534
626 942243 185055
627 72827 457690
628 17647 427241
629 598623 266468
630 77793 784261
631 64408 421129
632 393382 957724
633 565263 272839
634 747484 642231
635 378427 905776
636 173956 628927
637 131826 709444
638 720381 604827
639 671891 993497
640 594380 984784
641 940385 228022
642 738475 618707
643 792371 704390
644 542191 272374
645 272267 568636
646 623464 987716
647 508040 956934
648 737505 598856
649 12764 438998
650 190961 510525
651 123417 684006
652 35734 735997
653 959809 173101
654 621218 975225
655 580391 1032522
656 70243 636962
657 292404 544787
658 41488 449791
659 54303 424902
660 624061 284558
661 591485 932171
662 613271 969900
663 703417 629230
664 928814 255597
665 592779 975224
666 420367 950213
667 100210 666580
668 152632 696214
669 590133 951108
670 192220 531695
671 31242 761655
672 416836 958978
673 36446 421051
674 -39916 430140
675 621595 266921
676 51804 340923
677 215331 739089
678 887427 184660
679 310610 543946
680 758523 621346
681 936722 246985
682 997051 181901
683 -9256 453914
684 13458 437082
685 118568 661713
686 602533 276516
687 552329 266590
688 590671 1006444
689 912615 171192
690 37901 370213
691 275114 439792
692 27398 435906
693 34736 459025
694 627547 173869
695 409403 951637
696 147500 624308
697 38328 769887
698 14009 380777
699 952282 278760
700 571548 257453
701 941940 204657
702 194028 666298
703 558158 311718
704 169205 682768
705 62404 765399
706 -54620 429542
707 -41684 390875
708 998855 275833
709 725773 603312
710 218338 592344
711 726406 641813
712 742926 591663
713 416634 931783
714 591255 981417
715 104861 664987
716 400047 876328
717 622816 943913
718 574864 285061
719 84644 752270
720 257155 511005
721 680518 565517
722 730179 654692
723 774939 623579
724 119011 641049
725 730567 615749
726 552235 980749
727 377101 940183
728 611143 1003485
729 102331 679710
730 234756 523762
731 553689 282605
732 616673 953688
733 597592 235249
734 436816 1001476
735 692276 584542
736 -38282 419881
737 -40440 395812
738 980865 215969
739 362285 965369
740 922671 186425
741 964028 230734
742 44902 463170
743 86569 653590
744 557395 264007
745 137487 669571
746 580428 235776
747 591823 910495
748 -26664 368845
749 733473 655431
750 699509 643723
751 39248 428675
752 49945 416458
753 939160 207295
754 261623 556045
755 541195 279142
756 262941 524634
757 605256 930128
758 237725 488125
759 881176 193025
760 886866 174248
761 912459 264401
762 21329 375514
763 350246 894081
764 63238 736319
765 56858 393652
766 161546 709029
767 15583 392136
768 629421 1002593
769 938818 207048
770 120753 709255
771 584099 252922
772 144448 680033
773 935569 211358
774 84657 735738
775 170203 675655
776 37904 333900
777 233826 573447
778 301259 546486
779 94957 765904
780 2045 722123
781 61307 657854
782 653949 260227
783 37640 465593
784 131341 662347
785 131432 637870
786 28366 759482
787 955565 208916
788 714776 593397
789 553040 216412
790 76331 804097
791 102788 701083
792 396253 949107
793 221453 586087
794 52744 399803
795 32636 407298
796 286864 451034
797 458890 898350
798 949696 227310
799 585775 253733
800 58206 814305
801 159780 636563
802 578397 277528
803 100723 771669
804 415699 895772
805 773296 629765
806 608451 356101
807 395116 890352
808 734703 561551
809 18242 713409
810 223348 479164
811 318230 549166
812 57506 772087
813 95795 787177
814 49323 785513
815 374251 921483
816 915740 234992
817 183999 659582
818 456821 945322
819 366684 967810
820 212902 702129
821 590069 278023
822 72554 721257
823 373423 899833
824 527072 971376
825 -11675 815179
826 3928 454138
827 155370 648341
828 161240 672085
829 206520 669286
830 703594 615264
831 417336 980633
832 52293 801703
833 5815 438238
834 65484 754082
835 394036 936934
836 126894 641636
837 194645 627975
838 679141 624313
839 994174 214479
840 984720 156777
841 49752 410012
842 77687 374344
843 429188 924039
844 69 394263
845 474579 928110
846 623585 975241
847 594569 226323
848 718580 636035
849 90494 779724
850 26780 446276
851 304614 540590
852 434175 911600
853 444766 981574
854 183927 694244
855 623739 896410
856 56532 462358
857 990001 218860
858 36542 796610
859 704407 624722
860 142617 691771
861 428337 965184
862 605800 220906
863 579699 280167
864 906109 171255
865 977185 229285
866 782578 600090
867 969445 178980
868 60991 423345
869 591910 969787
870 248468 536553
871 554976 262444
872 57043 433272
873 52685 362783
874 11943 458952
875 187727 710480
876 79072 652924
877 150836 653719
878 223588 524009
879 101222 784165
880 593494 286721
881 35510 383866
882 599294 284604
883 110533 751403
884 191470 663172
885 576751 269616
886 425949 922763
887 942685 207717
888 156524 659595
889 592541 1022439
890 246159 551201
891 133291 684382
892 736158 652328
893 81352 511004
894 748518 618261
895 16605 355235
896 377919 917812
897 26361 742713
898 35920 772454
899 411817 955315
900 217083 538197
