NAME : portcgen-700-704
COMMENT : portcgen N=700, seed=704
TYPE : TSP
DIMENSION : 700
EDGE_WEIGHT_TYPE : EUC_2D
NODE_COORD_SECTION
1 695785 503777
2 172167 913827
3 258654 968426
4 821429 307558
5 283189 650607
6 865645 257311
7 947886 104948
8 888121 305713
9 286105 667696
10 768173 542146
11 317775 586593
12 422656 622951
13 206898 286458
14 1006979 144330
15 969253 105104
16 187154 950781
17 819314 197710
18 739427 1010193
19 758025 277023
20 294871 578595
21 838656 243561
22 387089 600604
23 242177 955503
24 355841 654623
25 218514 934769
26 180691 291406
27 241338 251385
28 200614 919483
29 1044641 167773
30 200824 215099
31 705483 978217
32 275251 620845
33 297469 622345
34 211165 994396
35 919446 96574
36 660242 516218
37 853209 302339
38 174494 291467
39 187047 267141
40 889700 214202
41 178650 891787
42 1018537 93069
43 705525 447914
44 1028347 153676
45 766208 979047
46 748635 1005163
47 688190 533196
48 732669 473380
49 909989 120722
50 1004001 62271
51 896329 244386
52 180643 949808
53 920059 313258
54 159819 962326
55 347152 591614
56 122927 267587
57 347948 613118
58 226442 640897
59 856113 291933
60 329042 704023
61 839500 286174
62 677176 943084
63 238157 379221
64 911783 118263
65 196047 893570
66 316112 655747
67 793062 1005249
68 237786 294561
69 811502 487540
70 698033 906069
71 218870 992678
72 172080 314427
73 821864 525268
74 728210 541685
75 974154 76489
76 835849 371512
77 189265 980016
78 194988 266956
79 784552 922092
80 754078 481217
81 171591 253152
82 748106 519650
83 922560 140735
84 839158 413028
85 192354 977494
86 231604 998077
87 309987 668401
88 817876 260854
89 688595 536036
90 335542 582721
91 888552 289732
92 431332 650391
93 670565 990206
94 677092 511067
95 684551 967590
96 721407 602469
97 734555 519828
98 320243 668565
99 721043 480577
100 245575 1033568
101 221073 980069
102 696829 985829
103 694316 466035
104 987926 87651
105 897025 115458
106 756898 535178
107 1029340 157327
108 719453 987115
109 291193 623185
110 897745 335078
111 298813 632996
112 767453 482283
113 699690 936670
114 217000 927880
115 695430 495818
116 929359 35338
117 222347 308570
118 725270 492575
119 767766 990850
120 758127 271494
121 105421 266220
122 678323 441806
123 302401 683942
124 705355 470438
125 1009762 59307
126 981074 62978
127 827136 303177
128 786337 496430
129 842169 295000
130 778133 988519
131 337976 632683
132 815409 1068065
133 211324 300746
134 327672 658714
135 952153 116281
136 973758 85151
137 393101 617615
138 152086 294136
139 826892 318147
140 208900 337692
141 135796 968160
142 174434 309159
143 827005 952072
144 681987 508286
145 812858 1031079
146 187428 928622
147 155125 274247
148 798558 303889
149 398259 634748
150 767565 955893
151 387222 616520
152 140838 940176
153 225573 990605
154 207498 909841
155 195184 226251
156 735132 546702
157 226713 231488
158 249532 906453
159 280646 629922
160 170002 301586
161 755089 528882
162 979367 47887
163 230716 243629
164 269763 958780
165 707708 1004444
166 256316 598618
167 896090 304064
168 842529 162689
169 976423 135152
170 826474 269214
171 750898 999036
172 874776 307699
173 328480 576819
174 296376 721396
175 171376 365188
176 882561 311076
177 788005 1011964
178 1031188 103823
179 216012 326178
180 325262 579816
181 326184 711981
182 697492 976826
183 314552 665331
184 1017666 118004
185 174270 304909
186 678338 440110
187 713590 983669
188 687276 567522
189 838815 310721
190 727016 1021057
191 817586 316853
192 167182 931462
193 471388 644805
194 700882 512277
195 310992 633448
196 724083 505021
197 758669 562158
198 768381 989758
199 744391 932045
200 943202 75866
201 903473 129968
202 196701 993223
203 186004 288757
204 697955 541089
205 208425 329361
206 218312 256244
207 832096 366199
208 999285 44075
209 294097 546369
210 781009 515713
211 762847 1051946
212 717516 498725
213 255912 911598
214 134178 892407
215 192803 933173
216 227984 984146
217 221294 279257
218 746101 1001189
219 949574 113588
220 239961 1038433
221 232881 926653
222 108283 270994
223 789472 986448
224 736734 524438
225 753122 1003153
226 197517 290823
227 762017 1012943
228 378359 636264
229 235322 937247
230 924147 364530
231 375967 644168
232 1015650 124088
233 987387 148793
234 172807 280719
235 945725 51342
236 926500 157962
237 729592 453721
238 777346 276731
239 158531 969696
240 399549 652038
241 966680 84972
242 749356 1078589
243 171516 308192
244 318145 630547
245 906337 353788
246 834496 292106
247 364914 575021
248 826620 287178
249 799015 262960
250 355567 652336
251 883177 289864
252 154685 902996
253 787149 423090
254 983148 158230
255 803769 961550
256 148141 924720
257 958630 122919
258 141250 259493
259 372147 615899
260 794283 1010417
261 805256 331533
262 769110 465418
263 800800 1054465
264 172455 949092
265 779459 536443
266 757689 1035503
267 217957 252777
268 711349 977931
269 696350 504824
270 793926 373845
271 778768 1089256
272 717209 582954
273 970731 72965
274 906172 249107
275 985243 114513
276 775908 372221
277 165199 972623
278 774833 954693
279 233345 953050
280 338104 555518
281 792644 562564
282 963693 120144
283 179991 265070
284 881357 273608
285 808251 291515
286 853581 301609
287 425886 708665
288 263369 581614
289 281247 909492
290 301066 629438
291 742620 305160
292 770673 553747
293 711267 897961
294 135085 981330
295 273814 611458
296 1005508 114868
297 1012038 152552
298 746800 1011095
299 725374 504944
300 230866 247439
301 299158 648564
302 187949 311387
303 889464 237248
304 849048 315000
305 768989 554111
306 810138 292926
307 983910 129854
308 701240 564765
309 222869 985574
310 349805 670340
311 248867 963811
312 198580 290993
313 796447 949122
314 201365 1014828
315 190503 319249
316 132572 281294
317 694072 559355
318 750293 1043432
319 1044970 127483
320 964132 65278
321 901042 272916
322 849875 286823
323 841974 233893
324 797223 983050
325 801314 379305
326 380332 654444
327 976195 144044
328 739962 1034407
329 767224 579730
330 1001387 82397
331 1068100 98906
332 970297 110379
333 941746 344449
334 196620 920558
335 938014 137664
336 933142 71004
337 665492 533165
338 742940 503326
339 368875 624765
340 293424 660326
341 422533 595746
342 227850 970600
343 155768 314696
344 178248 248203
345 822462 279258
346 750686 995889
347 255164 361468
348 841090 265717
349 710627 1002656
350 307052 644108
351 271056 1031955
352 983320 91602
353 715121 1018088
354 982306 186347
355 850712 289880
356 728964 996242
357 290504 656922
358 967999 39866
359 331205 586760
360 186363 932958
361 384760 580470
362 368053 624194
363 196448 904795
364 645859 642216
365 355091 619950
366 737286 981672
367 801162 311182
368 841270 366928
369 912250 274858
370 645282 465903
371 961422 39127
372 749746 467677
373 323931 630391
374 425079 654994
375 251489 914384
376 888677 352631
377 819439 261923
378 157365 229916
379 726626 969961
380 184471 281580
381 373752 638990
382 1020263 120579
383 984560 123892
384 160719 332595
385 334744 625750
386 316596 702266
387 771895 996275
388 681385 553889
389 772243 536744
390 184267 314964
391 228169 971626
392 1048117 144920
393 197486 294742
394 718928 462523
395 393731 599578
396 988195 97838
397 717994 994239
398 720703 1002932
399 716965 525410
400 198140 341668
401 728590 553734
402 984199 127438
403 776983 1015913
404 911649 130001
405 185097 287998
406 1040572 104353
407 1027876 105815
408 394098 611597
409 369378 638174
410 183530 997089
411 210431 299855
412 999962 115370
413 219382 919640
414 835317 314728
415 871708 288780
416 945841 164148
417 803803 348767
418 753197 1038956
419 205127 307728
420 766126 925481
421 989693 68333
422 343904 644986
423 689979 505577
424 767667 447040
425 198762 974975
426 698256 995665
427 181685 273097
428 1052760 116869
429 976123 85129
430 751799 1041356
431 362351 627641
432 727874 552199
433 742256 1005526
434 894493 369267
435 359323 646781
436 191629 961027
437 822503 334885
438 333924 630039
439 842100 310424
440 676765 582557
441 788270 991355
442 714313 956629
443 825494 302987
444 725170 555498
445 160821 301157
446 195455 289264
447 676957 519068
448 196596 948788
449 982093 88575
450 276033 635077
451 813063 523788
452 955385 63981
453 768114 483715
454 329426 709398
455 808545 524437
456 758938 990214
457 360287 692559
458 804263 529853
459 900485 331732
460 166079 308463
461 868174 272500
462 734016 520774
463 841867 310073
464 244857 925444
465 983253 95278
466 351501 587896
467 738494 1016501
468 743660 962254
469 124828 312204
470 245573 302128
471 849480 269805
472 218726 953347
473 879917 409863
474 814181 271179
475 779686 994882
476 712917 552595
477 376047 599643
478 345073 643881
479 893870 337883
480 324762 682575
481 210849 371008
482 217649 331476
483 332383 608100
484 749787 577142
485 988130 68266
486 745666 984782
487 197987 254953
488 188546 888704
489 863260 264974
490 707629 563127
491 792650 1041011
492 707972 964770
493 786523 1035047
494 718748 505422
495 990686 117775
496 723921 546948
497 893971 52167
498 421970 558964
499 302744 733516
500 897558 315388
501 695495 994209
502 158254 934105
503 829887 316573
504 776505 1028997
505 943180 79861
506 863787 270873
507 798932 532478
508 146011 378133
509 704794 516908
510 222764 278965
511 359745 624425
512 810116 537715
513 308842 607749
514 177625 347181
515 857750 264176
516 668698 508539
517 1003488 160665
518 703582 971539
519 208568 264009
520 314515 624804
521 713505 919411
522 224297 328363
523 792317 255621
524 350467 679183
525 178294 928481
526 784346 525201
527 759993 1030721
528 955076 52299
529 945479 103380
530 895194 235967
531 164433 271779
532 270658 641757
533 295011 617745
534 733810 540182
535 728719 989894
536 189128 959723
537 321018 613487
538 704479 932440
539 666464 1046176
540 768123 508775
541 990389 149530
542 710151 541345
543 883535 256689
544 756650 1013090
545 350129 681496
546 175776 1072534
547 167204 980554
548 1031965 75606
549 199952 221926
550 858330 329408
551 735550 493226
552 265256 967938
553 297823 678669
554 398661 605725
555 966707 132437
556 736503 503372
557 1000811 104670
558 879364 285602
559 761749 493646
560 847862 300012
561 905482 71148
562 189632 913413
563 198902 338870
564 162594 297164
565 1006417 173907
566 961540 97500
567 122079 350436
568 822822 328816
569 723792 513423
570 976840 134999
571 853204 318068
572 285161 624410
573 248398 335463
574 914268 110711
575 854598 306784
576 319391 640544
577 160902 322841
578 202546 910509
579 954695 84522
580 705919 439265
581 839117 279170
582 320066 600370
583 151783 907314
584 170651 279598
585 215944 919638
586 163640 271152
587 352870 625423
588 788179 1008626
589 772965 998495
590 320882 675012
591 948041 122267
592 962751 125110
593 845409 265908
594 168618 326031
595 201108 302929
596 255673 1016860
597 741544 517299
598 917848 248900
599 979429 89518
600 672358 484007
601 955433 112183
602 806909 951255
603 787223 253915
604 767317 998257
605 150662 275670
606 921083 57299
607 696249 601876
608 736582 940259
609 905931 292689
610 863223 309488
611 184939 948651
612 802868 345472
613 198140 948636
614 197125 275334
615 999001 122433
616 1014011 82918
617 849271 280208
618 737932 919964
619 231405 935526
620 731355 1079216
621 260776 618340
622 413527 631278
623 1012342 168338
624 305894 688324
625 798953 295581
626 190761 935405
627 960508 140940
628 351066 627415
629 1048835 180654
630 756335 974801
631 707902 992825
632 728069 603174
633 772159 284551
634 187528 920423
635 290933 664231
636 963633 116854
637 905805 148316
638 179068 295321
639 732665 990987
640 315489 609751
641 259097 687441
642 708081 505930
643 914068 328839
644 385617 681112
645 129584 324113
646 985951 106582
647 162864 238852
648 790510 982460
649 971605 152675
650 768118 452896
651 301521 660190
652 961311 74926
653 375731 551952
654 326576 656665
655 776857 496393
656 146506 977091
657 749134 428467
658 329277 601110
659 951677 299202
660 1009539 123231
661 164173 289215
662 938686 103110
663 727881 511646
664 188389 315049
665 950499 143653
666 731491 541195
667 939164 122406
668 372626 640232
669 329742 654689
670 224065 251303
671 753812 996969
672 832503 299842
673 196483 1029075
674 195512 951514
675 858970 517241
676 816767 204243
677 221288 935814
678 340156 635076
679 745737 988305
680 945169 127642
681 758733 1089249
682 161316 282182
683 876594 369136
684 259049 289011
685 760854 961713
686 187015 896140
687 938493 123114
688 142297 309113
689 775951 1008081
690 826438 325401
691 342013 591923
692 140904 356189
693 986037 97006
694 710756 945566
695 728436 1041461
696 806128 273248
697 791914 1009137
698 275379 661151
699 824820 256871
700 795509 924885
