NAME : portcgen-500-508
COMMENT : portcgen N=500, seed=508
TYPE : TSP
DIMENSION : 500
EDGE_WEIGHT_TYPE : EUC_2D
NODE_COORD_SECTION
1 686539 537203
2 479327 558907
3 672236 486102
4 253299 925918
5 445270 586498
6 607168 534703
7 437965 660074
8 199700 344697
9 283851 1021057
10 186633 897516
11 661247 644984
12 277119 1056320
13 690674 542231
14 266717 935940
15 667444 479822
16 243951 958662
17 637351 509140
18 424523 536275
19 982984 33482
20 927121 -18849
21 439916 699035
22 645833 462835
23 686699 454921
24 299651 985216
25 277293 1042923
26 345804 633955
27 266449 1025760
28 976000 44703
29 289176 1049348
30 241003 245672
31 459067 588970
32 689540 441858
33 595276 538081
34 676212 484162
35 191852 266579
36 645779 477825
37 154568 214869
38 461391 595669
39 432442 595294
40 892561 18865
41 661201 488133
42 143866 271543
43 340475 561051
44 628236 579072
45 1024426 -17213
46 270608 908097
47 483676 669578
48 706326 507640
49 247310 222509
50 382944 627673
51 468677 648405
52 412968 642301
53 225831 231912
54 907533 -38115
55 293132 990388
56 206387 258062
57 138237 283982
58 918865 18251
59 698863 534448
60 1033254 -16376
61 459452 539575
62 258423 957254
63 684691 564415
64 851257 95944
65 515321 543031
66 199412 910499
67 698776 473609
68 507618 544160
69 720952 539762
70 955494 34366
71 211253 268812
72 427952 611040
73 158972 260080
74 438771 556769
75 736454 587164
76 192304 219285
77 945093 -37820
78 658555 499166
79 415880 571818
80 475895 541652
81 744903 534766
82 299326 948427
83 643178 551724
84 477274 712484
85 243338 950695
86 319053 916563
87 908447 82270
88 199008 290495
89 932067 27441
90 1008486 98107
91 616969 466983
92 868172 99588
93 198108 323343
94 300130 1006599
95 707921 564601
96 249490 899194
97 188116 306402
98 476592 647224
99 260719 918729
100 671383 623102
101 536970 605315
102 248568 255840
103 238937 298539
104 268360 982149
105 982050 -52669
106 168300 168069
107 440871 543699
108 164117 257222
109 481456 500193
110 376068 585603
111 436909 623706
112 745868 531054
113 457210 693867
114 227842 1022720
115 1017776 -42354
116 296650 1001808
117 488261 666434
118 298537 980656
119 288126 253303
120 716684 609128
121 237823 223629
122 267204 270269
123 167097 270203
124 147111 242209
125 232301 939503
126 636914 514897
127 255544 876567
128 723132 503189
129 487962 677682
130 937912 -19261
131 276638 958891
132 474751 505179
133 856327 39292
134 938021 63793
135 414627 615065
136 384580 636301
137 236851 272295
138 281171 985563
139 219297 968509
140 455684 654528
141 194931 895455
142 239866 264312
143 286040 926122
144 402131 657972
145 980556 35880
146 217252 162226
147 692068 468026
148 681499 485092
149 700163 600510
150 486429 664266
151 411118 602036
152 465591 588125
153 438079 605722
154 154373 373991
155 256698 938447
156 682549 627500
157 721018 514348
158 893789 -105381
159 939529 4980
160 925321 57300
161 263527 935452
162 264951 910246
163 303354 975852
164 999943 -76355
165 169645 310579
166 992928 56261
167 426591 615771
168 273872 905419
169 742804 532730
170 387855 591843
171 273969 1054552
172 193307 964993
173 957855 15593
174 166852 925206
175 408993 629366
176 609360 529793
177 228639 262597
178 958517 -22155
179 468827 680116
180 250047 282837
181 166847 267729
182 301913 1062527
183 443657 694389
184 492909 637407
185 969341 53010
186 173043 223492
187 268687 1014752
188 151193 278257
189 230092 273831
190 368252 1048301
191 475796 633123
192 277007 999249
193 876908 86622
194 123824 907948
195 268472 946807
196 903865 -5723
197 711524 465505
198 248938 933910
199 167500 254254
200 864036 -21138
201 717066 475401
202 656309 465384
203 470873 612266
204 463452 656344
205 892398 -34476
206 454247 668575
207 626514 488552
208 138600 199423
209 202682 956585
210 216668 256291
211 925453 -19242
212 153179 307872
213 201329 218370
214 255555 963887
215 681333 574163
216 931956 47994
217 971352 -21887
218 232321 247200
219 240172 327995
220 440830 607095
221 668265 566635
222 911965 -69036
223 693671 582980
224 259518 291517
225 506796 526160
226 246600 162462
227 253373 970262
228 960642 50972
229 343295 687585
230 484551 648958
231 990704 29372
232 286941 888314
233 1010311 9430
234 230109 342869
235 265906 1008412
236 143460 236981
237 857584 12937
238 136058 310271
239 222311 1011514
240 244686 998250
241 695633 523329
242 268369 970414
243 503097 558519
244 489913 616264
245 380972 563248
246 672336 387657
247 282207 277717
248 691722 563951
249 235133 265010
250 762222 479380
251 278811 292477
252 179941 244058
253 181842 272762
254 489416 623506
255 188397 325512
256 489640 613696
257 315602 913389
258 683718 519257
259 163309 226719
260 962558 -80561
261 705687 587825
262 230629 220422
263 248370 974646
264 186536 331148
265 507197 637607
266 405823 627333
267 651959 501897
268 658555 477633
269 181855 311233
270 658196 559122
271 287161 926332
272 957948 27653
273 324372 939955
274 662439 631858
275 313689 934740
276 408958 628132
277 471034 582088
278 435973 631861
279 949734 -21774
280 673543 507234
281 912136 -53586
282 511670 632740
283 244700 238613
284 223681 258864
285 410476 660221
286 470462 614284
287 651386 532542
288 491791 651200
289 276362 982760
290 476674 629250
291 244184 949052
292 428998 647463
293 229457 320817
294 440387 647955
295 174865 1009809
296 145040 234615
297 887648 39189
298 291698 1014347
299 599504 658424
300 441038 639274
301 277636 996206
302 473333 728404
303 767304 525006
304 986391 33380
305 243904 912981
306 730756 496712
307 441600 665026
308 460698 598165
309 741945 465687
310 338941 916436
311 387428 620097
312 673533 542831
313 492263 636833
314 279104 926232
315 672791 626653
316 307931 949497
317 999138 39175
318 248797 300591
319 437781 591997
320 462065 592117
321 701079 502145
322 756930 532610
323 956773 -8323
324 1011100 30458
325 435200 604437
326 652417 545283
327 260003 925562
328 517997 532819
329 908440 -23106
330 298539 229364
331 171536 282389
332 168103 277935
333 796294 517671
334 292778 1026768
335 701822 508913
336 245604 256732
337 1005129 74541
338 495071 610158
339 219590 279490
340 405996 617079
341 249905 1008792
342 945767 755
343 924171 -55492
344 311027 973896
345 647610 526189
346 285369 382337
347 517045 664975
348 366765 637132
349 1001177 -68950
350 203137 249345
351 476317 562984
352 211407 270156
353 519664 629226
354 224006 227109
355 657859 577063
356 329503 322607
357 227381 209516
358 233986 335258
359 292682 968053
360 399055 598414
361 661841 553325
362 828913 470868
363 288916 991286
364 439257 654987
365 911049 28345
366 261626 1037665
367 997123 47708
368 131621 200166
369 269294 209612
370 133357 261041
371 256312 264161
372 263670 918073
373 410788 531392
374 949585 -45467
375 261074 965863
376 227665 258642
377 255827 296896
378 932281 54725
379 954786 -10162
380 712927 578461
381 933355 -5885
382 196649 284478
383 898846 24831
384 270827 866979
385 214846 222561
386 250749 967884
387 498709 694445
388 149121 291478
389 309336 265165
390 187158 335869
391 649839 513992
392 226019 285853
393 984478 9687
394 262179 965664
395 123603 235779
396 236126 969463
397 442755 655838
398 804255 491913
399 214097 986937
400 325456 950244
401 219624 961309
402 195897 890169
403 655519 525723
404 996055 -30357
405 191751 920489
406 704336 461685
407 253311 988851
408 473457 663451
409 122213 223402
410 446947 525630
411 297165 924832
412 167866 332341
413 182815 270059
414 913892 44937
415 637041 475401
416 198783 230630
417 998445 59923
418 971836 -7438
419 198101 276415
420 995531 -12273
421 970030 61014
422 928191 54697
423 908967 33175
424 736249 546458
425 959403 -30430
426 208088 290070
427 986703 20195
428 485467 571628
429 336472 1012264
430 961727 70571
431 237413 955717
432 430376 485055
433 705958 539730
434 380647 580898
435 213541 261206
436 234150 222400
437 156016 311349
438 188302 266016
439 205004 228727
440 228389 244593
441 708121 541504
442 671708 551090
443 203010 196541
444 912410 -765
445 698558 523596
446 663444 495327
447 218948 343436
448 233950 987824
449 170837 348902
450 257128 1003029
451 276544 321293
452 243848 1007344
453 955509 -46139
454 928066 54482
455 216222 264648
456 165951 277692
457 149469 332689
458 305448 1003706
459 876405 109650
460 364967 621266
461 955400 64020
462 960235 30195
463 944067 13041
464 977976 46663
465 954091 63830
466 277205 944585
467 273452 339561
468 241559 978583
469 688839 528115
470 642945 527493
471 747337 537314
472 947413 110017
473 1036492 85433
474 263079 139359
475 954782 26666
476 765179 539784
477 742927 454247
478 708916 536044
479 505265 649193
480 711367 525625
481 999027 34921
482 1022816 -30865
483 672980 569653
484 404752 579073
485 884622 19939
486 217595 233055
487 960539 -2056
488 648881 554728
489 239706 981665
490 227058 185159
491 688760 473273
492 594984 563194
493 711394 549194
494 265687 971241
495 393015 631993
496 980923 48391
497 653987 496576
498 675686 519193
499 134964 206975
500 446598 614139
