NAME : portcgen-1200-1205
COMMENT : portcgen N=1200, seed=1205
TYPE : TSP
DIMENSION : 1200
EDGE_WEIGHT_TYPE : EUC_2D
NODE_COORD_SECTION
1 112477 115716
2 109646 857539
3 213884 791756
4 337774 614123
5 883944 554836
6 986115 556086
7 228769 935944
8 215145 255714
9 239177 206149
10 210281 239381
11 196832 942609
12 248703 237522
13 75351 392074
14 101782 408098
15 100976 406774
16 -12145 518294
17 247653 905875
18 143979 130984
19 396971 577854
20 231902 264676
21 18859 602341
22 158276 795074
23 923955 571833
24 937597 367211
25 184133 805141
26 768875 663917
27 136663 126820
28 93162 353008
29 29871 538687
30 92619 838801
31 81431 419263
32 160062 64706
33 59936 830259
34 193849 894051
35 67832 398012
36 742879 604599
37 981863 532983
38 873560 285137
39 972837 316197
40 915296 552246
41 910701 293995
42 216117 866190
43 -9314 601029
44 250848 922869
45 317589 580010
46 178641 195634
47 135769 112095
48 220903 245656
49 120128 391654
50 171827 825278
51 766007 670702
52 312949 609420
53 182415 811425
54 890062 298965
55 160851 862582
56 168496 807740
57 156576 88516
58 763607 665184
59 42560 359972
60 336502 544114
61 878229 276347
62 906909 342260
63 129788 414487
64 948637 569621
65 140444 151628
66 107695 854293
67 794824 616649
68 914263 560206
69 183261 126393
70 195141 765161
71 344326 583943
72 227762 784599
73 904059 595931
74 933032 346831
75 941162 332868
76 922749 319067
77 200035 843545
78 60343 354736
79 157355 887068
80 998286 320179
81 987051 549483
82 920759 594999
83 199006 144075
84 30890 565842
85 911028 668267
86 238380 940007
87 985306 532913
88 773301 592678
89 776876 689538
90 310415 586794
91 79489 440926
92 946259 612438
93 359250 611635
94 193182 78316
95 98232 405490
96 900019 307690
97 241686 937920
98 904366 362465
99 159887 824336
100 930628 585629
101 879417 261396
102 116392 150134
103 916857 560480
104 276631 868060
105 165179 832460
106 723519 686878
107 321702 540227
108 68238 364062
109 953762 597437
110 78463 852822
111 163967 99825
112 877734 593323
113 930513 486365
114 79594 401895
115 242732 250338
116 935217 570224
117 382259 599308
118 -29907 589256
119 116648 397224
120 248702 922189
121 120778 871311
122 19894 571972
123 877920 321978
124 116869 865150
125 154995 876761
126 224186 241246
127 760445 636060
128 32231 582811
129 906312 304006
130 753972 637907
131 320442 573885
132 205554 916510
133 919143 293750
134 967923 565264
135 903602 300304
136 92240 381781
137 357461 629839
138 923543 574674
139 312524 561125
140 140046 168830
141 107023 426381
142 768897 632148
143 237206 923778
144 104400 366586
145 916651 563082
146 195542 935942
147 313086 602857
148 880683 552866
149 334861 577424
150 828240 663009
151 230348 929346
152 912623 590830
153 371456 602372
154 790592 631354
155 95118 810007
156 97251 375215
157 181762 794027
158 912748 313832
159 382407 559571
160 91992 870488
161 174958 837571
162 167645 809296
163 937990 545330
164 178734 865679
165 215026 837073
166 235530 220120
167 364985 552447
168 957173 312331
169 89001 432321
170 136289 423380
171 213477 786101
172 251837 193158
173 1012310 521566
174 192159 902510
175 943109 549321
176 962845 585211
177 993084 583189
178 107097 852335
179 814871 652678
180 111678 426938
181 36626 565401
182 92247 436685
183 924890 351977
184 809885 634641
185 345641 554170
186 943352 513629
187 746257 686031
188 942882 558024
189 224790 927868
190 124783 143662
191 117657 420979
192 364958 646629
193 209284 208930
194 951798 535979
195 101500 877645
196 950045 311614
197 74987 403720
198 918176 588395
199 169790 122083
200 910749 306853
201 18289 540212
202 961177 285715
203 165375 115736
204 735946 657848
205 962982 595029
206 902567 622315
207 954646 560678
208 902520 602637
209 950560 628623
210 934392 574146
211 787826 696998
212 911769 301616
213 127061 390778
214 197118 784758
215 922450 603910
216 124408 817749
217 899937 541053
218 305639 573262
219 148962 845612
220 246792 245994
221 956680 577804
222 247554 228851
223 991986 522274
224 984370 566057
225 897343 354078
226 746829 676373
227 926970 632954
228 302254 576012
229 244251 261239
230 75983 345777
231 764223 675846
232 234343 899174
233 198215 311214
234 723183 593064
235 266724 873821
236 962636 528073
237 198487 248380
238 43669 550520
239 198314 38143
240 -3086 544632
241 196344 796441
242 347641 580073
243 253615 167177
244 263504 919192
245 172687 445108
246 227279 275864
247 820234 617680
248 874351 636138
249 125768 818532
250 122473 822277
251 125875 809860
252 187173 838262
253 73377 376998
254 904813 539993
255 237339 193718
256 233432 253546
257 91721 833174
258 203317 795206
259 222481 929230
260 197935 964676
261 219151 912390
262 238618 259219
263 923230 583997
264 277079 927845
265 240072 843096
266 275881 915231
267 226424 802329
268 192072 288599
269 202698 918340
270 27934 557346
271 773205 690410
272 190684 125197
273 787915 653311
274 971693 525559
275 916838 366358
276 229220 849017
277 346165 567485
278 206863 244367
279 907400 600629
280 331297 552299
281 81062 327200
282 236833 195295
283 938158 552042
284 211234 251873
285 296812 947727
286 176041 264986
287 172822 97997
288 978757 579967
289 740735 660991
290 184702 831254
291 313940 582171
292 882871 554523
293 267353 941914
294 768489 633448
295 16421 548586
296 890909 296805
297 94548 418518
298 253055 904495
299 240250 260322
300 17915 492114
301 202933 257888
302 195495 928189
303 355885 571325
304 948716 348643
305 -12281 568979
306 148479 110806
307 898212 316878
308 753886 650691
309 930697 568049
310 335700 560591
311 274817 915870
312 254475 947125
313 35396 546019
314 95688 399181
315 791881 699817
316 912009 544600
317 -9787 544096
318 969762 581321
319 219448 268119
320 206094 817255
321 181301 261575
322 26256 582341
323 888635 351490
324 970984 288292
325 135285 107904
326 159674 106223
327 242150 204000
328 99656 89694
329 236248 942728
330 364589 600869
331 916311 327608
332 244630 934689
333 929422 586834
334 191189 98558
335 184694 809749
336 210716 907218
337 802131 656463
338 352668 610621
339 86466 876669
340 74029 402561
341 207809 864746
342 42260 575838
343 317981 606255
344 387473 586036
345 308491 597974
346 364705 574842
347 733867 663254
348 241506 230445
349 16184 560284
350 78189 858114
351 176064 797267
352 227275 214705
353 280359 887430
354 363022 619629
355 250805 766421
356 930628 568276
357 295996 551085
358 318512 627226
359 108573 390487
360 943315 251207
361 320633 562689
362 193109 918674
363 341714 576830
364 150023 100881
365 913730 287759
366 930376 376783
367 205113 847616
368 1012537 540334
369 954403 565362
370 1004612 507058
371 88492 421364
372 898041 333377
373 139624 819503
374 902000 383331
375 80845 394908
376 195631 782015
377 917866 580631
378 236227 185927
379 140951 92498
380 239141 305193
381 152683 896916
382 37320 380313
383 868355 286913
384 66183 391692
385 795011 626436
386 82829 409798
387 13185 533941
388 331983 568892
389 136940 133246
390 153004 153336
391 75028 387084
392 121673 422725
393 771592 643304
394 858462 334144
395 185824 822750
396 -27560 592462
397 283504 216217
398 215405 936800
399 105567 851016
400 893867 618532
401 918418 338440
402 353561 599187
403 235879 227634
404 10345 589421
405 32245 586846
406 949765 550592
407 57867 877711
408 115821 355755
409 928059 550851
410 117971 154517
411 83371 829502
412 157413 793971
413 796888 692631
414 918913 314496
415 25981 543209
416 943527 547925
417 217528 200430
418 924573 613156
419 230378 245252
420 756948 666056
421 803481 681438
422 937614 580981
423 127758 360480
424 108959 849469
425 972408 497121
426 948878 289761
427 927896 336566
428 936213 560111
429 218641 284355
430 949029 553602
431 72443 826392
432 313633 551913
433 344426 618099
434 39147 626367
435 743061 666189
436 928944 589524
437 334383 609761
438 267906 902258
439 936424 291282
440 181587 831594
441 871041 321310
442 930426 638087
443 981215 581232
444 951129 555481
445 755233 628149
446 750905 648063
447 251900 879589
448 321573 620733
449 786870 691785
450 939816 563045
451 333903 523850
452 968082 539535
453 300446 926150
454 213148 888591
455 136891 383381
456 952449 275567
457 775050 714840
458 142487 848424
459 143180 821239
460 322026 597078
461 950824 631783
462 34072 574639
463 924627 572736
464 207433 859666
465 158908 818313
466 206035 912480
467 905682 612460
468 951400 594512
469 784227 697799
470 304901 626616
471 70806 390921
472 411146 521308
473 207737 244842
474 198885 280063
475 169363 231446
476 45695 408516
477 263768 879158
478 932357 610840
479 739970 675289
480 972883 584433
481 191840 796577
482 140537 810604
483 131061 99489
484 202039 227038
485 974235 535810
486 20552 565256
487 182227 207870
488 788162 639218
489 751797 672128
490 888980 264020
491 976596 558525
492 930224 284463
493 802597 670907
494 179671 127021
495 916842 337612
496 99952 817744
497 328950 572428
498 772735 651021
499 107020 106065
500 179624 770731
501 249991 899917
502 815911 619773
503 771567 632566
504 330617 637948
505 13457 600695
506 895877 584718
507 132573 831903
508 363946 575868
509 156021 84349
510 206472 186769
511 343369 541626
512 93843 828206
513 41234 392694
514 120237 99513
515 244249 945693
516 47232 522423
517 943327 571794
518 115151 891113
519 50832 543987
520 58226 387426
521 913788 539079
522 190460 803238
523 30850 573668
524 915320 317151
525 754846 688293
526 201953 236245
527 946272 539346
528 348928 568103
529 250951 262710
530 38028 576576
531 892785 299964
532 49613 540236
533 64020 390236
534 65397 421975
535 912539 590271
536 892031 306339
537 224647 795095
538 346596 621528
539 209687 188511
540 322122 620304
541 248719 933612
542 880360 334876
543 774038 652821
544 962284 587014
545 934253 301000
546 191999 816066
547 764658 686045
548 172720 793725
549 916947 342630
550 225437 269073
551 300440 861467
552 905775 310735
553 103922 844177
554 346622 581225
555 924692 280905
556 782680 672061
557 788425 631717
558 987500 574978
559 45217 552544
560 987016 297782
561 916874 609175
562 250162 914978
563 66691 378735
564 5423 549659
565 169192 793504
566 19708 556417
567 196745 54671
568 100679 356975
569 132856 62607
570 20903 573518
571 957180 578833
572 99580 776300
573 790677 643166
574 222949 224844
575 753903 666931
576 964879 586506
577 919486 560439
578 957300 611723
579 957701 527840
580 923944 313542
581 887047 305583
582 916069 634093
583 249833 753655
584 42290 539212
585 113406 793671
586 181069 837966
587 774862 662855
588 156181 797137
589 188527 885419
590 785516 623282
591 235893 205468
592 951189 571030
593 939196 580001
594 16017 589494
595 134426 389304
596 328843 618281
597 167174 357799
598 923380 565129
599 947002 578865
600 127154 412803
601 223923 222250
602 875119 579801
603 211683 947009
604 229466 218360
605 928058 348828
606 952956 328595
607 242621 946358
608 220987 240329
609 764555 647350
610 127372 868566
611 753119 650783
612 217606 242974
613 232902 191638
614 926681 327171
615 37249 602573
616 354233 606765
617 935893 606057
618 947497 563243
619 130622 844244
620 198196 736345
621 128653 84790
622 942397 547445
623 260422 910061
624 252936 935952
625 964404 614924
626 905796 304938
627 974513 542558
628 917768 353650
629 773360 651899
630 36475 428599
631 122641 385519
632 755802 695658
633 23489 507895
634 246932 810110
635 959982 527210
636 773854 687431
637 792369 656506
638 151683 853228
639 189847 825868
640 175731 43783
641 185156 6702
642 108491 825657
643 126268 104777
644 918692 535278
645 207681 808576
646 959921 534109
647 266788 228951
648 220898 255634
649 79709 561621
650 324640 587399
651 261969 231858
652 11819 597036
653 310199 590741
654 162797 853572
655 976694 513179
656 215852 120985
657 948536 577547
658 372504 598605
659 944420 508326
660 242836 288179
661 251898 250673
662 142974 136800
663 237288 941558
664 754123 656387
665 260403 905266
666 252517 222846
667 1013551 571745
668 374846 570546
669 939150 346141
670 209020 229155
671 228431 131622
672 953769 597721
673 909814 304439
674 928821 556598
675 907435 590625
676 339984 574244
677 35317 581809
678 193652 61490
679 210831 266137
680 367104 624891
681 248061 248852
682 739750 690786
683 191001 222996
684 773090 680932
685 732918 683052
686 19177 567957
687 271868 586535
688 131651 830614
689 143638 122118
690 283777 900992
691 305829 556804
692 109606 380957
693 325117 600670
694 29183 627039
695 244550 933952
696 191486 246852
697 900024 295741
698 370324 536536
699 214140 263710
700 304243 578932
701 902908 353475
702 196874 264536
703 64405 558009
704 32355 352909
705 198893 207612
706 941370 293748
707 312514 919667
708 972788 554841
709 38313 605252
710 787512 632615
711 317032 645791
712 134238 80720
713 252815 269940
714 904911 334872
715 189110 758553
716 144781 875268
717 885278 611883
718 959057 536798
719 986914 573594
720 80514 389805
721 31187 589620
722 918988 314134
723 950369 571036
724 934541 594001
725 930451 543803
726 937976 532068
727 743350 696825
728 245732 245641
729 128536 875984
730 1595 558902
731 724618 629473
732 214280 220917
733 214243 235774
734 53186 427166
735 847567 280238
736 237253 924025
737 914841 311557
738 921173 570233
739 92944 409646
740 907850 327094
741 228637 282762
742 220601 791655
743 958353 565420
744 952761 550893
745 278833 868242
746 920597 581465
747 56634 435530
748 200621 801445
749 63153 867301
750 905159 573240
751 213576 828398
752 83093 391336
753 189394 114953
754 124796 843675
755 941381 579673
756 153212 850815
757 908185 351893
758 750325 611460
759 959432 545593
760 963171 313810
761 944322 542226
762 240476 890881
763 134826 400219
764 211068 134985
765 959050 605709
766 799408 638720
767 -39411 537030
768 94730 803559
769 98586 796228
770 210601 778795
771 198614 200083
772 238097 229260
773 221796 273706
774 279025 875406
775 195077 891223
776 958786 502628
777 242728 175748
778 176202 788234
779 148618 134308
780 916208 543665
781 74897 837236
782 220531 804661
783 988785 317606
784 117922 362063
785 62372 365181
786 986808 543926
787 170862 933212
788 918035 304258
789 140193 829052
790 828972 661925
791 232945 791706
792 43144 543049
793 -13041 588021
794 74998 804467
795 189347 850754
796 121754 80130
797 341549 592489
798 777122 678688
799 8349 571207
800 902514 360543
801 766924 677715
802 218952 765637
803 958171 570145
804 929861 528126
805 221565 933945
806 760892 627396
807 190391 87883
808 269464 238187
809 950752 294291
810 734041 657415
811 944896 585222
812 891062 590477
813 766352 626600
814 777447 632586
815 270462 242821
816 197322 810738
817 960562 563155
818 960510 595715
819 326704 596416
820 275709 910011
821 6446 608512
822 915639 531896
823 84155 564318
824 969161 549643
825 49678 594548
826 79029 386583
827 77812 836751
828 239097 188200
829 149233 127886
830 39726 591535
831 186533 764903
832 993992 543327
833 108588 881930
834 308429 923778
835 911213 346617
836 918699 342261
837 239718 200830
838 216939 869161
839 824002 647486
840 291822 265430
841 884831 335210
842 35097 400385
843 930455 610183
844 771700 679396
845 782800 676073
846 23085 574882
847 761140 698412
848 227062 835214
849 186126 211256
850 953136 544252
851 961852 584858
852 124284 884503
853 214801 805610
854 33727 543703
855 380828 528449
856 284731 624844
857 116323 825901
858 226132 257429
859 263769 229680
860 736264 660451
861 278830 211985
862 363395 607271
863 981709 550953
864 137903 127924
865 783714 660647
866 916719 578040
867 15143 572735
868 17188 581884
869 90869 395261
870 348418 587391
871 260965 255040
872 207881 957526
873 25386 547835
874 170608 797714
875 113044 810843
876 906307 392141
877 852509 662201
878 352203 612094
879 914071 577332
880 125263 75425
881 152876 848230
882 766632 708525
883 1006330 513038
884 183659 118882
885 163164 68153
886 149266 79689
887 967384 537847
888 247978 816344
889 779975 649780
890 979006 566189
891 224761 193191
892 911163 316664
893 47674 369408
894 140740 127003
895 168272 811912
896 -6594 540645
897 196141 920484
898 98745 426751
899 101999 362759
900 297493 570061
901 192854 226273
902 126945 367178
903 122584 346922
904 404405 621013
905 151761 795780
906 320463 655392
907 18814 533443
908 910174 576551
909 224984 810343
910 86530 433954
911 915362 571828
912 131911 90969
913 77153 823579
914 353078 603672
915 786216 652426
916 176435 805415
917 372968 551855
918 197016 874502
919 39725 513095
920 915500 586274
921 201053 229986
922 20203 564050
923 174943 97028
924 840797 605355
925 209181 777897
926 914906 590728
927 228072 807518
928 165270 65758
929 795232 655585
930 912460 558519
931 150944 782935
932 109006 411625
933 136198 857258
934 927489 561359
935 88186 387374
936 134343 105257
937 153375 63099
938 988872 541828
939 314073 590231
940 183902 838331
941 -13868 561716
942 926888 577630
943 312233 890643
944 -15004 529838
945 13507 584904
946 190575 763671
947 788814 627749
948 225431 926469
949 42154 467031
950 109517 363155
951 228318 931227
952 963774 534777
953 295154 527345
954 935544 268392
955 163801 809700
956 954256 280338
957 906210 581098
958 948438 524131
959 134558 851364
960 137527 812421
961 341564 590118
962 743410 688969
963 110045 391210
964 30525 585720
965 921966 575200
966 76806 466047
967 956146 554768
968 728355 642544
969 887078 632315
970 973534 564815
971 239525 931741
972 758686 632961
973 127779 371128
974 220062 848642
975 168102 764620
976 744685 668528
977 228029 859472
978 269076 897260
979 204826 897816
980 938302 258198
981 227427 222854
982 312216 615549
983 964775 529515
984 812703 685135
985 253506 805784
986 131513 115475
987 82485 401389
988 202205 129358
989 142619 113619
990 859925 591551
991 202095 953211
992 981056 486599
993 70673 546816
994 197109 260776
995 222585 885707
996 341042 604806
997 194851 835607
998 -11342 619106
999 883836 585935
1000 -13405 569530
1001 378997 569757
1002 161941 833655
1003 241335 956029
1004 928271 575478
1005 969190 575221
1006 887603 317226
1007 974949 581473
1008 351985 581054
1009 1004218 573840
1010 958199 601513
1011 123701 856500
1012 185748 83297
1013 199416 879272
1014 88732 806017
1015 778251 642809
1016 911263 566392
1017 200002 816141
1018 952063 553648
1019 217436 116558
1020 69956 847424
1021 213867 77933
1022 46102 366834
1023 885067 592925
1024 30565 578659
1025 13821 543830
1026 173651 162116
1027 -7749 507572
1028 813206 665327
1029 961277 528750
1030 263203 887732
1031 811969 675850
1032 937965 618621
1033 943309 586139
1034 962779 585349
1035 321359 589555
1036 106119 363741
1037 963484 344617
1038 971309 575171
1039 115943 377529
1040 931906 547412
1041 786536 660199
1042 98445 57999
1043 226075 805101
1044 921342 396185
1045 899022 338788
1046 248385 940124
1047 144990 847195
1048 135921 157651
1049 216940 806181
1050 8701 513231
1051 35390 512028
1052 332140 564044
1053 215894 826721
1054 320021 592330
1055 865115 552858
1056 785011 655616
1057 928509 552880
1058 881079 304249
1059 135646 138262
1060 982656 551642
1061 81167 427271
1062 163024 61206
1063 306290 563852
1064 730992 635021
1065 904513 297755
1066 194279 906661
1067 -24120 505611
1068 891508 327274
1069 152913 141083
1070 128950 378575
1071 847140 666304
1072 803983 673368
1073 911251 578915
1074 870957 315899
1075 899815 612348
1076 878445 560058
1077 231461 871654
1078 201898 836685
1079 174026 213678
1080 98967 890956
1081 221184 222909
1082 226275 856506
1083 27413 524407
1084 918944 569120
1085 209100 852041
1086 352830 580190
1087 179011 257123
1088 853241 309952
1089 87544 442317
1090 54640 594381
1091 920046 579729
1092 163780 176236
1093 342090 600715
1094 210683 791513
1095 208242 807043
1096 94688 843499
1097 133448 431050
1098 163349 108707
1099 944063 641338
1100 135864 813931
1101 919371 327642
1102 943806 633379
1103 134188 358062
1104 253316 252920
1105 202065 930644
1106 144626 81054
1107 391435 559618
1108 977403 542125
1109 942335 576360
1110 129274 141885
1111 927790 578967
1112 79657 411720
1113 915803 617522
1114 45413 534002
1115 198643 152154
1116 901546 611734
1117 158600 110867
1118 126533 843025
1119 892232 308258
1120 897548 536484
1121 769334 670657
1122 954072 574466
1123 250387 881575
1124 13079 592861
1125 211002 891738
1126 779089 728576
1127 901027 350872
1128 215813 891330
1129 905683 572737
1130 925031 582706
1131 923815 494425
1132 916118 580047
1133 253330 207338
1134 125672 804660
1135 252165 916187
1136 235990 914281
1137 213622 907981
1138 240770 249593
1139 248135 232729
1140 268291 267077
1141 83427 575782
1142 104738 422613
1143 911331 571044
1144 155565 95305
1145 -17625 520635
1146 124820 122929
1147 93296 821727
1148 232679 235890
1149 293455 899547
1150 964760 631507
1151 22401 559886
1152 253483 251069
1153 188647 749434
1154 136814 839000
1155 954375 617442
1156 13575 555033
1157 963026 543411
1158 176593 243672
1159 918828 602518
1160 59028 561663
1161 128809 825016
1162 116995 817303
1163 779651 691763
1164 32769 592858
1165 110945 122596
1166 898160 276108
1167 129806 845451
1168 803323 640290
1169 50513 562373
1170 225537 848435
1171 227397 187458
1172 959152 541977
1173 246095 269437
1174 953684 581074
1175 247623 920704
1176 358102 594610
1177 104225 827181
1178 241491 202051
1179 75989 560976
1180 193240 237742
1181 228002 220756
1182 917923 619518
1183 105169 841230
1184 77851 391332
1185 793310 660410
1186 165250 790022
1187 222891 236112
1188 315595 520843
1189 140317 832197
1190 6616 547905
1191 77757 423924
1192 758653 630495
1193 126041 382194
1194 23412 538809
1195 109789 839874
1196 41698 583146
1197 328311 626655
1198 141124 101895
1199 85031 866930
1200 248655 200120
