NAME : portcgen-1500-1507
COMMENT : portcgen N=1500, seed=1507
TYPE : TSP
DIMENSION : 1500
EDGE_WEIGHT_TYPE : EUC_2D
NODE_COORD_SECTION
1 74377 354219
2 419825 688707
3 166102 199460
4 506137 533622
5 147430 657393
6 441690 694761
7 170473 192949
8 839886 583094
9 403924 856570
10 156585 197694
11 465599 868736
12 469189 835233
13 493583 794766
14 110204 708392
15 856085 141838
16 639847 193255
17 740141 144526
18 127275 680344
19 791881 754925
20 438022 817519
21 152979 692330
22 121824 357031
23 826896 696627
24 439521 841901
25 725260 91030
26 207851 838868
27 419215 492054
28 443226 553860
29 515223 812662
30 192824 864990
31 467384 790150
32 174553 576335
33 461356 514528
34 481288 523629
35 543469 832153
36 483724 864343
37 458427 669877
38 485864 830602
39 155622 217369
40 130781 363406
41 172103 790488
42 199830 809745
43 496685 570136
44 414007 858894
45 892078 524278
46 792570 742518
47 132017 705385
48 381665 606666
49 233208 853862
50 887174 510678
51 637328 163073
52 839298 564713
53 498684 523385
54 463247 820185
55 159143 820882
56 741929 112779
57 257198 815597
58 210109 165010
59 726117 127459
60 475275 531439
61 701843 170815
62 649405 194341
63 125379 364958
64 474646 519190
65 468288 868286
66 643632 181959
67 438879 640578
68 388131 646070
69 723933 132690
70 748156 128234
71 837195 764796
72 487123 835499
73 378892 635363
74 131592 351881
75 167803 605540
76 224502 837610
77 706512 152363
78 775731 143195
79 461266 552606
80 200518 557376
81 144029 712308
82 196886 200015
83 959894 568517
84 721007 135203
85 870997 143263
86 915505 127575
87 105060 403648
88 211058 780375
89 186014 783107
90 438487 496458
91 710345 110616
92 847246 739475
93 904779 83257
94 930196 594596
95 467386 714181
96 661344 165118
97 148240 569535
98 189394 718044
99 433105 830881
100 217790 793389
101 169197 376107
102 513113 850609
103 768829 171007
104 140835 638579
105 223027 801535
106 453457 572530
107 404955 534816
108 469992 811476
109 731202 139105
110 911066 585772
111 484766 816691
112 165213 240114
113 485208 843450
114 842027 723446
115 898887 149284
116 103462 680395
117 875957 137770
118 32070 386916
119 927901 594497
120 699821 226678
121 167415 224042
122 475525 527666
123 215627 833482
124 488341 483587
125 239414 841146
126 477371 468613
127 97622 397965
128 887589 152000
129 485605 554325
130 451728 704644
131 776424 95536
132 718162 168360
133 143812 198316
134 489947 587640
135 357294 644595
136 686050 177043
137 856778 566465
138 416873 822333
139 140644 377996
140 476189 518327
141 471563 509396
142 209967 793145
143 905898 139749
144 231749 861349
145 903668 125525
146 860386 113525
147 219753 815994
148 714138 196923
149 224099 588085
150 730454 116739
151 916953 553902
152 120248 697396
153 883250 573339
154 440820 539896
155 138153 741905
156 436832 835796
157 454021 497651
158 748580 125092
159 447503 827066
160 474227 467585
161 804802 745088
162 838098 742356
163 916700 549545
164 474635 820721
165 108677 658080
166 828824 716132
167 446430 517788
168 492014 529581
169 159792 232875
170 944400 544341
171 685728 182109
172 826373 109022
173 194695 816884
174 105717 697854
175 498125 525254
176 484299 498103
177 813318 778604
178 86377 706512
179 380311 871066
180 850481 730265
181 430508 812112
182 694617 142109
183 901442 124837
184 809564 761410
185 706278 201030
186 131911 691703
187 767663 113199
188 755512 155812
189 475487 821836
190 475709 520231
191 471297 810006
192 125236 733373
193 901631 101227
194 906926 146560
195 407840 830528
196 102772 364972
197 964397 155680
198 503028 525150
199 650507 206788
200 428869 806625
201 717992 138737
202 136678 216187
203 107579 358923
204 188857 226411
205 880679 573349
206 123809 368601
207 906861 141269
208 467125 841126
209 843281 743773
210 790578 754720
211 156110 698583
212 913990 142433
213 785657 138843
214 406846 662927
215 222957 836259
216 436851 863565
217 432030 661641
218 160877 229480
219 541272 551073
220 238024 812656
221 669294 186615
222 108203 341811
223 470221 510003
224 407453 810447
225 665487 211817
226 902819 146066
227 908752 131972
228 511311 552433
229 756518 104458
230 453860 806191
231 150066 702689
232 397836 852813
233 913274 100171
234 249742 833962
235 693959 209274
236 118240 330086
237 417306 683065
238 187565 525722
239 424058 659006
240 805728 764052
241 498562 501589
242 835056 771634
243 108802 387499
244 704664 164749
245 179892 208745
246 474425 521827
247 677732 179856
248 154941 343727
249 413330 690558
250 879074 123282
251 245092 826878
252 112163 407027
253 464660 544003
254 168277 396940
255 433653 489782
256 442751 704712
257 778313 726621
258 229422 198061
259 804977 781970
260 781682 89022
261 185375 766548
262 817201 764612
263 177362 579384
264 205427 162143
265 434255 546160
266 873623 591302
267 669298 194823
268 750975 100075
269 501587 791050
270 207750 165075
271 669712 151344
272 461178 522585
273 238766 813024
274 107155 696138
275 758637 149765
276 751184 120524
277 449823 481274
278 447506 511813
279 843777 738684
280 890176 169275
281 448549 501489
282 124075 723485
283 670158 190151
284 398252 818666
285 411722 854689
286 158765 688692
287 213901 809367
288 830808 773099
289 132657 246687
290 464379 542589
291 185149 535600
292 893181 154395
293 929904 135303
294 213713 850884
295 441836 643044
296 916536 544454
297 478753 850244
298 213678 559426
299 113744 356613
300 180995 224007
301 805257 730095
302 131986 675668
303 924911 540936
304 247444 793748
305 190967 563396
306 173418 543306
307 473646 547279
308 652579 167945
309 469249 878660
310 231283 800938
311 387732 850794
312 196554 792809
313 701438 196736
314 825360 595950
315 103856 345543
316 878222 560168
317 221435 806828
318 407035 658900
319 752176 126907
320 149354 239117
321 209126 828274
322 209170 237707
323 90127 331592
324 856309 568015
325 191841 795031
326 874279 569284
327 289447 844426
328 433260 818707
329 106375 709560
330 881567 551528
331 902595 179502
332 918803 154346
333 828707 765587
334 482495 518626
335 432943 687758
336 844561 776983
337 752406 168598
338 443201 526556
339 886376 522585
340 128189 359182
341 841279 787629
342 805504 717862
343 445689 836521
344 447479 827700
345 648930 163890
346 803897 747551
347 511265 536346
348 368903 840384
349 199740 831855
350 495976 875919
351 425109 820194
352 413895 678495
353 821158 785572
354 148034 666337
355 200754 803205
356 180069 806115
357 455974 833203
358 510403 829134
359 871776 110515
360 875132 594734
361 245564 763075
362 437000 542273
363 911014 542131
364 418784 668539
365 683895 150420
366 162826 723573
367 133499 598869
368 436895 667094
369 552987 831380
370 813502 780199
371 213827 758611
372 892783 774760
373 126799 385540
374 141904 558278
375 454723 518925
376 170282 782297
377 820087 783157
378 85416 340538
379 167826 796773
380 236520 798025
381 488166 677849
382 401084 476738
383 107383 724585
384 929952 553629
385 916281 167226
386 905595 149738
387 777828 157812
388 250199 811919
389 110698 335109
390 165905 241640
391 219544 600865
392 141962 536790
393 186606 543717
394 472021 547856
395 488232 714194
396 421518 519107
397 873543 576819
398 465204 806908
399 672056 167449
400 729815 109969
401 916664 138434
402 732237 195514
403 160712 199980
404 402025 635545
405 119852 410623
406 196214 563550
407 900292 584254
408 820176 732259
409 811426 747249
410 420093 780373
411 777989 128634
412 696308 148291
413 806463 824777
414 857005 717434
415 176153 548918
416 514892 504993
417 688412 197708
418 900164 531573
419 178865 181396
420 842492 569011
421 695661 228224
422 142811 323209
423 88052 317784
424 624373 154407
425 123830 702864
426 415185 867068
427 763022 156889
428 866859 563993
429 817040 726867
430 904234 543324
431 785246 101166
432 437945 554250
433 431881 532365
434 144299 705160
435 444903 537205
436 673513 177780
437 192916 593119
438 638435 154026
439 434201 808564
440 747486 126614
441 144161 693307
442 95663 358035
443 464290 833877
444 447982 819293
445 186170 588806
446 476681 844498
447 173581 586927
448 200156 574711
449 169861 560531
450 149490 349880
451 197587 761128
452 445316 457911
453 472345 839879
454 509296 515531
455 915206 148439
456 891521 554629
457 111368 344742
458 171198 598037
459 145470 237470
460 717301 135386
461 85826 339477
462 819469 745964
463 425870 683447
464 460866 534462
465 878275 531147
466 138168 339618
467 922574 547937
468 439275 491258
469 734260 121834
470 434705 662508
471 908310 154227
472 934746 159035
473 892219 601801
474 427802 828810
475 681704 238063
476 941940 129610
477 150100 202142
478 656849 171438
479 212351 822335
480 495772 546862
481 809305 812346
482 852777 555264
483 448823 790008
484 879604 614953
485 499862 800434
486 618878 172061
487 711738 112622
488 451895 478856
489 479656 832329
490 210705 749354
491 887979 556726
492 785466 160920
493 735337 126610
494 152921 231046
495 155138 712131
496 161941 601462
497 507485 846797
498 873002 178376
499 423751 668510
500 482390 496920
501 453164 538446
502 841184 733388
503 768447 93553
504 716976 145409
505 860115 559238
506 148103 380293
507 647742 125823
508 188409 702720
509 502700 843769
510 394310 641464
511 522959 509839
512 719870 196888
513 907078 181253
514 810981 727942
515 669661 195658
516 372760 674638
517 853164 758600
518 195163 804295
519 471209 487358
520 877331 570637
521 214134 828409
522 453884 824506
523 171056 579924
524 408955 787863
525 136159 530635
526 250037 835941
527 764160 136353
528 753930 141316
529 112399 351036
530 756330 113711
531 743590 146496
532 850893 576521
533 820529 558927
534 728747 130522
535 394517 824590
536 599880 169460
537 180184 579563
538 451229 639148
539 839488 593802
540 488727 508593
541 746744 117634
542 391021 652009
543 204874 570965
544 420475 797029
545 131406 709621
546 865826 726390
547 523963 851841
548 164191 223336
549 918628 148571
550 197583 771005
551 470889 811766
552 501081 496103
553 504145 502353
554 184891 185253
555 146569 297611
556 418871 844090
557 455128 524554
558 745469 129005
559 480001 521060
560 641927 178738
561 867906 138653
562 746235 173932
563 753188 122691
564 189096 186031
565 211143 213017
566 192662 804977
567 424424 796351
568 440476 865859
569 495680 510533
570 118500 709026
571 468034 521025
572 929621 148231
573 425344 817679
574 204656 835961
575 457995 817274
576 492732 486735
577 832135 731948
578 151084 711559
579 667165 119168
580 117614 717746
581 493575 845985
582 750151 80336
583 220729 811971
584 196143 203999
585 78143 735429
586 432147 552842
587 485926 502655
588 463543 571636
589 215074 795652
590 689988 131251
591 469105 807133
592 176452 638101
593 153661 347220
594 112796 659826
595 419630 596085
596 431266 790944
597 158257 686383
598 178481 233115
599 470774 840194
600 899001 158882
601 102515 700300
602 670128 139914
603 202695 204791
604 222327 817417
605 142638 205251
606 433525 815620
607 435521 780097
608 747384 114446
609 119177 330873
610 411218 681266
611 386241 658838
612 743407 185095
613 186117 748546
614 824744 740462
615 171454 730362
616 703198 178650
617 649309 187462
618 176758 151909
619 201963 573056
620 483658 853201
621 925842 165147
622 700292 227429
623 169396 683031
624 497090 508262
625 152344 716202
626 715023 141309
627 150467 192281
628 121357 356724
629 503413 791479
630 426507 633038
631 463024 796424
632 188993 726108
633 408302 664617
634 167613 519546
635 396966 710662
636 172227 545763
637 929243 192558
638 770633 164381
639 196074 553604
640 744731 110984
641 936979 165670
642 800031 796849
643 399025 850821
644 775867 100958
645 228788 766845
646 758643 107414
647 507607 469875
648 181104 762434
649 793381 730687
650 469434 532477
651 702704 206404
652 491002 485182
653 752418 127238
654 101474 372817
655 453014 499530
656 670748 173209
657 222307 816904
658 687957 210128
659 849415 537355
660 925447 98202
661 164251 607814
662 201150 217762
663 435278 641352
664 124254 349827
665 481414 478950
666 362148 647760
667 537431 523648
668 105720 348579
669 846768 700128
670 763209 148774
671 130327 711434
672 195098 210924
673 920753 164815
674 389946 636270
675 452464 840332
676 475333 536883
677 207852 232295
678 908686 589686
679 439309 841965
680 946793 143134
681 179181 800574
682 175025 720546
683 904590 587475
684 392390 807406
685 432994 832230
686 467122 539070
687 201955 570577
688 405867 842414
689 790323 760740
690 851642 722518
691 474389 848589
692 494367 468041
693 899903 568775
694 99273 324405
695 244840 816073
696 653200 175103
697 415218 529873
698 817604 124944
699 882903 573083
700 826497 743186
701 484496 519597
702 128997 580359
703 140257 737893
704 452665 542238
705 438511 538834
706 421574 670603
707 187327 832302
708 141410 580863
709 169381 713975
710 661039 174098
711 885852 551142
712 895925 567350
713 176142 319150
714 185698 792469
715 777304 117076
716 468666 813824
717 921673 571953
718 735422 145762
719 183789 548599
720 457688 506302
721 426960 697172
722 438705 586052
723 135685 718648
724 194753 609969
725 414736 833315
726 365066 845063
727 168866 573129
728 413113 516549
729 412121 830148
730 195651 553675
731 194048 301766
732 454743 539214
733 495596 534242
734 157258 669926
735 473952 529931
736 123214 719710
737 191007 230490
738 138641 676579
739 106501 326872
740 774755 180027
741 445137 820031
742 440898 796461
743 642599 170796
744 486312 501545
745 186035 564299
746 455205 798311
747 493250 830124
748 203909 824738
749 396450 665992
750 759182 98506
751 227746 239790
752 867659 555466
753 690877 136393
754 482116 811585
755 157617 716425
756 389944 682613
757 140708 697716
758 437570 519289
759 880282 159037
760 176737 701025
761 897113 530145
762 854227 743260
763 873988 583474
764 814731 712060
765 207465 569483
766 959046 134722
767 665798 169449
768 689054 171570
769 805738 771818
770 436764 846945
771 430088 828262
772 148997 664678
773 193479 181322
774 92295 748931
775 504950 843046
776 479781 555566
777 855333 564170
778 868314 141951
779 477134 513410
780 207857 162579
781 440621 873911
782 427164 802329
783 452284 498625
784 756248 98881
785 458781 508988
786 414630 861614
787 436901 545249
788 868070 575885
789 453138 509986
790 661792 128466
791 496298 495858
792 195125 192563
793 816858 789630
794 835155 763454
795 420950 710167
796 164009 613092
797 848148 114858
798 500953 467471
799 836880 768306
800 758129 146190
801 413950 823462
802 765166 111331
803 170765 368210
804 463295 855357
805 747505 86775
806 228247 830972
807 518540 792195
808 914446 558348
809 698796 173884
810 502588 856983
811 458283 447512
812 898499 154610
813 469810 514540
814 895743 144529
815 851378 740759
816 795603 81358
817 934566 154859
818 71253 321354
819 185365 767186
820 423237 831242
821 798148 139258
822 487282 465889
823 239618 874065
824 218059 793150
825 452287 832619
826 140418 551802
827 500311 516082
828 108650 755539
829 239696 825316
830 129305 576493
831 157629 684069
832 194396 808950
833 200644 852352
834 154505 166920
835 431655 887836
836 460957 813559
837 916525 110923
838 197568 253360
839 408927 676965
840 852895 767321
841 776794 77484
842 678748 163770
843 479228 876624
844 192590 196358
845 814700 710016
846 436236 655410
847 908689 131463
848 766128 85222
849 122657 691703
850 501252 507407
851 143459 359953
852 448928 811782
853 704493 183822
854 206663 766334
855 248729 829566
856 889426 120905
857 209732 782825
858 189044 218212
859 861252 736234
860 536202 512204
861 473795 530734
862 196706 595946
863 467850 805210
864 419006 520302
865 468147 844516
866 493268 538023
867 887744 157887
868 470881 488556
869 455721 803411
870 489742 549073
871 689278 217013
872 466947 826792
873 718460 162100
874 868647 117560
875 470109 513176
876 678088 212873
877 494598 507272
878 480524 467353
879 451432 801606
880 179080 231707
881 479959 824857
882 157333 550118
883 448100 842237
884 437348 530115
885 194579 686906
886 646976 170879
887 879212 584215
888 381688 839961
889 432378 704434
890 437488 881243
891 175776 231697
892 518966 813930
893 883911 591156
894 173074 217930
895 839178 749756
896 150314 740785
897 156446 345459
898 459273 528994
899 496480 457253
900 158181 684959
901 871165 129236
902 463354 542087
903 487899 837175
904 365041 665285
905 442526 678327
906 872407 180767
907 927246 98235
908 805274 747633
909 204718 685444
910 746908 108536
911 383610 664559
912 648939 187320
913 124201 315623
914 165363 614525
915 491153 492245
916 188237 822455
917 131080 360915
918 168706 725037
919 162150 570979
920 853792 568266
921 450916 527179
922 115864 682763
923 374691 660110
924 730423 169910
925 102717 347143
926 875436 132581
927 142672 545707
928 441203 828467
929 443784 861943
930 408835 731764
931 222527 781385
932 135948 287220
933 665368 160650
934 456445 663581
935 447186 834589
936 214026 808810
937 435414 654526
938 155062 697297
939 135519 609105
940 410550 508234
941 658735 182821
942 495637 827756
943 797079 128500
944 439403 686638
945 149182 701599
946 159720 185494
947 892231 149351
948 886717 569766
949 864994 716198
950 119182 703814
951 502706 855092
952 896838 564211
953 861608 752599
954 476333 822538
955 491640 820743
956 528609 849980
957 222621 823099
958 233629 134304
959 180056 592815
960 483098 542300
961 170561 361532
962 169595 692094
963 482126 462176
964 190844 194893
965 471944 882307
966 225602 827754
967 111108 340762
968 184165 805427
969 891370 594787
970 664421 197758
971 794612 110020
972 512352 852776
973 139918 218712
974 226601 520847
975 173674 820011
976 488661 548703
977 893717 131364
978 858473 573226
979 918942 126346
980 764428 161425
981 376126 812147
982 907074 564403
983 422419 815197
984 178648 207395
985 473344 530084
986 669098 183031
987 427424 793318
988 688738 194444
989 190308 210188
990 644493 213770
991 718037 127281
992 871392 788823
993 655581 149957
994 201452 609989
995 853548 780596
996 400898 691524
997 148434 667204
998 931538 143656
999 943557 149652
1000 866573 771332
1001 752410 180139
1002 846050 728611
1003 797581 757662
1004 833926 746171
1005 433301 789908
1006 207753 843282
1007 238092 169204
1008 665101 170960
1009 647806 230264
1010 451720 532194
1011 870367 551279
1012 854927 502971
1013 866452 601458
1014 505942 798558
1015 794953 137389
1016 642945 148017
1017 184108 781837
1018 474588 567397
1019 245079 825576
1020 211518 541282
1021 178980 583634
1022 724885 129489
1023 461788 503610
1024 223121 817995
1025 134180 720126
1026 421177 500836
1027 449267 799378
1028 81663 342053
1029 802527 99124
1030 477634 680580
1031 194012 207163
1032 618822 197590
1033 938749 129762
1034 472850 511615
1035 98311 634653
1036 875559 182394
1037 98596 380086
1038 764680 87115
1039 394289 690076
1040 609804 246306
1041 466551 553066
1042 481053 502111
1043 189276 555022
1044 497159 526801
1045 808320 754141
1046 428427 677384
1047 919323 515719
1048 233815 809625
1049 912065 129106
1050 409515 801366
1051 184547 734366
1052 904975 87041
1053 177178 225665
1054 478569 518666
1055 466119 789109
1056 862179 110499
1057 156668 704349
1058 652653 111842
1059 175162 621750
1060 230453 171962
1061 452164 514287
1062 485288 526280
1063 497760 541497
1064 409720 608429
1065 215904 768373
1066 840797 733629
1067 150902 355122
1068 835288 696238
1069 675021 171201
1070 188724 755845
1071 403496 801873
1072 481101 853454
1073 822087 795165
1074 444104 776703
1075 120812 296633
1076 162887 710455
1077 200271 564899
1078 502963 824707
1079 210224 819891
1080 861340 540101
1081 451624 552410
1082 436692 504247
1083 433048 506750
1084 875326 555009
1085 757644 131039
1086 202931 777346
1087 481368 826512
1088 108670 676927
1089 415143 650758
1090 115079 730304
1091 779938 95415
1092 860947 135855
1093 835370 761537
1094 417376 848654
1095 196460 570683
1096 226101 816502
1097 111977 347165
1098 468717 914559
1099 643092 138853
1100 817961 733628
1101 429941 860311
1102 380805 661448
1103 192464 189045
1104 128082 594568
1105 917519 192422
1106 753170 138997
1107 447552 530380
1108 868483 554374
1109 711524 118174
1110 884485 144507
1111 864493 164216
1112 860898 521326
1113 247587 549230
1114 388502 651625
1115 688612 140176
1116 249628 560550
1117 138684 214523
1118 142021 704995
1119 168889 676543
1120 163148 541535
1121 217134 225849
1122 431116 702080
1123 855621 540702
1124 917294 156734
1125 836635 829412
1126 84091 380665
1127 474013 516698
1128 492870 503922
1129 218733 216920
1130 113830 573457
1131 398381 774622
1132 164260 796023
1133 83591 315371
1134 652824 180830
1135 435416 782170
1136 770431 134791
1137 847585 794950
1138 399208 663550
1139 150781 680349
1140 789527 113514
1141 945261 155782
1142 918842 148199
1143 786139 745530
1144 117990 344621
1145 726582 128387
1146 935984 547949
1147 818849 784441
1148 112065 407129
1149 231329 579049
1150 418414 686105
1151 435079 651423
1152 452255 711056
1153 901036 171663
1154 878304 136547
1155 207279 184920
1156 121374 707218
1157 199374 676475
1158 517334 537283
1159 758267 121460
1160 186179 769490
1161 125165 706131
1162 900262 101609
1163 156183 581652
1164 448551 868130
1165 197636 808521
1166 405934 835126
1167 384520 671251
1168 503056 805107
1169 761311 110732
1170 179743 703355
1171 183984 616141
1172 460161 552565
1173 838987 797162
1174 483404 540250
1175 441694 833782
1176 203214 848739
1177 142725 690217
1178 515454 561564
1179 499130 824566
1180 542599 834774
1181 665896 126077
1182 487512 486404
1183 720190 124445
1184 405029 860537
1185 416418 683551
1186 196067 828370
1187 881791 590477
1188 406043 862280
1189 168934 204807
1190 501655 876476
1191 203524 205132
1192 451664 808839
1193 124687 398314
1194 170641 705025
1195 143949 697791
1196 456544 470095
1197 655256 195470
1198 948549 182569
1199 409464 827963
1200 855808 167184
1201 724573 151132
1202 501522 815941
1203 439501 770505
1204 495533 520087
1205 425322 798786
1206 829709 758750
1207 758713 81498
1208 462574 536115
1209 473875 519152
1210 540685 865575
1211 469395 485691
1212 857824 511402
1213 170149 287637
1214 873073 557260
1215 482692 515169
1216 435976 499622
1217 854388 533662
1218 792507 739606
1219 430844 837427
1220 518172 537861
1221 504566 845154
1222 680568 218417
1223 449301 509772
1224 130622 341943
1225 880880 548369
1226 189869 256713
1227 865505 534318
1228 895795 563003
1229 794127 762192
1230 141323 384058
1231 251399 803879
1232 151609 708679
1233 842219 757979
1234 403619 861351
1235 397700 682631
1236 135586 664039
1237 696529 163115
1238 894559 546154
1239 469278 484378
1240 409370 747063
1241 136092 677890
1242 184021 205573
1243 419790 688868
1244 444923 524292
1245 647101 170254
1246 430071 679444
1247 224616 846196
1248 404036 808830
1249 226380 220985
1250 176603 182883
1251 678732 169690
1252 109696 656173
1253 110034 365528
1254 512332 794344
1255 807492 762198
1256 909728 526171
1257 496836 465046
1258 184107 585159
1259 225999 188090
1260 94598 364071
1261 469351 780451
1262 102721 721581
1263 898296 607623
1264 845330 773655
1265 471384 482648
1266 862048 578355
1267 801289 728637
1268 673657 170038
1269 113042 284454
1270 423760 817790
1271 445331 471131
1272 434027 802668
1273 852934 563147
1274 769328 106719
1275 189682 593494
1276 164454 613878
1277 226568 819522
1278 120908 330914
1279 111466 719377
1280 634476 196063
1281 153349 586467
1282 448387 470396
1283 212787 822190
1284 931533 141908
1285 479171 832774
1286 488241 545025
1287 874120 587923
1288 477648 528287
1289 813424 734303
1290 438455 644995
1291 803029 754769
1292 893795 156777
1293 438199 840528
1294 798138 740176
1295 142116 696205
1296 409818 842420
1297 808295 797292
1298 715945 180288
1299 835589 565007
1300 491502 483280
1301 423034 499701
1302 441475 838749
1303 701062 65443
1304 419316 827270
1305 197682 189462
1306 214192 752111
1307 711705 137622
1308 880518 565848
1309 864570 599707
1310 493925 515747
1311 472298 529051
1312 769678 103023
1313 143196 373820
1314 411503 649418
1315 143653 714170
1316 654496 158098
1317 152220 746780
1318 528075 509269
1319 449835 870942
1320 434788 599335
1321 88974 722398
1322 633054 202703
1323 499305 498515
1324 87359 344245
1325 890034 132157
1326 442355 841234
1327 382789 815838
1328 169869 708631
1329 461298 834543
1330 180390 202905
1331 466681 868453
1332 141247 682926
1333 119693 578223
1334 432091 826651
1335 895164 526979
1336 672279 106529
1337 142782 578522
1338 817179 735079
1339 435147 570054
1340 699632 170095
1341 224334 796556
1342 621011 144401
1343 152433 589765
1344 102669 351263
1345 223363 824664
1346 194893 201083
1347 880329 552735
1348 450138 530999
1349 487042 475173
1350 923945 111877
1351 616510 149437
1352 207470 177100
1353 469554 488232
1354 462112 812233
1355 649651 150399
1356 144992 530075
1357 424794 726623
1358 870086 133820
1359 657054 169693
1360 481760 546933
1361 446180 519658
1362 181160 552461
1363 878103 168499
1364 892817 578280
1365 93529 368170
1366 197476 194118
1367 402565 682808
1368 473676 466646
1369 170258 578575
1370 837367 739014
1371 194626 189461
1372 880093 566729
1373 401626 796590
1374 173653 175896
1375 180073 663582
1376 120837 368252
1377 402827 671869
1378 497969 544397
1379 155607 542026
1380 420161 770436
1381 216200 838660
1382 122946 361421
1383 105125 362639
1384 359243 664235
1385 438973 772944
1386 101690 391041
1387 824139 746638
1388 933766 592489
1389 143930 578634
1390 796905 747710
1391 659896 186077
1392 196064 668322
1393 119255 730996
1394 186491 185389
1395 861031 574935
1396 183533 340606
1397 493395 482606
1398 425445 843255
1399 231026 805807
1400 111288 349827
1401 202725 818285
1402 138273 346961
1403 148741 269369
1404 128761 705578
1405 246491 810746
1406 501529 780494
1407 148229 706914
1408 452172 816993
1409 485525 830495
1410 646395 162085
1411 164722 683854
1412 677255 180154
1413 368300 669721
1414 193174 833561
1415 478626 515778
1416 640214 174205
1417 462868 547557
1418 98987 739548
1419 164325 718931
1420 880929 149050
1421 809802 755268
1422 111721 345856
1423 179697 167206
1424 199025 196551
1425 406204 668858
1426 224051 232486
1427 188055 568172
1428 118681 672317
1429 204949 824479
1430 430830 520622
1431 212508 209253
1432 685772 187767
1433 420826 703440
1434 454306 851152
1435 179512 799675
1436 180077 797524
1437 484912 824010
1438 219015 787552
1439 405663 717399
1440 392875 786297
1441 876448 717892
1442 917814 156019
1443 857007 734584
1444 413132 850526
1445 255224 867080
1446 901989 573628
1447 854961 739176
1448 728318 107936
1449 115737 697416
1450 113710 344290
1451 261093 842755
1452 199253 624285
1453 399691 683981
1454 841036 759385
1455 775358 105826
1456 647811 139549
1457 449786 653465
1458 210227 814868
1459 413998 542370
1460 156463 731659
1461 467061 835120
1462 828884 736099
1463 484833 844185
1464 501661 515035
1465 193882 579871
1466 154676 687087
1467 378798 820343
1468 181504 701370
1469 457389 802866
1470 408163 712323
1471 171845 241313
1472 127293 344278
1473 772262 147095
1474 502437 543402
1475 201756 575053
1476 121124 717094
1477 840790 599520
1478 893667 584232
1479 807073 715972
1480 154015 178339
1481 873447 166874
1482 120973 301835
1483 164907 579550
1484 173775 563914
1485 666742 221124
1486 893428 548515
1487 493303 507618
1488 479907 523032
1489 214323 792806
1490 482523 503457
1491 904209 141750
1492 885458 601030
1493 702124 154862
1494 131431 689878
1495 201416 145035
1496 432069 697868
1497 246663 773379
1498 454900 860867
1499 127544 727172
1500 482789 545841
