NAME : portcgen-300-310
COMMENT : portcgen N=300, seed=310
TYPE : TSP
DIMENSION : 300
EDGE_WEIGHT_TYPE : EUC_2D
NODE_COORD_SECTION
1 675446 208710
2 628053 302021
3 161975 209104
4 891891 517144
5 984002 636472
6 655364 331231
7 1125641 554175
8 983707 623656
9 598134 170107
10 1042575 628203
11 978410 632495
12 519392 340672
13 617237 200630
14 -62783 123863
15 664196 173986
16 186789 156198
17 34137 209014
18 988152 727551
19 641187 233407
20 646269 239762
21 110915 197733
22 60224 235866
23 576160 245362
24 648658 232020
25 989357 601674
26 1036353 687908
27 996717 508489
28 711267 203605
29 569224 279383
30 1048627 628214
31 1007079 602600
32 44314 203402
33 119281 185265
34 982149 684850
35 72533 216515
36 1051533 666325
37 986389 586926
38 69161 180725
39 138540 194530
40 -14575 205321
41 71704 186433
42 938604 640744
43 997052 625542
44 -24054 216823
45 1037442 774185
46 992861 657993
47 667839 225619
48 646129 269334
49 1016499 676665
50 1036000 619977
51 115647 95953
52 596989 232237
53 982592 658731
54 46394 131315
55 671829 142440
56 726738 355744
57 939464 567612
58 210331 238130
59 989973 702436
60 987574 559473
61 902460 591083
62 187150 171084
63 43812 189301
64 585547 140368
65 630719 217292
66 622518 342810
67 1038062 685487
68 547087 322969
69 1011159 623229
70 117324 180181
71 230581 201369
72 1009478 668920
73 112210 209705
74 111759 239553
75 683641 253071
76 48867 188426
77 180069 220789
78 71785 161580
79 119968 241314
80 688021 266247
81 963839 610790
82 618890 137108
83 133563 234702
84 916046 694774
85 963422 639658
86 616004 176601
87 607189 164712
88 621008 210116
89 678167 167723
90 1029884 649561
91 144268 221058
92 75704 231504
93 55945 107737
94 650090 221165
95 173382 155028
96 628152 169170
97 998470 589691
98 1025551 711571
99 667034 188269
100 992205 643839
101 209792 241354
102 986023 626765
103 710910 278818
104 628062 218130
105 80818 268800
106 85711 334033
107 1033051 647734
108 614307 272185
109 1049537 677334
110 718695 240625
111 1014110 616433
112 148227 205833
113 1040841 606953
114 578711 137082
115 147276 141250
116 683269 219247
117 1008963 695727
118 65306 121283
119 637046 283448
120 975724 598545
121 748745 140407
122 616339 351536
123 1067838 578336
124 1032613 616206
125 932263 668813
126 988923 657149
127 908220 709903
128 88460 117405
129 924372 554978
130 33340 251447
131 931677 663809
132 58134 139108
133 716482 53515
134 681863 293391
135 1003595 560132
136 143946 171968
137 967913 674202
138 696291 256318
139 1001018 656674
140 56956 142355
141 956983 663317
142 540256 195918
143 1125776 678696
144 598436 185132
145 974451 646164
146 83678 235133
147 159882 261517
148 623987 223703
149 692628 255371
150 102837 195512
151 991387 495823
152 971382 730091
153 104727 187554
154 114696 287920
155 922081 810016
156 570328 205699
157 682740 192592
158 1028756 636481
159 674095 207312
160 980124 644019
161 907147 565376
162 961865 582362
163 994062 629230
164 659628 267919
165 72881 183621
166 92809 255510
167 164728 258948
168 90019 246468
169 703899 262734
170 114792 241267
171 191185 240743
172 -5276 186512
173 29205 218725
174 973870 633934
175 987227 570069
176 56285 235125
177 895448 730175
178 -28494 301061
179 85433 202888
180 675509 213418
181 79618 169215
182 1061454 639804
183 942920 709454
184 -26276 234974
185 960625 649359
186 727721 125131
187 712549 250505
188 113117 152166
189 72895 186233
190 76185 256571
191 611773 231955
192 949478 626146
193 140565 193468
194 67573 228530
195 970614 656521
196 -20500 283375
197 47385 82515
198 92012 164875
199 692628 314100
200 671852 176967
201 1061809 701331
202 1006218 745461
203 76755 249144
204 996250 641865
205 1099819 719941
206 900936 663088
207 978496 671363
208 551257 262589
209 647384 138916
210 151985 149345
211 1014926 662659
212 925444 649478
213 172035 215252
214 929268 630342
215 909360 602509
216 65401 178251
217 659983 272401
218 14079 148655
219 626985 229575
220 1017655 638781
221 926373 656891
222 954292 665107
223 9000 272919
224 706128 236330
225 626702 209627
226 976801 543429
227 1131764 648454
228 24598 233957
229 564235 254948
230 950739 624694
231 956220 632649
232 -22470 160486
233 684809 140728
234 549379 271926
235 662431 290651
236 579590 137995
237 145550 187388
238 549424 264666
239 596653 253965
240 977137 705886
241 624320 236265
242 74503 218687
243 611780 299847
244 175704 199832
245 589761 199290
246 729723 289299
247 618822 275386
248 -21553 163932
249 693474 199598
250 1057673 681470
251 37056 234705
252 686196 224654
253 95247 194928
254 50926 248566
255 984509 719375
256 671975 227387
257 83677 128916
258 663923 289604
259 1124665 680879
260 1073800 574556
261 639339 341548
262 540279 250398
263 1067305 696468
264 726856 307965
265 140253 206120
266 619761 125133
267 104107 101114
268 969011 590790
269 87358 160541
270 -44912 267217
271 641129 244892
272 975060 688259
273 -9140 238305
274 541951 187901
275 583382 202764
276 608252 322008
277 698771 290758
278 122805 156772
279 660373 214295
280 944770 566109
281 635092 165582
282 102188 252239
283 996705 680592
284 158902 121561
285 619934 153199
286 54328 252777
287 708290 166283
288 694633 283230
289 133919 257996
290 6850 188336
291 680458 327250
292 635934 263280
293 105218 201348
294 70545 256908
295 585880 182475
296 939185 617453
297 690942 244543
298 1044943 671948
299 702476 155583
300 696618 185073
