NAME : portcgen-1300-1307
COMMENT : portcgen N=1300, seed=1307
TYPE : TSP
DIMENSION : 1300
EDGE_WEIGHT_TYPE : EUC_2D
NODE_COORD_SECTION
1 780901 904468
2 414150 475520
3 1006027 778087
4 951103 758666
5 650117 913976
6 826455 984307
7 422493 467598
8 16934 737650
9 173542 548536
10 340031 1007915
11 6601 674803
12 199002 450386
13 1000012 880390
14 -41384 596295
15 811450 995216
16 659166 860910
17 1005842 832006
18 236231 508193
19 13008 519096
20 -6196 540583
21 686918 799037
22 398324 676654
23 350150 1014622
24 372406 678953
25 784060 1013262
26 813045 933002
27 655431 832270
28 215302 506567
29 677828 789824
30 329867 968719
31 477614 472509
32 31253 742762
33 34218 710417
34 753496 864148
35 801733 992938
36 1051396 847538
37 434742 423074
38 718735 846156
39 670667 940202
40 356507 586445
41 813923 954920
42 -1090 682318
43 815510 977315
44 33966 505610
45 341524 1019649
46 617092 799950
47 610770 772192
48 836558 1015303
49 1021123 822923
50 250450 361639
51 34431 748075
52 762177 894620
53 23081 551019
54 809438 899732
55 686306 836132
56 407147 477221
57 468905 438935
58 71297 692945
59 -2510 569114
60 190893 529350
61 300574 387747
62 29091 759669
63 837420 972968
64 501844 458439
65 78192 760340
66 59850 690374
67 662226 796204
68 445545 452893
69 66990 747504
70 55934 724578
71 162873 497534
72 419620 622452
73 378484 1002484
74 804777 1022687
75 465177 465538
76 847568 999197
77 10442 531480
78 688237 904705
79 986457 779459
80 42644 721287
81 646766 851154
82 372136 603387
83 804631 994061
84 797195 999071
85 4113 579540
86 425911 625660
87 80640 768642
88 276508 339448
89 53925 697155
90 787426 995966
91 851424 982616
92 300355 365781
93 657876 838538
94 92223 662841
95 746394 888036
96 656957 862221
97 714370 913354
98 604353 778708
99 57405 750454
100 360972 370035
101 283576 1013971
102 392142 425496
103 644829 819785
104 1035578 803859
105 50778 747060
106 288247 313667
107 631747 770072
108 1020008 804243
109 272136 968627
110 -2697 587692
111 386042 649676
112 1008135 814304
113 765632 947120
114 978269 883126
115 709831 886993
116 -26653 709781
117 307751 1015389
118 34965 536062
119 175263 556177
120 659070 919756
121 297983 387120
122 684487 751382
123 805832 946134
124 104960 822049
125 338144 624057
126 280597 398022
127 968790 809601
128 591388 923306
129 340572 319239
130 349633 1007339
131 405789 620663
132 26208 517270
133 137645 471730
134 18619 580734
135 759884 908643
136 776407 946642
137 446546 417973
138 815550 995082
139 797142 958579
140 316064 1009617
141 42447 707525
142 818308 991128
143 75147 742539
144 303261 987759
145 1037750 853833
146 161526 481753
147 296184 374473
148 47148 691197
149 12711 531220
150 988763 817853
151 793838 939594
152 9507 512006
153 455478 449763
154 35561 661066
155 100486 756560
156 290092 335080
157 395432 1006266
158 68771 783240
159 151691 539168
160 637006 830760
161 717531 932020
162 28661 689561
163 973097 854144
164 467571 453052
165 614296 939402
166 164711 516406
167 1050769 773907
168 706745 983352
169 778896 1000168
170 369134 592731
171 799004 1017190
172 657707 792975
173 86394 512062
174 28672 742831
175 633928 835883
176 991855 829474
177 91069 718456
178 33125 703634
179 342745 992959
180 164493 508184
181 249979 331545
182 50125 774627
183 176725 490426
184 1018199 846354
185 284392 334744
186 980532 850144
187 755540 912964
188 326885 977721
189 646669 814605
190 627033 795397
191 313219 1028153
192 170774 531254
193 425473 444232
194 309164 963951
195 477330 470607
196 270874 354198
197 29407 496416
198 980133 816244
199 56149 680093
200 35250 697661
201 448375 600236
202 403598 620168
203 63513 706870
204 751028 930111
205 314780 394402
206 299768 317441
207 364950 650742
208 333945 348889
209 318774 1004476
210 660352 793930
211 378780 624260
212 630771 747222
213 352667 989508
214 821156 960176
215 349802 969645
216 95405 800863
217 162343 530723
218 -6520 578361
219 742145 852000
220 167163 481692
221 427483 573967
222 46557 740021
223 50617 772774
224 415522 680912
225 21600 679981
226 578333 777113
227 22561 733322
228 33134 540133
229 27256 726851
230 82247 722541
231 283322 351718
232 376109 601370
233 711084 894207
234 794237 896208
235 621946 763807
236 711533 940413
237 442411 468656
238 31247 734462
239 25286 525445
240 425473 465144
241 339389 984836
242 284821 323445
243 290338 986788
244 811449 977088
245 48414 808574
246 55942 567974
247 13940 724175
248 337142 380224
249 828928 896737
250 149740 510321
251 693090 929914
252 5612 705876
253 786610 842629
254 39888 730786
255 13694 513285
256 -24408 529963
257 329332 1021095
258 682689 868370
259 638421 823698
260 355246 1007739
261 49608 567965
262 786105 1032184
263 633646 941424
264 991785 816463
265 669068 913478
266 495756 422720
267 754879 886583
268 793124 988155
269 964922 800012
270 161092 502652
271 153707 551807
272 273576 1018741
273 847498 993863
274 247234 316463
275 979087 839302
276 33748 529211
277 758374 862365
278 291942 364489
279 423990 479951
280 659993 821434
281 162818 501285
282 752123 938945
283 60716 695157
284 629500 834184
285 350090 626068
286 666373 895864
287 69786 678222
288 752233 888014
289 357428 993657
290 334131 378836
291 16158 711376
292 686596 927341
293 472921 445340
294 638383 755830
295 331616 1000083
296 270968 349481
297 742455 872887
298 775436 865727
299 663831 742019
300 52613 670127
301 773300 992090
302 802209 1007571
303 727286 884948
304 164212 521348
305 630097 934926
306 398759 636310
307 634295 840717
308 691610 919418
309 179724 476894
310 653025 945761
311 483834 364992
312 50111 716430
313 311901 1013163
314 309340 666457
315 -1265 535951
316 290890 994544
317 716697 911059
318 676521 954192
319 310256 1014298
320 662668 963646
321 704617 921700
322 688429 802046
323 750949 859789
324 793997 868783
325 30800 564932
326 847405 994226
327 73692 699446
328 622273 798114
329 290217 376034
330 11325 528474
331 668235 897570
332 805127 985924
333 397690 453501
334 775677 978422
335 970478 876443
336 424355 407997
337 219047 551273
338 659030 792561
339 478049 447903
340 707514 868677
341 162816 546485
342 643447 823645
343 807164 969640
344 781111 843742
345 127585 499388
346 824983 1035887
347 72701 760500
348 1015241 833543
349 326925 1006846
350 62539 720382
351 454661 596168
352 280874 994713
353 26959 730109
354 625470 976587
355 348372 1003115
356 402828 640603
357 813487 958223
358 621340 792784
359 474649 404570
360 9176 706313
361 36480 481603
362 807645 977833
363 203714 503436
364 45125 785828
365 349787 1031065
366 26221 776166
367 -14142 560242
368 467193 483144
369 820429 1016546
370 48612 535452
371 311802 336321
372 1016040 846053
373 674289 804709
374 1004480 854918
375 740552 925054
376 844041 973730
377 392527 996020
378 972525 776818
379 317382 378099
380 257973 331273
381 33842 752093
382 667952 918307
383 -3834 694344
384 55637 783163
385 199514 501283
386 163423 436632
387 785176 909962
388 -820 548305
389 307340 325921
390 655517 781005
391 753388 954119
392 657785 811748
393 318522 330280
394 338957 970700
395 44547 512300
396 82749 772959
397 510673 405415
398 153781 455534
399 648259 921457
400 815237 994333
401 806845 1027267
402 997572 849694
403 745937 902841
404 433401 638615
405 982994 862673
406 28042 679517
407 856465 1004611
408 957750 843191
409 96883 762228
410 102896 535210
411 708847 936453
412 433392 394950
413 -4800 707897
414 210214 460874
415 141953 713809
416 316447 349507
417 712930 929348
418 800739 1007804
419 416613 613892
420 998522 830677
421 440614 629296
422 354634 1020826
423 1018744 855349
424 311289 385795
425 668934 934866
426 185028 459143
427 694740 911487
428 345371 1030463
429 304824 354599
430 670896 919608
431 676929 811531
432 53813 705841
433 785542 896600
434 365168 980205
435 974714 849473
436 1019300 832832
437 300246 320094
438 1006772 816872
439 685019 956645
440 54700 653591
441 459197 415603
442 51685 529323
443 665290 949521
444 -480 747640
445 835087 1049435
446 655880 762918
447 386044 1004290
448 829405 1025307
449 383733 635363
450 33257 517667
451 354808 370974
452 779430 888818
453 337667 1019011
454 75029 664522
455 706354 940992
456 379457 978469
457 354127 682755
458 297493 363230
459 40685 526659
460 766529 898378
461 213619 455804
462 365287 621401
463 773732 894781
464 994229 827134
465 650282 729984
466 394668 656117
467 986657 831459
468 80190 676909
469 716196 917555
470 141632 509556
471 119993 509824
472 662297 958979
473 399118 584178
474 381671 604587
475 749580 873280
476 639955 927347
477 769369 987084
478 416794 628321
479 943040 803602
480 76553 672814
481 179467 513032
482 411876 588345
483 313108 378448
484 430768 443056
485 805942 984198
486 96329 668355
487 665987 953167
488 331946 373471
489 33597 791522
490 765381 1001980
491 223085 553444
492 44276 790915
493 291079 349621
494 677164 943851
495 400944 611309
496 675643 925840
497 710409 885160
498 24185 584003
499 320287 341243
500 432478 445966
501 684946 962170
502 -34390 535474
503 662475 815134
504 87767 768918
505 436266 645103
506 350398 972896
507 178684 515022
508 1016594 857044
509 71087 576054
510 317644 358765
511 838265 1008720
512 666263 934868
513 402818 639460
514 643405 786325
515 5756 541706
516 423121 459820
517 652241 827817
518 422415 419971
519 19276 528861
520 787749 891088
521 172193 471034
522 808929 1018201
523 399262 978546
524 817851 998820
525 15684 680422
526 80824 699890
527 1001894 829087
528 1020902 846383
529 718343 910331
530 624905 774609
531 33221 522792
532 33078 539508
533 470991 479124
534 781973 985851
535 853367 1053349
536 975981 839956
537 472407 411008
538 360998 1041765
539 748742 896581
540 453611 453772
541 313463 996943
542 371852 628189
543 667806 762271
544 875734 1013341
545 290206 330611
546 336638 1000854
547 317209 990354
548 627402 785034
549 814659 890648
550 50091 549446
551 655650 924599
552 708925 927190
553 958201 853432
554 486432 370487
555 927546 855108
556 367988 618784
557 42336 719184
558 384987 619851
559 452809 442861
560 885424 992353
561 659470 800180
562 166730 460750
563 364815 644396
564 440754 433670
565 9519 515771
566 69843 724661
567 390951 992123
568 858106 987707
569 779248 853858
570 34753 698070
571 434952 424669
572 421913 436057
573 154480 503715
574 164835 480376
575 -950 547159
576 442360 407923
577 172902 497594
578 324561 1012677
579 42805 780346
580 182961 493475
581 64314 682565
582 62131 767601
583 44654 743674
584 6841 557216
585 383958 639061
586 29065 546921
587 52191 692782
588 739593 898259
589 -19900 754486
590 291644 334966
591 53237 750724
592 803025 984930
593 396432 607155
594 300680 396168
595 217675 458435
596 70370 726001
597 651408 961094
598 49833 764628
599 36489 561078
600 279052 376750
601 13472 716720
602 438199 443889
603 996114 823858
604 423774 662046
605 804352 985220
606 64109 668966
607 687200 809010
608 390649 627626
609 311105 378239
610 662980 918882
611 501626 432490
612 980549 826526
613 128330 523391
614 998317 824316
615 379702 627453
616 659600 840808
617 53712 726126
618 968388 896237
619 92631 780558
620 29140 761176
621 971555 853001
622 22673 658589
623 671683 945707
624 356978 1039851
625 374785 621118
626 748227 902126
627 859564 983618
628 66366 760031
629 317226 356319
630 631296 949596
631 589207 808628
632 290245 357316
633 649191 760984
634 1063 703971
635 978403 858584
636 457530 414234
637 663401 860216
638 333007 1016013
639 -14496 554266
640 817699 983576
641 661767 796966
642 364715 651011
643 690872 885265
644 297607 398990
645 707903 927058
646 303556 349634
647 35412 742001
648 830485 978229
649 4160 525407
650 800443 980655
651 169242 511359
652 167813 503080
653 404915 624386
654 605686 815235
655 18137 725528
656 12364 523319
657 352189 637960
658 360656 1043353
659 739145 891322
660 232120 494199
661 -30871 721633
662 281986 294415
663 -1293 538604
664 695301 955500
665 16524 553762
666 430756 444616
667 966805 827014
668 310697 333589
669 460396 457458
670 847648 1004991
671 678477 940312
672 812060 967120
673 380841 648941
674 335149 1049187
675 202986 489915
676 780055 915661
677 250362 361974
678 664037 954879
679 364996 614859
680 3933 572459
681 38596 743754
682 144636 490456
683 -2755 789123
684 60342 782916
685 44832 483707
686 371932 613640
687 753065 865962
688 60505 748888
689 6243 771362
690 292302 985322
691 26245 483956
692 301395 341540
693 475404 448888
694 770190 899841
695 752592 886189
696 803566 1035930
697 778621 991624
698 1029935 792334
699 -29709 524112
700 364943 660727
701 855303 1035311
702 825438 967889
703 70163 717469
704 150631 499339
705 36983 779742
706 668259 1021892
707 135822 776512
708 267311 323961
709 38315 707146
710 1016821 808840
711 727017 856430
712 320189 1010678
713 321065 358616
714 181134 489711
715 457832 512863
716 108052 505448
717 378931 658451
718 352409 1020627
719 485667 453692
720 164463 471825
721 809853 960857
722 667326 871821
723 332274 1012777
724 476446 616639
725 818967 989142
726 464166 601175
727 364070 648779
728 315545 1044186
729 12835 755317
730 669688 855821
731 984779 811708
732 99747 693901
733 756450 868883
734 990919 855898
735 356932 653765
736 694457 928741
737 741289 874528
738 44542 741019
739 813411 1030412
740 184858 497286
741 313251 357434
742 721913 813453
743 989113 820054
744 293412 380538
745 292140 988549
746 315085 359980
747 35547 563667
748 21268 723876
749 663432 903529
750 -8709 686932
751 685171 901240
752 191126 527021
753 644175 785525
754 38465 557509
755 787157 1033436
756 993194 835003
757 408547 634605
758 439416 447252
759 324869 1017506
760 766535 910850
761 387595 652891
762 638602 822473
763 301643 378370
764 79262 676060
765 382720 623753
766 855582 951131
767 49589 768990
768 783961 1007582
769 39219 786053
770 754093 918281
771 462984 393706
772 363434 1008198
773 667084 754707
774 823798 1001177
775 997138 865154
776 730013 896802
777 974177 770079
778 362399 983721
779 313219 1018748
780 336219 637410
781 710300 831098
782 170609 538343
783 684315 918024
784 131161 555302
785 428459 625818
786 476605 462550
787 983731 869528
788 670603 790481
789 156506 481965
790 290661 354301
791 669766 814652
792 360191 647436
793 76783 669028
794 415525 996443
795 806524 903439
796 397886 435927
797 396677 653452
798 790758 864529
799 331491 337491
800 744223 929219
801 633225 787644
802 133930 508632
803 45065 678462
804 746930 856189
805 181720 504843
806 326619 1004669
807 83573 809174
808 344009 364858
809 988527 824542
810 440013 420164
811 65116 759329
812 72303 778578
813 990511 850138
814 169957 495107
815 976678 844371
816 31225 500280
817 72607 745141
818 704253 967523
819 92019 747543
820 225857 476908
821 47675 737264
822 455072 455497
823 729332 878463
824 303450 330733
825 468309 427290
826 780430 875532
827 687626 916111
828 628490 805573
829 409931 626700
830 1009981 906024
831 58065 766778
832 117155 467612
833 74129 754912
834 1013254 863052
835 25450 527972
836 48449 775701
837 326631 380116
838 1034106 829978
839 6231 553657
840 769807 842019
841 635939 820815
842 211194 486326
843 778899 833765
844 291025 364030
845 -6840 560581
846 452220 457782
847 664731 817045
848 663116 951141
849 343032 987187
850 340283 990749
851 165003 485228
852 784291 897554
853 29120 700048
854 320384 364818
855 62326 747933
856 732518 934437
857 355834 377066
858 38601 636542
859 717629 872535
860 1043413 781010
861 507174 377750
862 1051944 829337
863 235547 486439
864 45291 740017
865 327988 632207
866 315503 948111
867 61722 787279
868 751184 918101
869 786257 973309
870 54911 756031
871 85824 698863
872 264700 370486
873 -32609 551674
874 179166 507368
875 78718 820405
876 615923 800273
877 77311 706990
878 316155 385476
879 32132 765953
880 720171 882308
881 624794 804574
882 797225 1022770
883 62370 711405
884 996025 764693
885 -8416 546895
886 428988 450718
887 265679 372696
888 26140 524766
889 52693 688560
890 500835 423563
891 383178 977255
892 615895 789467
893 451423 500020
894 273266 976106
895 973141 862983
896 795132 982327
897 799517 980674
898 815648 1001533
899 448741 448910
900 389500 989137
901 1013720 809268
902 -17210 508686
903 29128 697725
904 678197 932913
905 480531 434875
906 359158 985988
907 658901 946700
908 304172 306746
909 781977 877883
910 653762 921412
911 339682 1028036
912 38103 780293
913 133620 497269
914 352612 1008617
915 344565 934456
916 243961 343059
917 665643 953321
918 47234 541648
919 384123 618658
920 700687 845547
921 754035 886868
922 66087 481983
923 437966 444383
924 8338 713266
925 327968 355374
926 160520 490753
927 671724 911989
928 53772 681800
929 181546 457650
930 99353 764848
931 668755 914544
932 966856 805071
933 41380 672241
934 362773 629587
935 424216 475131
936 20816 806169
937 350293 615455
938 363583 1004715
939 329675 945106
940 669889 875309
941 308503 994827
942 166901 515551
943 474287 416750
944 157900 462738
945 26007 561788
946 325714 981573
947 692988 892704
948 191877 511118
949 419044 427230
950 15211 756605
951 38903 677668
952 431922 430039
953 410057 610805
954 322693 328758
955 30068 693433
956 967472 793895
957 14510 562438
958 475450 469965
959 387972 641658
960 29368 550348
961 779672 880446
962 32131 671930
963 404046 620154
964 -20046 530953
965 -8754 759225
966 373293 1065792
967 36321 732489
968 361813 1001158
969 784731 878362
970 347980 991787
971 426487 387433
972 3578 547772
973 -61838 502386
974 139189 460117
975 176220 545702
976 26392 511370
977 650799 910889
978 606131 722564
979 404934 633806
980 606762 832093
981 1020139 774569
982 334242 290817
983 12613 468121
984 446872 440132
985 35195 731250
986 811290 1040006
987 120833 501199
988 809317 1039444
989 379959 619236
990 791021 879459
991 197011 490756
992 40094 510559
993 142381 501779
994 743393 936510
995 175556 527352
996 809034 1015469
997 707370 889299
998 695659 962193
999 729349 912196
1000 53313 731074
1001 629945 833077
1002 709510 913596
1003 461961 425355
1004 196444 503269
1005 824576 962470
1006 71563 774465
1007 684017 964830
1008 259554 309642
1009 681845 929746
1010 611754 861582
1011 378043 432276
1012 408313 650803
1013 349223 989920
1014 659153 842516
1015 291458 396292
1016 310377 350023
1017 -41397 534802
1018 1032664 797220
1019 979325 794991
1020 242402 354692
1021 28562 681255
1022 653145 807234
1023 85670 737702
1024 25978 544270
1025 53294 483013
1026 672312 777921
1027 810033 993729
1028 337960 1013926
1029 622719 782107
1030 670222 942545
1031 407281 648988
1032 612343 791876
1033 833778 968554
1034 80844 722563
1035 786990 998187
1036 659960 841431
1037 -13851 586291
1038 41629 595545
1039 27790 709224
1040 31339 664587
1041 7652 699683
1042 823219 1001244
1043 797269 924984
1044 290479 1016807
1045 1006581 811059
1046 318215 984602
1047 779875 997873
1048 -28507 511988
1049 345621 363204
1050 622042 811068
1051 625515 810634
1052 762905 887391
1053 745857 867260
1054 454607 471539
1055 1039627 863522
1056 24415 771862
1057 778909 1004736
1058 686298 828972
1059 4888 680190
1060 603349 802014
1061 37980 845334
1062 354476 624404
1063 750556 901413
1064 663572 822722
1065 287161 349715
1066 626249 834893
1067 679981 908925
1068 7777 662454
1069 649419 794896
1070 469658 433332
1071 -12345 545856
1072 118569 688077
1073 704112 798591
1074 755825 937322
1075 843470 987466
1076 684292 944374
1077 347448 353774
1078 375916 469699
1079 29771 727372
1080 613907 790692
1081 346832 1027310
1082 325208 962768
1083 168891 487460
1084 7971 684300
1085 25148 730778
1086 380003 963553
1087 335020 618917
1088 762901 892798
1089 334039 946100
1090 139074 512655
1091 96384 740373
1092 428932 447704
1093 194599 521410
1094 274602 338141
1095 14669 721714
1096 690762 785057
1097 152027 448485
1098 828122 984448
1099 718342 903219
1100 -43290 506460
1101 647209 926433
1102 44509 722901
1103 727512 865351
1104 818906 993418
1105 319607 364425
1106 473825 449231
1107 686736 893395
1108 144497 467470
1109 -20286 538839
1110 998468 785908
1111 830226 1060782
1112 731547 909368
1113 697749 939504
1114 460988 490333
1115 984297 807748
1116 697340 920490
1117 -13891 523494
1118 631695 950272
1119 708332 929401
1120 1013413 876700
1121 427720 464052
1122 744790 918628
1123 764725 840945
1124 820291 1014846
1125 322526 317218
1126 358521 1020462
1127 273710 392236
1128 -412 551535
1129 792299 1005626
1130 20144 753209
1131 8795 798579
1132 304704 407865
1133 973941 844059
1134 52815 768075
1135 307695 347399
1136 794481 897737
1137 88564 768658
1138 639384 908495
1139 776984 865678
1140 22112 669333
1141 46468 726290
1142 656543 984455
1143 88278 763089
1144 30825 691606
1145 24382 717397
1146 991898 870735
1147 757063 906241
1148 11222 486545
1149 776788 903348
1150 765586 898859
1151 639826 810484
1152 1003064 852102
1153 327773 970366
1154 11863 761754
1155 296097 415429
1156 414699 633617
1157 6805 577951
1158 155321 495817
1159 692149 903014
1160 12636 575546
1161 670152 868031
1162 368888 704839
1163 712455 833119
1164 722088 919590
1165 425676 452238
1166 629918 744784
1167 36843 499621
1168 438871 435889
1169 954386 903322
1170 51241 780972
1171 63642 508249
1172 24233 711111
1173 759217 943190
1174 473669 469236
1175 808 758721
1176 363745 323686
1177 721822 865303
1178 91536 692687
1179 321420 959893
1180 339230 963210
1181 321253 361405
1182 743656 943714
1183 601422 788750
1184 354149 970789
1185 173477 501095
1186 316277 404294
1187 788164 1051119
1188 806947 998956
1189 694850 913886
1190 178419 539726
1191 695354 922255
1192 797622 1001145
1193 663632 850486
1194 465901 454669
1195 49429 768247
1196 -2167 550189
1197 477596 427401
1198 134782 478968
1199 268741 353426
1200 427028 441896
1201 788643 1019045
1202 800279 1009808
1203 464922 501979
1204 179309 493549
1205 24798 722619
1206 781475 892937
1207 327808 1022737
1208 466722 467173
1209 305528 422911
1210 59270 769323
1211 228015 358433
1212 844988 972577
1213 35790 754905
1214 177831 491783
1215 783523 1008339
1216 198838 488095
1217 672809 921720
1218 -30611 705279
1219 377784 650705
1220 24948 736923
1221 133064 506298
1222 829432 988861
1223 704165 928304
1224 411845 580340
1225 374988 622858
1226 623853 800852
1227 264224 298745
1228 750615 909193
1229 327250 979688
1230 990770 797507
1231 342815 1000082
1232 841754 1010681
1233 80686 755045
1234 44255 796110
1235 753745 857526
1236 475079 433487
1237 356006 1042011
1238 844755 967003
1239 -9126 563899
1240 172633 513800
1241 712523 962288
1242 292726 323053
1243 359000 976608
1244 625451 921807
1245 154483 511535
1246 1037719 811901
1247 39358 542283
1248 26346 699655
1249 641118 798161
1250 830885 995919
1251 773700 1049065
1252 1027718 812573
1253 168701 467370
1254 465844 458651
1255 293561 1002117
1256 9291 499188
1257 301504 375179
1258 679264 902693
1259 695746 924212
1260 990308 854841
1261 624164 798023
1262 653962 782073
1263 840463 998325
1264 162807 478707
1265 418193 634653
1266 322893 987766
1267 275230 350076
1268 763169 896971
1269 478322 470317
1270 30585 571408
1271 955920 801442
1272 754812 899715
1273 1687 572513
1274 -13827 543597
1275 288689 992978
1276 609499 798526
1277 391173 664512
1278 401110 607676
1279 82717 734915
1280 12939 696935
1281 201028 493809
1282 11788 695318
1283 352434 984432
1284 54174 702579
1285 393751 693180
1286 507161 402873
1287 471423 421589
1288 677166 829685
1289 18702 663083
1290 161173 469095
1291 337645 1021987
1292 381930 690315
1293 19315 478164
1294 667362 928440
1295 692308 908553
1296 4103 498951
1297 876339 1022132
1298 646188 772318
1299 992678 849142
1300 73533 760817
