NAME : portcgen-1500-1503
COMMENT : portcgen N=1500, seed=1503
TYPE : TSP
DIMENSION : 1500
EDGE_WEIGHT_TYPE : EUC_2D
NODE_COORD_SECTION
1 192711 666286
2 139422 996984
3 114442 226376
4 736543 381733
5 289625 637852
6 256209 661703
7 983396 353245
8 313616 828930
9 1018495 347903
10 646832 302582
11 280597 829644
12 653505 148602
13 968579 383054
14 923169 362718
15 929497 588070
16 967316 367615
17 210233 995554
18 219944 747655
19 252037 758457
20 978940 372829
21 917865 342179
22 314306 728513
23 222222 776055
24 991997 316299
25 711885 116818
26 275798 797825
27 916149 387543
28 273856 654870
29 251784 832448
30 613858 298855
31 946168 329500
32 143660 969505
33 112289 244064
34 619471 232970
35 249832 114052
36 600177 455942
37 897457 641553
38 194073 713228
39 587015 490707
40 580869 525592
41 641861 225866
42 795860 386039
43 343158 402215
44 80209 232256
45 96903 193217
46 630624 225682
47 762166 416631
48 573174 463143
49 288445 378404
50 925019 558869
51 920406 353976
52 943657 587688
53 250828 151735
54 1008535 346118
55 142403 213672
56 100825 216909
57 274875 113090
58 280078 367154
59 626064 304875
60 890480 621279
61 916001 366323
62 249879 96379
63 663032 95590
64 256868 676936
65 1010134 353574
66 183066 683701
67 284945 655458
68 921275 352409
69 269147 111141
70 940370 352838
71 696916 108181
72 77686 250921
73 212406 788201
74 961937 354280
75 595236 487171
76 279138 633256
77 334238 679423
78 60140 206041
79 773734 367474
80 594435 456039
81 761195 404212
82 270058 849975
83 288939 99142
84 142787 673222
85 1027891 373300
86 89220 214070
87 204916 778818
88 254332 807675
89 204205 685675
90 200545 695479
91 766761 372974
92 200045 724952
93 754200 348171
94 113387 232991
95 924230 612059
96 326363 365953
97 936437 391166
98 59479 187304
99 702023 151792
100 199813 735236
101 285947 359604
102 318253 350496
103 745535 377335
104 167600 775101
105 334704 343170
106 283194 643753
107 285052 682473
108 957734 357308
109 638542 314302
110 280374 886364
111 599951 246817
112 199848 693926
113 661763 124156
114 591343 258942
115 683620 118286
116 244790 776306
117 201828 692327
118 599141 528129
119 310662 401990
120 645937 149823
121 963258 342836
122 917498 627244
123 274539 639525
124 209105 736397
125 973031 319180
126 303570 842711
127 253986 144122
128 137316 784207
129 218657 982934
130 124797 205007
131 907772 607932
132 761540 336580
133 627963 288202
134 586441 482098
135 284548 824416
136 91853 215986
137 903873 394417
138 203439 684125
139 631574 268378
140 136521 217082
141 248893 632214
142 172846 954414
143 170545 1016483
144 983406 287812
145 641086 274697
146 657732 137585
147 1000815 347257
148 269273 169766
149 323037 347983
150 321992 373927
151 960826 336779
152 644844 138991
153 285556 851141
154 626145 433912
155 206603 995704
156 747002 386871
157 964370 353731
158 779037 374566
159 158314 1008325
160 261525 661776
161 358758 413842
162 240467 801260
163 887699 603849
164 187881 740312
165 306250 832388
166 185070 718086
167 250328 736207
168 936478 382750
169 245795 733219
170 202146 967799
171 197165 988544
172 246928 1015445
173 297202 836056
174 753677 358458
175 283186 832387
176 1014841 341019
177 188958 976678
178 200346 708333
179 340677 380608
180 186744 944212
181 164033 966765
182 248870 678246
183 315040 627361
184 300176 862925
185 291675 670209
186 626296 265182
187 315348 385789
188 617976 149052
189 793307 351530
190 228523 1044713
191 283549 151376
192 278016 138528
193 233453 771509
194 900941 399430
195 267652 750106
196 239270 698321
197 281398 131325
198 680442 177152
199 635796 276117
200 646006 148498
201 283609 639737
202 235680 682085
203 250299 852730
204 285487 108974
205 171689 814606
206 318231 860919
207 679631 149181
208 570615 456444
209 643289 197189
210 294443 626589
211 104771 203030
212 324280 894810
213 815271 342987
214 189182 997757
215 292406 359910
216 601360 292487
217 298701 810706
218 237693 723970
219 280925 330622
220 267025 377236
221 177757 980026
222 92374 209849
223 776141 365976
224 307517 356188
225 274199 374228
226 282582 650078
227 244140 698142
228 999579 362665
229 272632 143732
230 587432 495665
231 303810 767829
232 589606 482534
233 317558 660233
234 210202 777946
235 614232 454096
236 301294 417329
237 221976 745053
238 254525 789920
239 101554 240934
240 113999 185818
241 186737 729918
242 854164 552608
243 577462 219791
244 927446 590328
245 261910 707737
246 288094 873194
247 251750 848933
248 934588 349526
249 299619 95556
250 299344 360289
251 905350 359480
252 281509 638113
253 327161 849172
254 188125 948137
255 194940 985314
256 47158 217632
257 125732 202482
258 963251 330427
259 551585 486622
260 285505 376501
261 312859 599212
262 673371 161281
263 203723 761542
264 111414 188106
265 963862 570019
266 929041 395590
267 967768 334414
268 930828 381849
269 932756 426200
270 922147 359016
271 130052 187585
272 81587 207767
273 277774 836196
274 630589 430735
275 241818 770855
276 222354 755674
277 766100 383930
278 596487 450380
279 74713 197019
280 314614 87883
281 934201 381814
282 985404 321966
283 575076 509610
284 658949 205005
285 975774 353621
286 271220 592385
287 1013790 372125
288 661770 157773
289 570885 495822
290 271614 638752
291 886196 598719
292 262964 865898
293 91616 215214
294 997412 320467
295 294765 625489
296 629062 279236
297 224854 707291
298 273178 124139
299 172125 740737
300 621705 302636
301 51720 247511
302 933286 372284
303 1013144 281649
304 616789 465179
305 891896 411821
306 290520 897802
307 941057 349172
308 540602 462798
309 145361 979595
310 298419 348599
311 589218 499580
312 935205 353606
313 925111 606384
314 388124 368252
315 224178 779395
316 652104 217599
317 68721 251403
318 249891 804281
319 331770 376361
320 272391 861684
321 206787 972714
322 188445 724818
323 203485 962848
324 944289 352864
325 660698 159596
326 906644 563401
327 277758 637365
328 688761 169924
329 698556 167928
330 352638 341559
331 581661 239586
332 154063 1007341
333 364455 364947
334 996909 346564
335 944040 368632
336 956409 364028
337 188736 923040
338 277890 369213
339 189841 957045
340 148806 695825
341 588896 445411
342 903559 402366
343 228793 113204
344 607249 458039
345 744555 369888
346 289836 616652
347 282511 875810
348 166337 934873
349 607278 497951
350 238978 793223
351 904591 596619
352 1034287 324940
353 272392 774438
354 959745 559604
355 994563 360976
356 601910 253217
357 741201 353697
358 949432 322720
359 769473 329947
360 263969 156664
361 712633 152429
362 613016 291999
363 927908 606048
364 972973 347228
365 969325 348006
366 269223 138079
367 63193 229561
368 924443 634114
369 707000 171912
370 690945 163288
371 191213 760715
372 898919 630561
373 258382 857935
374 261748 868822
375 305776 631424
376 985530 349496
377 277063 846124
378 613835 278070
379 119992 163309
380 292201 326855
381 641721 86232
382 795710 392242
383 298603 637962
384 204327 962018
385 218391 748840
386 285926 896147
387 598861 284799
388 913983 394777
389 330657 404388
390 917721 554196
391 930448 382237
392 85613 221910
393 970575 356684
394 737232 341026
395 996430 346043
396 808293 405398
397 317056 400095
398 906737 599548
399 596794 488523
400 673407 144927
401 639457 463010
402 697209 229190
403 612849 480149
404 592682 492219
405 167344 930558
406 924211 613478
407 939546 363404
408 328225 346693
409 261607 114575
410 695925 175179
411 203497 699287
412 302109 859818
413 688294 274742
414 128470 184159
415 299043 825675
416 618922 165178
417 289217 780728
418 891242 601462
419 277020 94416
420 267548 603488
421 891614 378252
422 608270 253286
423 643931 134190
424 587929 446357
425 256895 729896
426 768126 359482
427 714260 140117
428 944955 378927
429 97446 264863
430 760852 384250
431 205176 990908
432 723012 381780
433 910825 578190
434 325697 607910
435 604872 215530
436 242488 743795
437 677023 113773
438 582969 243821
439 732108 129589
440 277590 851061
441 885265 363412
442 738634 408717
443 985449 351873
444 238495 760975
445 974645 393597
446 952928 364899
447 926698 361917
448 262517 906204
449 940221 354190
450 327158 292911
451 273493 673056
452 964922 569487
453 759185 391901
454 883079 606728
455 921697 568999
456 594833 304156
457 292604 137324
458 894136 599704
459 653103 253329
460 696391 185005
461 581823 498431
462 251156 662535
463 208612 757707
464 788495 372013
465 999123 306859
466 186906 733269
467 61406 212312
468 939316 301775
469 263095 862612
470 935733 530629
471 926029 333175
472 259680 393596
473 569887 490332
474 266523 888298
475 1004189 376519
476 174435 983614
477 911960 605726
478 277724 390389
479 962241 586038
480 345095 360025
481 262358 128429
482 975060 322116
483 289348 668195
484 273604 764907
485 287042 813029
486 279892 409305
487 612051 270029
488 978311 329339
489 229531 763686
490 582395 511878
491 636940 275883
492 258959 676983
493 601606 472984
494 151142 1003673
495 915509 590445
496 669358 152913
497 636820 220155
498 602446 485683
499 287197 408229
500 932410 425403
501 205339 918880
502 613282 254263
503 300164 401056
504 257324 777878
505 279339 724178
506 894225 613788
507 264797 109080
508 585706 510299
509 1005865 336261
510 320241 385747
511 896769 608185
512 293444 875160
513 278507 836580
514 967096 388082
515 115155 206484
516 247807 84196
517 257241 882557
518 797536 378407
519 947799 371323
520 663866 115228
521 257359 879009
522 258463 720351
523 923914 627620
524 219420 764051
525 631706 280063
526 626281 471325
527 266845 116542
528 655291 152701
529 172515 972512
530 176731 716776
531 286842 103100
532 263700 673197
533 960429 354914
534 200548 918722
535 310913 328725
536 945219 324627
537 293980 378199
538 908549 315382
539 766324 387228
540 288172 658606
541 918388 382938
542 267369 757758
543 65799 235892
544 292034 390638
545 72668 217508
546 198061 955244
547 263291 186285
548 770417 376414
549 751562 354155
550 573962 271175
551 230367 697396
552 964193 325204
553 938027 379363
554 277895 367787
555 598175 478237
556 1005357 330863
557 983496 301724
558 704302 170763
559 243944 693005
560 226270 742771
561 351853 877820
562 761014 433142
563 214148 948966
564 996169 405703
565 325801 377479
566 192037 685658
567 769497 390336
568 568104 263913
569 181134 745675
570 702017 130391
571 916353 384222
572 253108 876332
573 170215 925413
574 223845 598634
575 222857 725584
576 593452 240297
577 933546 392165
578 81432 247384
579 272894 771297
580 244795 874334
581 626229 431372
582 179374 982861
583 299218 369405
584 875697 387664
585 220943 720565
586 305749 383042
587 641079 263546
588 174159 982517
589 762365 407817
590 788302 373890
591 606508 487328
592 283900 799573
593 61287 168828
594 254138 791452
595 668638 125108
596 302238 358543
597 318799 385843
598 737695 413820
599 959304 319656
600 296283 100322
601 921305 614125
602 212919 973851
603 259869 84971
604 313212 609750
605 252975 749266
606 226418 728299
607 178599 688958
608 252859 125332
609 302638 654851
610 322722 660530
611 651351 162459
612 208760 988762
613 248594 104459
614 888405 585375
615 1012820 370149
616 968996 336132
617 664924 160914
618 103104 197411
619 272101 631218
620 300911 657067
621 924728 372779
622 200639 951399
623 231414 867129
624 283374 618297
625 199407 748574
626 960887 345945
627 913656 361872
628 311477 389238
629 792378 405785
630 754886 424584
631 610036 234487
632 565296 229892
633 674604 164107
634 921379 569648
635 945873 609239
636 221938 696154
637 199194 690144
638 660739 240763
639 933972 400400
640 243089 760609
641 596005 249786
642 208562 678017
643 213445 759113
644 586669 479968
645 765658 385218
646 99468 207941
647 87860 210261
648 268960 81790
649 676986 215376
650 1000435 337874
651 571332 509095
652 57410 202263
653 774243 375478
654 269259 657114
655 952876 370126
656 269705 679625
657 95723 227691
658 262716 620179
659 170662 991427
660 174786 710678
661 696143 142199
662 298602 631144
663 298610 630858
664 190995 704197
665 239799 690133
666 199391 948981
667 677507 194768
668 247590 625041
669 982730 379018
670 313622 331319
671 112894 204980
672 996188 331356
673 731224 351312
674 206180 972229
675 313632 129453
676 779392 377878
677 796976 399001
678 181009 933053
679 260168 646966
680 292302 126714
681 749456 366746
682 269868 332204
683 669104 133668
684 228124 956881
685 214598 637946
686 254855 752809
687 342127 831888
688 795430 411467
689 210638 706241
690 929167 390231
691 300583 659135
692 955174 435981
693 244903 746524
694 633085 286362
695 640214 139450
696 267676 845539
697 930559 376244
698 793205 371771
699 1005730 343918
700 916265 583958
701 916910 616327
702 668946 164270
703 260873 373002
704 282602 642858
705 987309 332573
706 270978 65095
707 311852 880933
708 252242 664453
709 945938 314657
710 260003 620502
711 622692 291698
712 289506 886791
713 267013 735920
714 639986 288161
715 973986 350260
716 667828 110104
717 296096 906264
718 922355 577844
719 347444 389408
720 311514 107821
721 1014246 367975
722 666052 277555
723 225416 689672
724 986148 299896
725 146581 962364
726 993762 373880
727 255865 807253
728 291088 385780
729 279559 880372
730 922205 638035
731 950724 341643
732 308159 868264
733 580557 448230
734 199321 1018368
735 323193 364312
736 281454 110985
737 640052 252258
738 774640 365783
739 786697 411428
740 214548 769980
741 102380 207279
742 621671 476448
743 165810 1021986
744 784766 393723
745 275695 169270
746 778275 435637
747 292742 761229
748 229857 707665
749 926331 599429
750 971426 341493
751 706196 162984
752 158879 959784
753 352588 372051
754 297425 123180
755 228837 731720
756 990327 361275
757 239303 723473
758 609930 468320
759 933716 394384
760 609219 454498
761 205341 755140
762 889334 649874
763 84603 169989
764 265407 139756
765 271344 123672
766 660629 131786
767 888601 383593
768 285134 343331
769 599221 263486
770 198752 956498
771 989989 338219
772 284407 650937
773 233280 792390
774 77060 232035
775 269470 835965
776 290991 815069
777 292155 617429
778 169752 956563
779 910579 350054
780 259682 795984
781 599770 489313
782 261307 797489
783 937994 608907
784 322204 375653
785 283206 124877
786 287455 815287
787 115354 217036
788 625385 281405
789 568029 530105
790 62188 186243
791 551685 525961
792 254245 784730
793 280751 878162
794 294279 147656
795 228535 773560
796 230397 712158
797 656399 135379
798 611076 535730
799 293298 98434
800 247770 872903
801 58217 244755
802 676062 204947
803 800317 332370
804 953027 569495
805 619899 474166
806 680648 163254
807 198559 681791
808 992749 374518
809 575439 477264
810 758837 342025
811 250331 766097
812 196023 1000433
813 792124 364222
814 104151 238746
815 230814 963405
816 263831 767750
817 663704 254996
818 567877 432519
819 235296 794611
820 641665 292798
821 901780 376714
822 922181 612197
823 281203 887968
824 787283 368307
825 958955 364766
826 699238 164350
827 709974 152975
828 773717 438592
829 939095 596587
830 239675 647864
831 709724 148768
832 277458 120157
833 267580 160618
834 277255 855762
835 341220 857420
836 936996 604082
837 276211 842225
838 291253 161477
839 956893 351885
840 677865 130981
841 608964 497247
842 308374 378623
843 958068 306067
844 925661 611299
845 648114 237948
846 218569 665093
847 899585 348003
848 67379 187177
849 191490 771693
850 652915 261109
851 266223 854866
852 195951 698907
853 276472 877316
854 238084 701257
855 897261 561573
856 599378 256516
857 604527 505024
858 933729 613116
859 605523 266441
860 620896 196119
861 671023 160919
862 798117 383144
863 661212 215340
864 212508 144014
865 302517 855945
866 292944 881480
867 56345 266517
868 583700 512571
869 191165 779700
870 615394 242954
871 216997 733905
872 689726 139796
873 580012 479257
874 74960 227030
875 242735 746025
876 317195 373746
877 650030 157921
878 678005 136929
879 755938 350454
880 291513 141631
881 566871 470791
882 892093 418835
883 196637 780647
884 261144 462903
885 932796 596779
886 597277 509882
887 263074 860888
888 323348 619122
889 267164 816346
890 658582 142161
891 590791 497416
892 263969 615596
893 619785 502356
894 241653 78701
895 294913 877857
896 209660 733088
897 262491 112359
898 907168 383698
899 591116 474334
900 978141 315539
901 920222 567281
902 241600 657723
903 249529 761689
904 224286 774782
905 967421 364948
906 586370 529683
907 37341 205706
908 959918 347823
909 243607 758380
910 310423 64773
911 904544 620693
912 280233 848525
913 266278 673095
914 205043 760298
915 299272 606711
916 259702 830197
917 983545 349046
918 984711 368788
919 702078 187677
920 320432 394468
921 683381 177184
922 754019 418114
923 918372 530693
924 725361 384216
925 224388 695023
926 610244 457447
927 319933 880135
928 653706 501626
929 325320 368864
930 590412 498976
931 690694 163604
932 279631 632237
933 321159 358797
934 944294 398210
935 271089 860141
936 203638 657375
937 225980 606279
938 974792 345866
939 246184 108135
940 951358 377322
941 910071 606133
942 239750 642131
943 173276 967783
944 684853 183645
945 197339 993502
946 284129 110571
947 257050 781005
948 922764 633848
949 956938 371624
950 304080 151719
951 276744 847004
952 917866 362069
953 961726 375519
954 629482 230469
955 222764 127785
956 1033967 382497
957 649552 133580
958 272543 678093
959 888583 586931
960 614543 282178
961 1001348 349352
962 300546 312224
963 285514 123370
964 923436 399290
965 303316 826444
966 276629 911695
967 228061 738400
968 229146 709392
969 281439 768325
970 276575 878875
971 326974 110842
972 616160 243133
973 612641 211425
974 267448 139284
975 265339 363171
976 108910 186870
977 72865 183182
978 904882 648322
979 954601 396608
980 311762 402834
981 285414 798044
982 552507 494720
983 152563 994067
984 316177 407545
985 64645 205922
986 305306 368172
987 966413 331625
988 238633 792939
989 213103 727233
990 254874 833293
991 296609 343426
992 919861 624956
993 766894 363961
994 934627 429162
995 927907 355817
996 1006743 361112
997 934555 326536
998 199964 1002306
999 965187 385428
1000 321035 406399
1001 637383 259460
1002 586284 508135
1003 199927 770938
1004 49071 199805
1005 971797 340143
1006 271777 124960
1007 948417 339058
1008 649746 127014
1009 235825 702007
1010 64724 188924
1011 193515 760346
1012 194950 1020274
1013 154375 1035363
1014 163956 787680
1015 984384 358267
1016 617710 315952
1017 626133 526525
1018 674262 162572
1019 64400 207806
1020 654710 237235
1021 287063 863069
1022 209265 1011922
1023 151873 946343
1024 937905 401970
1025 79514 197760
1026 290728 896324
1027 321146 369699
1028 612049 270758
1029 923215 366438
1030 233521 723717
1031 245569 973310
1032 70834 187451
1033 256146 665472
1034 211587 744436
1035 263496 633436
1036 258896 827370
1037 290713 850645
1038 905772 572106
1039 585734 514371
1040 956460 578392
1041 297546 651515
1042 941320 621529
1043 281524 656681
1044 272583 140108
1045 690639 161962
1046 191927 981299
1047 289326 688017
1048 313386 656649
1049 801543 376674
1050 282724 635358
1051 289456 683221
1052 650620 123567
1053 599513 498540
1054 203507 759113
1055 803807 367626
1056 320495 334110
1057 272133 124194
1058 607374 479818
1059 300358 772305
1060 259122 719817
1061 119157 255537
1062 265757 622613
1063 953614 383225
1064 229729 90875
1065 235701 710663
1066 280698 309445
1067 812021 398339
1068 302866 378180
1069 84327 206633
1070 241659 860410
1071 297081 376613
1072 643867 527938
1073 258859 776943
1074 638514 172192
1075 287169 834691
1076 284227 122296
1077 175483 1016859
1078 588768 473900
1079 190213 942423
1080 177168 979763
1081 295808 401178
1082 221285 708689
1083 969841 338376
1084 942379 362166
1085 925873 374294
1086 966823 425941
1087 947945 594008
1088 40056 213126
1089 943887 386914
1090 664156 236620
1091 599426 228268
1092 284057 115570
1093 782435 377417
1094 160090 728451
1095 87793 222472
1096 61140 194461
1097 614559 278919
1098 616676 273368
1099 295698 669683
1100 934543 618673
1101 273187 108638
1102 1037618 315579
1103 657229 134956
1104 223943 728065
1105 245460 665286
1106 249119 646665
1107 271159 74562
1108 257335 361116
1109 587357 500687
1110 611633 245665
1111 280759 84363
1112 346368 347131
1113 250706 91678
1114 122581 190537
1115 270788 877750
1116 311110 326668
1117 223428 76617
1118 322022 369728
1119 280805 148480
1120 886051 582923
1121 255243 809649
1122 311271 379856
1123 195665 985032
1124 666139 169954
1125 656588 222018
1126 298666 150255
1127 159485 963597
1128 917149 402148
1129 245558 127938
1130 626295 199846
1131 278725 116320
1132 223564 863770
1133 240713 662223
1134 761466 384077
1135 219405 742613
1136 331148 364969
1137 298874 870636
1138 643652 273467
1139 683766 150454
1140 1045326 311296
1141 615747 255982
1142 778420 424924
1143 813140 388961
1144 195783 976469
1145 314082 378547
1146 595228 455675
1147 276269 630580
1148 585276 455431
1149 961210 378287
1150 284017 860747
1151 296215 396035
1152 275804 838858
1153 266089 132011
1154 281182 71036
1155 1016278 324426
1156 162769 1005793
1157 136449 904672
1158 587498 240097
1159 282065 907121
1160 778787 395817
1161 278381 822666
1162 807925 374674
1163 976186 328656
1164 944365 402183
1165 614224 251841
1166 276468 633766
1167 885455 540166
1168 252183 93675
1169 923455 378269
1170 577558 471187
1171 979040 323782
1172 256018 632460
1173 765881 358583
1174 1022744 313875
1175 283627 882720
1176 972881 343196
1177 292307 111661
1178 158088 751343
1179 235559 708040
1180 262621 782304
1181 101094 227544
1182 203688 697818
1183 887607 618799
1184 655766 252825
1185 193776 737914
1186 304945 115458
1187 184662 962907
1188 673996 136622
1189 267558 380897
1190 992278 423316
1191 589854 523616
1192 950661 610681
1193 229027 145685
1194 1009606 351587
1195 932717 388229
1196 203216 1005412
1197 929966 353533
1198 87993 194162
1199 789593 384233
1200 291295 689802
1201 569162 505786
1202 267308 133171
1203 782586 380375
1204 295432 342152
1205 996617 324053
1206 941534 345056
1207 630073 250367
1208 856575 598488
1209 593989 287252
1210 993916 356099
1211 962768 359769
1212 250208 58543
1213 754449 423919
1214 288148 612754
1215 644378 148345
1216 260921 651939
1217 788176 375530
1218 177948 988229
1219 573257 499016
1220 235436 597341
1221 689094 139641
1222 294741 618292
1223 597745 530791
1224 198527 732875
1225 630086 239924
1226 344549 312585
1227 254135 71920
1228 780753 386232
1229 298545 374684
1230 323249 848261
1231 659951 167360
1232 696261 128329
1233 276590 132875
1234 308959 391080
1235 610467 194647
1236 231562 706784
1237 652043 121176
1238 72993 191497
1239 182571 721677
1240 244300 605839
1241 196346 715903
1242 80239 207279
1243 270287 643420
1244 285706 797738
1245 302128 142609
1246 656286 214387
1247 282305 673257
1248 546198 487626
1249 587612 267478
1250 220556 137206
1251 276078 717380
1252 784239 379294
1253 280890 884364
1254 750035 387767
1255 676756 179051
1256 232874 736274
1257 1018219 366931
1258 967691 370915
1259 778128 361468
1260 977504 326297
1261 608864 274432
1262 197464 715353
1263 99234 219009
1264 942752 352829
1265 281296 672298
1266 241356 740605
1267 574205 505036
1268 967217 333187
1269 114183 209472
1270 624587 281828
1271 247491 760686
1272 194324 697277
1273 306251 872476
1274 662058 149634
1275 604711 476561
1276 289704 147883
1277 253946 667375
1278 771917 377307
1279 214793 976040
1280 923671 573491
1281 261370 389348
1282 927582 328974
1283 669244 174020
1284 142954 981168
1285 655585 287695
1286 105233 190484
1287 294221 645107
1288 607032 276856
1289 135279 179070
1290 113312 255736
1291 246141 635154
1292 699893 102272
1293 110615 230082
1294 889943 636965
1295 797658 412024
1296 997634 344207
1297 689017 175282
1298 677726 163052
1299 262550 135084
1300 635738 108674
1301 935449 638252
1302 322720 428370
1303 276094 132372
1304 612827 509533
1305 984654 337891
1306 935293 353072
1307 303881 832412
1308 982477 385352
1309 228184 749686
1310 910412 562036
1311 296883 857179
1312 292161 401558
1313 225766 749077
1314 117620 175252
1315 621003 267437
1316 936197 652380
1317 209656 768441
1318 221209 732016
1319 937352 367581
1320 637078 183098
1321 952824 394754
1322 39740 201695
1323 983632 353881
1324 240131 864546
1325 40783 203010
1326 264966 678460
1327 946764 350623
1328 587293 519633
1329 307152 806581
1330 302207 363888
1331 253986 78237
1332 960401 343396
1333 601875 253154
1334 247072 902346
1335 281601 856894
1336 751212 164374
1337 161801 977939
1338 90280 198746
1339 309309 153478
1340 229759 724473
1341 307745 862329
1342 212084 987668
1343 668298 266809
1344 228652 789442
1345 299366 385677
1346 182651 1015113
1347 296812 659840
1348 247382 675820
1349 989317 329159
1350 200738 983761
1351 688958 121900
1352 171819 967209
1353 934417 368636
1354 241940 784423
1355 599224 547860
1356 254592 736469
1357 710710 116194
1358 925307 619336
1359 885035 561972
1360 270127 775375
1361 570249 496045
1362 257910 61532
1363 258036 381773
1364 666035 188283
1365 910569 628845
1366 908184 346406
1367 892751 388210
1368 67484 191438
1369 263572 142240
1370 568916 455734
1371 626802 284236
1372 1001378 376057
1373 979887 340416
1374 305757 861259
1375 285824 832437
1376 997361 347544
1377 199625 996844
1378 172992 992605
1379 272694 846947
1380 928113 560452
1381 244226 631633
1382 670533 164581
1383 280084 632480
1384 189432 729116
1385 593905 254049
1386 144702 215824
1387 618308 439385
1388 637000 142316
1389 267347 137543
1390 797500 335055
1391 772482 428074
1392 255633 151550
1393 179474 759947
1394 939151 407515
1395 300286 876133
1396 904730 605488
1397 537516 536982
1398 143640 1010300
1399 788671 382134
1400 601353 477918
1401 155309 220367
1402 963797 315745
1403 691903 163357
1404 638995 286046
1405 269484 123189
1406 943359 379767
1407 268227 856326
1408 274404 824455
1409 660962 153890
1410 274830 882691
1411 279969 834377
1412 774530 378163
1413 667438 267801
1414 657640 222715
1415 136595 249223
1416 588152 451325
1417 574583 506151
1418 967171 389849
1419 995303 332619
1420 312133 359453
1421 689452 141295
1422 316647 875099
1423 84844 201435
1424 276728 721270
1425 161844 962172
1426 622037 248756
1427 657898 294800
1428 664713 153539
1429 603999 276062
1430 654427 274322
1431 657003 165933
1432 252874 711916
1433 574221 524938
1434 308406 362657
1435 246628 121944
1436 220934 666429
1437 649183 254179
1438 252351 745903
1439 251663 796722
1440 791775 423422
1441 588309 484645
1442 933343 586111
1443 229514 698413
1444 945085 615623
1445 596418 251410
1446 347589 393911
1447 283733 398468
1448 287979 827274
1449 269964 794059
1450 274913 691844
1451 553416 524814
1452 974939 364523
1453 186579 940283
1454 198583 703958
1455 33753 196285
1456 184599 970041
1457 910622 578490
1458 256734 829588
1459 666041 169584
1460 252634 94909
1461 239632 685254
1462 292837 848678
1463 268064 835057
1464 735426 388441
1465 1062900 370683
1466 226359 920027
1467 223480 809003
1468 293435 720761
1469 309952 397115
1470 156867 732565
1471 100986 235336
1472 926856 598090
1473 276431 794855
1474 774421 390651
1475 561381 469718
1476 295128 97192
1477 589884 324866
1478 299134 387089
1479 187910 1001835
1480 282602 619199
1481 640796 445348
1482 123520 178713
1483 244405 392747
1484 197805 970877
1485 620677 291206
1486 313244 845587
1487 244853 766756
1488 199136 954500
1489 698078 175010
1490 184826 966054
1491 283410 876337
1492 258026 843615
1493 626099 478717
1494 787585 394122
1495 284013 674516
1496 249334 131244
1497 684543 179458
1498 289713 673006
1499 291275 865121
1500 274922 683374
