NAME : portcgen-1000-1007
COMMENT : portcgen N=1000, seed=1007
TYPE : TSP
DIMENSION : 1000
EDGE_WEIGHT_TYPE : EUC_2D
NODE_COORD_SECTION
1 930797 276557
2 807211 400550
3 884251 270572
4 800362 24693
5 366070 681889
6 343646 507146
7 881468 231029
8 900002 241112
9 883694 275365
10 321484 502973
11 324180 501579
12 320381 280651
13 339038 347798
14 860742 268235
15 390359 514770
16 388556 484055
17 793572 62486
18 846569 364578
19 847741 140761
20 890915 258970
21 669875 667861
22 389023 757869
23 274871 307703
24 378220 545670
25 883221 216321
26 379217 478863
27 336727 262553
28 310367 310831
29 991518 256273
30 829994 421189
31 409039 447678
32 347169 724078
33 356472 489203
34 370712 497963
35 821413 30504
36 857916 232418
37 337098 511135
38 412237 757413
39 825311 445906
40 808492 86786
41 340559 551901
42 736639 715769
43 418566 536546
44 960991 264744
45 702858 718709
46 383906 718096
47 885033 280771
48 776922 410796
49 348859 703164
50 1016754 329959
51 316848 474988
52 728957 750056
53 990377 293542
54 833701 420569
55 807157 375274
56 350273 612650
57 515398 227438
58 889048 229411
59 817919 457830
60 378295 711257
61 863642 225252
62 534810 265898
63 947807 279574
64 476445 191769
65 768495 435182
66 778783 405718
67 297856 309214
68 327126 302164
69 360855 557816
70 373485 469005
71 341094 331735
72 930125 261597
73 864696 294040
74 269518 291767
75 892303 223732
76 362156 531195
77 973344 310354
78 277891 283175
79 812922 31196
80 363992 762208
81 359577 550654
82 879776 200906
83 818944 35107
84 810085 48847
85 881598 64322
86 674644 706491
87 354852 502545
88 287070 332245
89 378689 468700
90 356379 693135
91 868667 303082
92 1001973 287871
93 480136 254525
94 917275 246704
95 476748 211272
96 720219 667657
97 759234 653842
98 929575 239108
99 309794 512961
100 299192 301409
101 941696 287703
102 386638 520794
103 347134 553471
104 875841 290053
105 400993 564524
106 494260 197531
107 816943 81810
108 991970 288970
109 375117 528269
110 1009166 307543
111 732251 685300
112 894932 269989
113 686870 682548
114 844471 80084
115 720459 695378
116 840833 373334
117 265474 313734
118 339686 563345
119 1011743 255649
120 813724 406777
121 286464 319187
122 328225 431476
123 985508 285778
124 301888 279397
125 1025407 271656
126 401440 520056
127 293591 311062
128 330443 278138
129 337351 334512
130 836212 40107
131 327934 288359
132 819512 111642
133 966629 274418
134 667893 659439
135 827963 131832
136 431617 758622
137 845248 457861
138 973997 294006
139 679061 681225
140 371543 496237
141 833744 289782
142 849363 48273
143 818103 377554
144 673776 696587
145 947695 285414
146 383572 462185
147 895559 299946
148 364252 699216
149 361053 722042
150 355310 466436
151 944189 280332
152 362884 506452
153 820620 119955
154 992853 244918
155 303421 503876
156 275564 249921
157 313542 320527
158 1014783 286636
159 387337 759127
160 301730 281088
161 793614 88588
162 855749 319241
163 786883 133149
164 949599 278270
165 855684 353036
166 789375 99039
167 1003874 246104
168 708499 641103
169 425491 231526
170 710354 672601
171 362682 522785
172 890469 280031
173 997922 225842
174 807616 77788
175 905078 227524
176 774979 7494
177 819332 385422
178 685406 710472
179 939953 207361
180 806276 408024
181 401209 461567
182 828529 366592
183 406653 552806
184 427852 594780
185 400440 566509
186 271091 275771
187 850637 404736
188 883456 226837
189 982743 220273
190 260737 253095
191 976921 230537
192 792529 378670
193 900621 163778
194 752605 738446
195 811512 86200
196 817221 424649
197 260342 277699
198 351652 511393
199 940601 246550
200 498075 190534
201 284358 296487
202 822186 122472
203 969481 287480
204 467545 225064
205 827669 104654
206 506298 279583
207 845096 15059
208 371300 741469
209 796353 123466
210 693900 700762
211 402814 461299
212 428409 479430
213 406291 520621
214 377426 552734
215 303675 333037
216 813313 155786
217 341672 489350
218 416139 718618
219 834941 328608
220 896021 212180
221 411509 715547
222 712425 697629
223 896340 103863
224 806557 92218
225 831914 78752
226 261202 244672
227 992117 293383
228 873103 246109
229 364728 490435
230 380518 476859
231 777895 85941
232 428712 529642
233 717277 688388
234 838282 237940
235 430867 273906
236 861775 82289
237 902973 233122
238 432298 518218
239 816436 102969
240 478362 243580
241 385435 534577
242 377822 534504
243 859467 73361
244 835791 119297
245 277388 251454
246 405790 544021
247 810787 325388
248 740835 758652
249 813809 402199
250 235882 261313
251 1006976 301144
252 943201 279704
253 300216 243955
254 684822 697452
255 396593 468155
256 911654 245079
257 689514 718459
258 392155 274234
259 927130 274405
260 718778 668367
261 851985 346725
262 810505 429507
263 679801 661154
264 857181 390989
265 396994 490601
266 933310 316268
267 819827 386157
268 368374 322267
269 507632 220018
270 868827 65991
271 852222 92961
272 675848 697730
273 965577 291791
274 854002 285687
275 531082 238049
276 899228 385898
277 1052845 274544
278 395016 488983
279 830360 398358
280 283851 372566
281 287787 357169
282 944531 327534
283 690935 625599
284 860925 406532
285 912016 235669
286 699705 701849
287 701581 677465
288 267030 267727
289 357990 455082
290 678574 626258
291 494633 210274
292 500708 208677
293 251521 300314
294 785283 63214
295 900320 254169
296 333314 479365
297 382564 539936
298 829429 64603
299 351109 726277
300 782717 339071
301 998070 295116
302 470780 200295
303 963171 265944
304 880693 123525
305 974811 337949
306 477178 224031
307 373856 557670
308 1002551 293986
309 345790 562240
310 320730 285802
311 717583 735374
312 322274 511002
313 743360 713824
314 380811 478739
315 826769 48082
316 820438 389295
317 1001705 245507
318 790899 86699
319 826336 428275
320 357985 550669
321 504144 270141
322 365900 506529
323 689749 652133
324 858971 124515
325 389395 687210
326 915391 209185
327 500973 232647
328 384641 530325
329 721202 645269
330 363111 295582
331 699439 686805
332 812375 88728
333 361849 483946
334 316836 323831
335 333028 270705
336 751450 634583
337 404356 747126
338 482533 250745
339 350663 319272
340 389706 480320
341 862641 223482
342 682183 676084
343 370924 484090
344 332118 474334
345 379213 510752
346 958880 277045
347 326951 320015
348 374593 562097
349 450818 269422
350 875933 305415
351 334537 745070
352 271034 295104
353 318779 273804
354 286995 336962
355 972613 325815
356 350422 526280
357 923488 277165
358 371418 696713
359 839249 386903
360 485313 216117
361 831066 76972
362 850330 402173
363 372586 551659
364 770994 42159
365 772239 437188
366 977796 221567
367 979691 287603
368 479876 200938
369 707341 732340
370 902292 261617
371 377885 520047
372 411878 558832
373 289895 264660
374 406687 547315
375 911213 246507
376 277437 314836
377 257532 301232
378 475398 260274
379 453879 241566
380 537064 242009
381 367127 477086
382 802703 37024
383 455953 219535
384 821824 359509
385 964371 248050
386 345428 562849
387 407621 574748
388 865061 266365
389 406551 463053
390 728265 689313
391 278243 256639
392 384621 736134
393 876612 279793
394 809037 417233
395 389036 548636
396 827599 390500
397 873074 273391
398 429461 500504
399 1001460 277993
400 886911 233677
401 441059 537892
402 726211 725890
403 459932 216445
404 395071 485274
405 332857 685975
406 855566 52919
407 387164 487693
408 334894 518795
409 756420 82360
410 863141 245878
411 419247 482502
412 681559 638423
413 491997 215643
414 392520 711586
415 816038 75923
416 302480 272822
417 1003164 270219
418 353504 724794
419 456714 214029
420 335267 563116
421 878024 280363
422 375864 563625
423 349698 523775
424 315698 526099
425 916573 224432
426 797432 412944
427 1005548 266986
428 473638 220871
429 330162 491895
430 307021 314087
431 833088 90063
432 864577 235946
433 819623 424381
434 426144 208665
435 888509 266112
436 322338 462701
437 976167 325280
438 777858 54031
439 700927 643324
440 436293 268691
441 954692 248994
442 298675 500391
443 366532 471491
444 483086 242245
445 836798 86992
446 447555 219815
447 994755 279292
448 365949 465065
449 1033199 319577
450 355230 504039
451 441459 723442
452 690476 613918
453 445421 215774
454 1006149 262977
455 915043 279461
456 964032 311435
457 835396 223786
458 337583 581308
459 278619 259303
460 436320 804202
461 827587 349263
462 863483 80765
463 1016581 331523
464 832972 353690
465 361412 722333
466 407160 794760
467 955919 277959
468 373845 556228
469 458947 218326
470 802600 369513
471 319036 542991
472 253692 248234
473 532295 241992
474 859008 387949
475 1005061 289712
476 980955 260042
477 824894 79887
478 286946 298524
479 813740 36604
480 391049 516952
481 927148 189931
482 435869 234373
483 798099 44704
484 294435 493875
485 484423 193837
486 822157 355906
487 958785 267909
488 680584 713947
489 348012 516344
490 429979 707079
491 921093 223003
492 712025 690843
493 297865 312142
494 492219 194723
495 826025 391046
496 386988 699103
497 350732 285981
498 366847 525201
499 427742 273882
500 309743 274298
501 940083 286761
502 829331 61318
503 504588 173109
504 316663 297908
505 851024 74198
506 769598 685833
507 910093 231581
508 312825 328302
509 836966 4322
510 512347 222335
511 863990 263193
512 415367 216286
513 325223 285664
514 805770 10695
515 709711 708846
516 1056737 264623
517 1041066 277785
518 718858 713614
519 959830 276674
520 496610 262824
521 831493 413334
522 970320 263440
523 852367 369051
524 709113 653214
525 484985 263147
526 467700 243671
527 269771 316331
528 870875 197517
529 899970 232824
530 364738 723698
531 366925 486593
532 487873 307811
533 361450 490910
534 875303 382820
535 915935 182996
536 744916 654691
537 700896 669829
538 949306 221660
539 689040 664310
540 306087 314669
541 877557 204831
542 388155 700717
543 1018547 252782
544 308119 300786
545 351707 536598
546 957202 346286
547 446919 234838
548 971530 287463
549 816535 84570
550 701692 710522
551 313148 538415
552 974141 268079
553 970996 279086
554 290288 347844
555 862301 265643
556 721301 679131
557 827002 44487
558 836552 453051
559 380009 730275
560 483345 226876
561 874515 104478
562 714730 707731
563 954156 334531
564 366105 562412
565 874547 238325
566 343750 561168
567 798251 254347
568 829889 347981
569 931812 322614
570 342943 532725
571 843839 105442
572 848497 390802
573 799196 381972
574 693964 620903
575 317949 462627
576 742039 648262
577 349835 359351
578 248182 299678
579 261876 224547
580 388805 753997
581 366020 736673
582 315000 258686
583 888799 297509
584 818698 379376
585 861535 251480
586 323690 746453
587 282407 299298
588 799098 9379
589 449893 263089
590 807723 110998
591 469377 159966
592 878813 64375
593 521405 262105
594 330834 322609
595 405141 743454
596 906826 249873
597 1015660 300919
598 980837 277266
599 347932 553423
600 377558 530418
601 374987 303578
602 915459 231665
603 430253 564527
604 329350 778873
605 729971 651882
606 804991 81559
607 344847 320251
608 371043 715579
609 457779 233468
610 337836 692629
611 913460 215958
612 761380 387398
613 361806 584068
614 817930 467401
615 524376 202302
616 976805 289783
617 373682 777757
618 800329 401665
619 365225 724482
620 331771 446457
621 723641 657105
622 251577 255257
623 901721 270687
624 301199 717359
625 412939 240443
626 966297 281602
627 734609 682912
628 362926 527603
629 824208 383796
630 879963 72877
631 1011652 277648
632 263773 243856
633 366661 716030
634 492250 213301
635 806793 376995
636 690227 693778
637 383842 525454
638 949995 264949
639 421273 546988
640 844154 46809
641 990114 254871
642 371803 706543
643 467010 295297
644 894840 269383
645 811981 387714
646 338083 515923
647 375018 556247
648 930281 281670
649 345264 568663
650 474466 186485
651 876278 266261
652 794840 69336
653 889911 228084
654 705497 675149
655 361668 295407
656 423201 166812
657 947541 255185
658 372212 542209
659 698054 685671
660 1008776 247852
661 435081 258551
662 313727 265929
663 255892 250622
664 852546 78873
665 839628 389179
666 334992 514958
667 402462 716405
668 468657 298940
669 968305 244382
670 462797 221085
671 869611 261183
672 830130 425361
673 939913 287655
674 833629 77668
675 453238 234753
676 916648 312188
677 825922 82531
678 928783 290318
679 676312 699930
680 501891 274210
681 260982 288991
682 360404 243821
683 461603 214372
684 970189 280002
685 1000471 275562
686 303721 361590
687 364927 791360
688 957111 243980
689 781064 107910
690 366388 547204
691 368510 485062
692 794469 47256
693 822716 383620
694 968985 249917
695 354544 242996
696 834275 384874
697 376347 492285
698 917284 301693
699 919851 263360
700 988465 265581
701 836096 389509
702 427965 564101
703 478352 182785
704 351662 731070
705 942320 268232
706 358534 502171
707 349917 299685
708 311624 290694
709 933329 251367
710 385560 757480
711 916640 246398
712 969271 283311
713 708574 705356
714 830068 113660
715 949726 324959
716 371236 493386
717 800718 383474
718 898301 239034
719 823711 135949
720 967996 296774
721 997608 252631
722 860606 272172
723 415183 648967
724 381609 507977
725 401329 486685
726 325742 564840
727 848025 35504
728 358928 313135
729 817348 103572
730 430853 189794
731 826377 414697
732 357347 768429
733 1029600 296488
734 276663 490734
735 834511 432012
736 340750 548999
737 300422 278902
738 502438 241663
739 781469 455746
740 839348 83318
741 814735 64347
742 347988 517885
743 1020424 292409
744 846117 38292
745 427989 255648
746 699225 727114
747 695768 728408
748 715909 714532
749 423802 232675
750 717236 721507
751 718389 750105
752 358175 737609
753 993579 294827
754 854873 74825
755 667796 692440
756 824192 381587
757 826154 42975
758 780427 71792
759 345854 481361
760 417836 530885
761 999043 340490
762 832306 381950
763 984891 285182
764 817469 408333
765 842882 77487
766 761344 703552
767 797229 78192
768 364275 739377
769 350257 503445
770 343522 544865
771 456619 219674
772 275815 356608
773 320816 505149
774 255066 253026
775 878863 252625
776 374104 503816
777 457136 189236
778 386986 730897
779 382735 770461
780 677532 661443
781 328315 299812
782 990081 240879
783 478408 227897
784 374646 531174
785 726852 729749
786 357200 511385
787 381325 457576
788 793666 350781
789 854380 35624
790 360860 720567
791 290234 291222
792 825016 223248
793 860460 218639
794 260071 302173
795 690890 659461
796 358722 733122
797 316510 532114
798 951875 275685
799 380922 505565
800 435004 533605
801 967612 354455
802 839482 414690
803 1018280 265014
804 844630 98666
805 321947 272842
806 449071 246161
807 393034 771798
808 332484 497796
809 827389 305356
810 674337 680138
811 285823 561532
812 734916 729209
813 293568 271116
814 271321 265477
815 936567 274459
816 369658 563442
817 297982 305246
818 809234 363647
819 365181 718781
820 398180 548094
821 467341 255124
822 282511 259827
823 916583 183420
824 720304 710254
825 1064865 263478
826 351427 722368
827 734185 698938
828 995664 273774
829 989344 290271
830 376166 623987
831 494557 232198
832 397610 562394
833 347935 543655
834 343499 522771
835 1002938 262079
836 887968 443652
837 879172 300062
838 296357 303050
839 378314 553417
840 368136 767514
841 388756 555423
842 292737 241698
843 792041 368430
844 974155 171169
845 670004 685527
846 763779 661187
847 382249 741909
848 400707 754151
849 820165 119168
850 710418 692033
851 689383 680562
852 778287 391366
853 684342 684780
854 469895 239506
855 854379 237245
856 973081 271943
857 397381 752101
858 885522 249890
859 985157 269868
860 795861 444707
861 280538 334302
862 958669 309741
863 820356 401580
864 663248 614286
865 358278 490358
866 317573 360286
867 447644 193989
868 406153 588771
869 899359 276777
870 483803 227027
871 969481 273662
872 388856 489675
873 366584 531611
874 363459 718469
875 869562 286969
876 690616 725780
877 459778 211662
878 896494 251789
879 969174 251891
880 330029 315505
881 887126 270095
882 822102 58747
883 370384 540127
884 306386 499270
885 307144 314417
886 551743 268054
887 840379 347887
888 831044 329679
889 996356 296489
890 306441 287101
891 461134 225311
892 1040409 290760
893 412921 492762
894 786861 396603
895 505170 284190
896 1011416 265847
897 860742 120060
898 863509 257333
899 704724 682729
900 987896 277214
901 388775 754450
902 358059 275109
903 280101 316909
904 848401 382980
905 957383 309226
906 840011 399119
907 486035 237142
908 901905 273463
909 818715 96779
910 410891 463956
911 876232 132875
912 380854 531980
913 852718 244154
914 483576 192838
915 993179 205285
916 903325 271841
917 793522 412855
918 938399 232310
919 838814 433351
920 936538 276306
921 353834 469739
922 754035 715853
923 336634 456413
924 325236 493471
925 382790 547561
926 806275 50680
927 338119 314798
928 492747 263083
929 799865 402546
930 407966 509502
931 718783 714660
932 464121 294133
933 347116 708336
934 517467 298363
935 816090 429737
936 368974 274595
937 500977 187844
938 968445 271463
939 401691 538655
940 502483 248010
941 308323 268893
942 745233 675891
943 926277 212750
944 629608 650541
945 868725 204706
946 935027 322591
947 907051 251848
948 811822 143362
949 384253 712411
950 904081 205644
951 701609 680835
952 808247 448609
953 435295 164127
954 903788 250884
955 500832 235605
956 850726 93591
957 254546 258163
958 1034283 288743
959 940060 215915
960 426213 222459
961 327492 534296
962 816323 402046
963 403920 710163
964 364668 593329
965 868399 251064
966 888378 265272
967 399370 707494
968 394807 748629
969 484354 212027
970 801869 355129
971 838936 93652
972 338244 470501
973 358412 732021
974 348418 770899
975 385125 760807
976 799308 366600
977 912324 280492
978 461078 224232
979 340423 787672
980 250637 285902
981 339161 507074
982 793712 118117
983 835370 71083
984 459170 206099
985 533028 244274
986 845236 325071
987 396733 733823
988 1002898 311090
989 943588 230544
990 444667 265072
991 836970 208418
992 322987 325400
993 491970 215784
994 815887 359412
995 742060 418698
996 323246 430063
997 335801 576805
998 544225 300376
999 895455 281848
1000 441799 473256
