NAME : portcgen-900-906
COMMENT : portcgen N=900, seed=906
TYPE : TSP
DIMENSION : 900
EDGE_WEIGHT_TYPE : EUC_2D
NODE_COORD_SECTION
1 360776 935334
2 202601 402806
3 504302 335330
4 105117 283571
5 41425 946406
6 341745 959664
7 23826 863059
8 44284 958935
9 318844 498704
10 117127 383594
11 167581 352626
12 34296 305257
13 33014 963747
14 925143 264023
15 73725 325956
16 431252 969919
17 827066 454301
18 122863 352794
19 273447 435486
20 994435 316768
21 66640 315446
22 75151 298407
23 126562 380484
24 387635 894935
25 38821 281848
26 246887 539086
27 566973 328818
28 -49392 948978
29 975022 285276
30 207856 492822
31 516177 327765
32 1016363 263213
33 438993 897431
34 149557 388639
35 58145 936565
36 990310 230343
37 601248 824553
38 365953 969886
39 579823 919781
40 311229 871132
41 607530 889719
42 479024 383250
43 585774 854054
44 485304 340317
45 210552 482326
46 1030277 322692
47 540534 356228
48 28842 975741
49 983744 275038
50 141089 328787
51 877832 443841
52 57104 905067
53 1025382 270554
54 878641 359735
55 827061 495515
56 7368 381497
57 174642 302014
58 965297 247563
59 88264 315835
60 -7958 958166
61 547111 875799
62 538109 307911
63 369893 922582
64 455367 359787
65 616256 864220
66 905006 470093
67 476275 355746
68 255202 495833
69 175261 299047
70 46259 265236
71 31782 269330
72 226826 464191
73 877627 465705
74 972200 239139
75 543934 840643
76 395384 913718
77 989628 274720
78 572988 862413
79 920608 421482
80 14800 291042
81 628469 913639
82 237769 562076
83 599613 871513
84 33747 983793
85 295936 507427
86 152449 354350
87 50906 261954
88 34088 318165
89 563611 882714
90 168773 378326
91 260956 471950
92 76316 308246
93 47605 340830
94 490313 357666
95 40577 1010867
96 25687 952609
97 197650 556434
98 341305 897030
99 34779 927157
100 841889 381130
101 37528 948531
102 273518 590866
103 1043796 287519
104 383756 902664
105 516207 341026
106 78527 249745
107 94057 948116
108 269696 590572
109 1016049 264123
110 354220 943443
111 519891 343098
112 480479 310560
113 262545 506964
114 115530 959170
115 284105 527315
116 87520 237721
117 904040 433795
118 395369 967181
119 544230 804022
120 172171 387686
121 480985 320530
122 1035185 209544
123 56903 282692
124 126938 391805
125 200081 528164
126 370659 889139
127 158353 334006
128 14572 273341
129 156836 353977
130 79026 346196
131 169889 355836
132 25700 256796
133 250574 537895
134 231761 466779
135 560033 886208
136 60212 321253
137 374071 889336
138 505861 434092
139 609864 867946
140 1026749 236805
141 817403 405081
142 626230 808826
143 152169 411067
144 105201 963894
145 345303 909688
146 74675 304801
147 1034596 292353
148 531465 305730
149 7815 325895
150 987980 160632
151 899162 432237
152 391952 902898
153 460178 928449
154 72373 961198
155 144558 403869
156 991530 298935
157 527470 892867
158 295930 514944
159 261931 540181
160 56659 297205
161 242604 518591
162 56485 258337
163 954376 346327
164 77122 977116
165 237701 500609
166 188013 343561
167 561253 821803
168 360476 915950
169 36753 933644
170 383625 898152
171 430929 379532
172 848938 390749
173 624975 882356
174 1027153 266239
175 514576 318501
176 260534 517278
177 209047 514874
178 377596 971290
179 301769 526929
180 539005 363203
181 604475 970954
182 407715 398730
183 1008919 299531
184 129261 319285
185 842220 469139
186 178266 376828
187 19412 288878
188 76657 930410
189 146161 298380
190 831054 431977
191 266255 508605
192 559803 947809
193 137621 335313
194 407822 910966
195 529884 854267
196 81515 266977
197 371769 915712
198 329196 879997
199 905248 497601
200 364629 962537
201 578643 915636
202 -29486 910127
203 268447 435676
204 985852 232157
205 173282 305068
206 904602 446404
207 519125 852218
208 74172 296560
209 925356 413661
210 612694 896644
211 -3349 274789
212 152742 353602
213 44482 292817
214 208756 488636
215 828263 455715
216 350095 921541
217 165431 371605
218 21228 315284
219 423049 928492
220 30526 921293
221 53107 315464
222 494374 376877
223 278882 546365
224 520731 351363
225 144121 386769
226 527788 328628
227 851768 417238
228 822494 460216
229 531650 343537
230 47214 293815
231 884683 389646
232 470903 326048
233 567660 888111
234 311820 526804
235 905817 252937
236 559128 890478
237 863621 475100
238 194661 344318
239 561782 342187
240 363397 927175
241 323464 518495
242 533653 319046
243 186450 399346
244 123116 365105
245 941384 257128
246 591107 856598
247 156712 299732
248 370808 941001
249 524569 344833
250 1022600 235207
251 293110 536361
252 476713 384289
253 884869 420947
254 40426 950807
255 982677 254720
256 851506 499562
257 17225 901232
258 40546 318204
259 45231 974730
260 513262 329762
261 229218 516050
262 36071 297195
263 979655 252861
264 247164 654080
265 156544 385660
266 431825 964448
267 405187 934520
268 287024 538909
269 21464 967636
270 950679 239541
271 613224 850741
272 260754 500124
273 -1716 305450
274 966974 252164
275 390918 924152
276 284166 548413
277 828803 391577
278 233438 488773
279 538983 382085
280 87799 938698
281 63203 930076
282 51348 320741
283 577174 920799
284 826346 443749
285 379166 922675
286 195664 355443
287 829550 397387
288 525742 313135
289 464837 368474
290 853571 436034
291 478360 372395
292 873599 419046
293 272676 523475
294 867529 396171
295 839991 402423
296 601747 857510
297 75195 306916
298 213833 469540
299 48393 355666
300 95013 274435
301 885658 451966
302 454384 384943
303 72733 227816
304 612318 881456
305 127769 361955
306 130616 372211
307 178324 351342
308 385402 966777
309 5816 944253
310 589118 899862
311 75105 337048
312 395739 954122
313 55762 961735
314 954566 255607
315 48123 968508
316 93314 987599
317 463188 347815
318 1015018 316370
319 867662 478736
320 624653 877221
321 553152 862525
322 93032 940828
323 425464 904946
324 254409 564957
325 173127 379725
326 361244 916749
327 -10104 886203
328 491838 373706
329 470918 319489
330 836997 423793
331 209571 506657
332 599166 791629
333 356515 942953
334 1028773 224042
335 178794 406966
336 62568 1015494
337 1023785 244704
338 507563 363519
339 13634 303452
340 64482 956002
341 231589 533105
342 530697 333831
343 897482 501491
344 459514 384662
345 541335 846411
346 272527 531055
347 226230 526977
348 305950 515477
349 328043 917191
350 404680 946704
351 593428 878853
352 491519 316493
353 423232 929203
354 203323 476535
355 581881 931703
356 333311 896352
357 394604 917028
358 549289 865933
359 327567 571267
360 46553 984362
361 343980 926227
362 469138 350029
363 379589 902508
364 63728 303351
365 867240 438287
366 50478 335950
367 94294 284404
368 472903 357874
369 196215 350029
370 497846 386169
371 467537 380237
372 890596 415402
373 109701 349478
374 268405 478164
375 64328 359674
376 425490 885711
377 833325 405888
378 880337 372557
379 496359 391205
380 392393 932053
381 362951 999063
382 174767 381063
383 35381 964083
384 494058 358371
385 874206 409385
386 44341 248859
387 493914 394571
388 57390 1009712
389 174345 416262
390 263464 529614
391 306068 520171
392 172557 376801
393 10603 949443
394 520265 393061
395 78385 285503
396 380083 898320
397 844575 436967
398 29020 952735
399 462608 316212
400 49153 979915
401 609757 852698
402 31903 258628
403 374541 939796
404 904787 412061
405 587572 932833
406 559370 955035
407 386598 919156
408 434932 357726
409 15407 239680
410 843344 406299
411 386728 962930
412 1083889 283765
413 301479 514217
414 345367 986848
415 431029 950833
416 520606 376906
417 898730 466104
418 604761 798871
419 580919 842225
420 43664 298286
421 274180 498970
422 141230 325629
423 450001 402655
424 83135 919392
425 8636 321171
426 344441 495200
427 -38430 866909
428 364580 867955
429 28306 975025
430 52560 346363
431 365168 936890
432 487414 358240
433 605763 828254
434 36686 286775
435 619895 884112
436 52616 1018082
437 470982 395670
438 316482 522974
439 608537 865984
440 57693 314190
441 1025748 296905
442 638470 877001
443 26370 382099
444 371248 942313
445 471656 380903
446 60178 961737
447 60645 259763
448 863325 477294
449 992444 217602
450 148723 360123
451 552868 893416
452 488051 338315
453 417381 929689
454 889304 475594
455 -6513 991704
456 498229 323223
457 994443 278666
458 951990 290733
459 516319 927291
460 177816 360179
461 33448 280632
462 1024822 267500
463 995726 257809
464 63930 922361
465 524756 353104
466 73762 283166
467 601966 844114
468 178573 368414
469 132892 385439
470 596673 846362
471 51489 890929
472 190593 394339
473 1001310 229410
474 430946 935532
475 848916 444738
476 833366 496836
477 -12008 955009
478 534854 850784
479 108756 397312
480 977062 254800
481 611353 851169
482 607477 902826
483 839946 377444
484 217574 506576
485 38228 270060
486 39143 988077
487 209680 502937
488 338766 892027
489 963396 230930
490 113464 298013
491 327293 915357
492 176034 347384
493 150389 369497
494 32502 962346
495 491423 369590
496 43846 309837
497 888520 468346
498 43465 929695
499 562883 337127
500 613922 893386
501 444218 336828
502 238408 467664
503 154826 288653
504 334152 548624
505 798340 463626
506 518975 371744
507 942022 258079
508 70818 957330
509 3012 877421
510 865846 420348
511 57616 309821
512 547675 897197
513 53516 258504
514 241260 538412
515 835026 468615
516 846311 465616
517 -10951 938508
518 138609 342889
519 361178 532678
520 217196 548059
521 962294 321583
522 457470 388819
523 64186 269069
524 408679 943393
525 581935 880978
526 856056 411401
527 372194 906193
528 93487 255401
529 401381 877367
530 886807 411960
531 567358 879171
532 986902 225615
533 196321 359469
534 989708 275618
535 601901 855861
536 45727 908677
537 846765 432459
538 473951 401101
539 34204 972557
540 467843 319525
541 92449 924027
542 589433 914242
543 1024524 230264
544 -23744 968374
545 262328 519001
546 98603 455389
547 61816 234035
548 474564 448979
549 170473 400530
550 53938 284458
551 371062 947480
552 871293 474903
553 459606 381110
554 140585 380296
555 657564 822699
556 62879 267319
557 265498 522534
558 606490 880128
559 1008543 251490
560 12987 945318
561 576786 881729
562 1049214 212470
563 573033 861094
564 539628 368773
565 1040964 232800
566 349640 965280
567 991460 253215
568 23509 322957
569 210176 544304
570 114648 270330
571 1028340 256949
572 261784 529805
573 578057 968718
574 365827 954654
575 13932 310759
576 19155 956449
577 1042002 281411
578 111756 313186
579 846453 467930
580 855438 443017
581 112416 373220
582 842978 453211
583 175943 377535
584 984713 271717
585 471029 365373
586 856031 482082
587 1002985 225527
588 1009542 227135
589 489305 396053
590 831029 476789
591 386552 942909
592 494395 398073
593 850228 431334
594 178537 388280
595 813106 394438
596 -1644 896742
597 111539 325953
598 846693 471356
599 93527 904040
600 113187 930644
601 218636 446599
602 73489 337264
603 557739 384845
604 569786 809377
605 553750 885812
606 191776 413559
607 161130 331496
608 390320 848253
609 54149 290198
610 906803 448785
611 272381 472781
612 198922 381507
613 33144 930072
614 867487 488144
615 213244 287508
616 63128 992400
617 584713 883202
618 400823 934910
619 405580 918772
620 12596 926626
621 1028318 250939
622 50828 280758
623 1027987 223796
624 153921 333416
625 982084 237591
626 848474 437563
627 53291 946269
628 837720 444575
629 850686 446777
630 862728 503587
631 873363 430223
632 846009 438838
633 998945 233270
634 840062 482795
635 -1140 963845
636 226625 556628
637 511233 389451
638 645007 849576
639 992826 256802
640 358185 884932
641 496763 401413
642 618130 852114
643 483343 345243
644 382508 929281
645 164067 355721
646 156323 363071
647 594878 924212
648 283261 462806
649 50418 961802
650 1014968 316008
651 977695 254751
652 250325 509162
653 998100 185934
654 929245 456441
655 879032 436881
656 484660 377119
657 630816 837282
658 918317 228515
659 638596 890310
660 1017030 195335
661 377351 916733
662 377007 885144
663 856198 490685
664 67066 328563
665 145503 346366
666 13903 240134
667 565764 894720
668 412380 929932
669 103267 1020896
670 524329 354845
671 890497 493357
672 283421 536053
673 234843 530118
674 68242 329225
675 393092 957757
676 828177 451921
677 608680 847691
678 971815 163095
679 186928 480492
680 440652 418147
681 275831 524621
682 182092 359071
683 142024 373233
684 37199 970991
685 365348 912452
686 471804 422418
687 383086 913364
688 601682 855541
689 479617 371981
690 896229 407378
691 -13554 972014
692 392297 927105
693 177603 324315
694 1040036 217517
695 78410 967684
696 635252 902073
697 27926 311370
698 63209 316548
699 53704 306946
700 27496 933468
701 75263 326469
702 375363 966386
703 863579 429961
704 228929 518105
705 438644 916431
706 986206 259133
707 573856 854177
708 212048 368710
709 397174 961146
710 576076 849277
711 50672 226342
712 262030 486738
713 63539 964121
714 -2688 371814
715 364307 899106
716 362087 897782
717 531433 924206
718 175946 354998
719 64500 281747
720 56824 269675
721 59206 292143
722 188232 392346
723 610594 879757
724 388556 918605
725 79529 322594
726 2827 944865
727 26646 208970
728 629595 905461
729 563860 846044
730 164530 328377
731 397377 920010
732 195412 323601
733 634734 912103
734 899115 401482
735 65035 303694
736 277166 508037
737 171181 351708
738 257321 489058
739 491743 341091
740 607026 801528
741 39419 306895
742 262501 498446
743 508719 377695
744 971352 229909
745 545109 775456
746 153746 358725
747 77439 301687
748 -13575 334849
749 95433 367535
750 151845 406116
751 339981 934931
752 553680 845245
753 51759 292285
754 305447 499681
755 44450 277040
756 436073 406893
757 65582 301531
758 30974 287243
759 56190 322814
760 331123 910793
761 507981 405436
762 257278 552939
763 37914 974244
764 265681 522283
765 52745 325395
766 28476 236958
767 499316 362211
768 66490 960197
769 900258 389420
770 952729 248940
771 1025323 271935
772 570729 892839
773 332982 914139
774 44281 954043
775 115213 332276
776 280535 449329
777 565233 854402
778 583887 893987
779 184390 361716
780 367543 972913
781 588465 909517
782 386795 887066
783 289946 434661
784 253314 555866
785 476054 416730
786 622246 890399
787 309617 515858
788 177083 296423
789 571309 322540
790 402409 991812
791 41078 950929
792 277706 448341
793 411636 911292
794 17145 929403
795 505853 427363
796 305070 466741
797 351525 849720
798 349725 915076
799 170737 382558
800 263040 527620
801 316147 544114
802 867397 425718
803 573591 873890
804 351822 955464
805 79907 1018654
806 459107 923830
807 121413 407548
808 514517 398700
809 283919 498069
810 34427 281148
811 236320 524108
812 71435 308488
813 492559 410701
814 386335 903829
815 482088 368454
816 1061308 274587
817 466530 922298
818 324682 1004376
819 49670 939645
820 34335 991351
821 159690 316470
822 857836 484522
823 108914 944617
824 64260 276884
825 254564 509765
826 811356 481308
827 494714 341159
828 292432 552864
829 183464 540807
830 793555 480066
831 667046 880519
832 91969 938560
833 15342 945118
834 291187 527770
835 641627 847551
836 56026 938463
837 995460 219207
838 75526 297419
839 484656 379591
840 877412 420857
841 559550 828659
842 386575 914236
843 877463 381782
844 138525 366043
845 74528 941031
846 56013 287387
847 294383 600005
848 578825 898892
849 977463 265278
850 845984 465932
851 232431 514489
852 162090 383094
853 121272 282386
854 147692 362995
855 81884 977340
856 119738 388197
857 154969 346827
858 254869 503609
859 376730 882246
860 379927 977961
861 890336 418856
862 887498 353777
863 473049 399643
864 76983 922333
865 883213 478056
866 488216 367932
867 212327 342818
868 73587 301623
869 535132 323560
870 830204 431123
871 34900 334110
872 1024263 269515
873 15149 337034
874 593792 908870
875 436100 964818
876 7546 285160
877 864010 458390
878 546798 403227
879 52216 321144
880 174207 321287
881 473777 336337
882 957221 288673
883 38117 325454
884 1028025 292520
885 211881 511255
886 360749 903888
887 630899 827529
888 345097 929546
889 398559 927264
890 548615 380242
891 269864 449890
892 968605 275995
893 171399 332839
894 29049 333560
895 226276 526551
896 499971 347449
897 19214 263262
898 303520 926380
899 88695 927063
900 4173 292573
