NAME : portcgen-800-802
COMMENT : portcgen N=800, seed=802
TYPE : TSP
DIMENSION : 800
EDGE_WEIGHT_TYPE : EUC_2D
NODE_COORD_SECTION
1 494025 868916
2 51798 816618
3 493045 930639
4 159914 845960
5 457448 998720
6 429829 947643
7 457986 959646
8 475046 964863
9 457125 956836
10 176639 719287
11 -32898 852320
12 126804 877852
13 148683 689744
14 181926 690991
15 803592 899732
16 412852 857776
17 724527 443301
18 700836 414972
19 28167 865864
20 54648 819120
21 756509 455788
22 62742 891940
23 464208 975979
24 142783 686619
25 418755 1000952
26 441389 930947
27 482493 955075
28 99510 876391
29 842022 499164
30 803152 911198
31 819284 449387
32 124377 877843
33 115355 658371
34 754271 448720
35 564866 129539
36 84638 865635
37 741584 457014
38 733363 497457
39 117206 742713
40 79271 845859
41 779354 454563
42 792124 938384
43 3705 830776
44 589014 145843
45 703074 416906
46 460003 985593
47 142150 911450
48 465905 968209
49 833131 920468
50 421806 956838
51 14713 866851
52 182876 709242
53 144313 701610
54 479074 979703
55 146076 668887
56 771248 894011
57 804039 479022
58 855593 901717
59 150908 727343
60 537714 185383
61 93901 854624
62 705971 450383
63 83376 889980
64 145171 730723
65 106522 738772
66 733 842869
67 22837 863648
68 818320 917035
69 118112 839169
70 473943 951036
71 478844 966136
72 484353 919141
73 109713 913649
74 777662 415389
75 711690 456717
76 385023 892372
77 36079 855014
78 558039 61985
79 109518 853727
80 457630 960560
81 827616 879223
82 894471 493023
83 825772 873915
84 771528 482552
85 169257 736566
86 131602 799587
87 879539 949747
88 146387 702839
89 426510 891620
90 48873 847172
91 540254 910970
92 821029 921079
93 495851 959873
94 738583 463528
95 40573 822886
96 594838 111010
97 -53893 801179
98 850411 430890
99 868265 518828
100 884361 466907
101 732198 472956
102 -59072 852979
103 157684 712151
104 835390 862717
105 100281 781880
106 555106 1007445
107 864709 488934
108 884035 520144
109 465805 981324
110 856955 448262
111 764237 893214
112 773718 487544
113 876691 543851
114 446538 927597
115 487862 126988
116 874513 839306
117 144591 696222
118 454670 987186
119 789194 523018
120 854748 458127
121 678580 475516
122 107457 716343
123 902403 452193
124 463675 974873
125 144801 747776
126 916317 497018
127 555378 152492
128 852150 436880
129 515091 143904
130 816575 988559
131 941902 459464
132 -25221 884842
133 575110 151362
134 845073 461990
135 177001 713306
136 486748 967307
137 853047 926288
138 533234 73290
139 895378 440303
140 169867 755164
141 476419 923956
142 130543 733844
143 808315 916563
144 80220 886763
145 936130 463802
146 851854 475804
147 568859 217379
148 443117 924236
149 433530 889667
150 728611 491880
151 469256 910239
152 81087 778631
153 151479 702039
154 732200 470575
155 477186 944053
156 -34264 886635
157 847559 515931
158 399612 955276
159 53626 795167
160 134245 667725
161 500269 913990
162 507569 928210
163 894663 431670
164 22838 867686
165 835568 947554
166 573811 151367
167 721673 427080
168 68979 918691
169 506385 922869
170 -38661 831416
171 462676 929061
172 166084 664970
173 919611 476849
174 789454 968135
175 110307 865480
176 37997 901691
177 98051 879168
178 859224 476172
179 64828 897971
180 6506 896071
181 788599 459588
182 865432 939133
183 469686 922214
184 827317 923496
185 128983 743908
186 172763 692662
187 479327 952687
188 903747 484544
189 -30535 799478
190 549341 107238
191 812350 924296
192 820081 945060
193 143667 691920
194 56562 862617
195 854285 914794
196 851595 485049
197 440919 1016515
198 150868 746175
199 749302 421983
200 421503 929540
201 565585 109167
202 83985 924304
203 721281 505762
204 534763 86896
205 90609 908287
206 129643 903869
207 210911 654060
208 757463 489242
209 846472 876778
210 30725 836535
211 552979 144149
212 502690 115482
213 82008 744813
214 733479 441794
215 739924 446505
216 73134 903506
217 779881 498671
218 119566 690526
219 181002 730899
220 730012 428711
221 834094 904119
222 578079 99952
223 783780 471260
224 518517 150393
225 173709 706963
226 -26170 944922
227 181964 763548
228 21074 804956
229 127381 909799
230 660451 472129
231 148270 847839
232 700995 398179
233 26875 933512
234 551957 44415
235 721107 384701
236 868396 488826
237 746816 479184
238 470622 936408
239 116915 929618
240 513969 103584
241 6545 818376
242 83916 923637
243 393970 985088
244 808031 508042
245 711377 492408
246 707099 469358
247 881185 427351
248 805150 892711
249 524789 153342
250 880139 466608
251 26147 880838
252 89576 917294
253 103112 932824
254 514244 130171
255 753240 462962
256 754726 522576
257 517485 951405
258 898979 423632
259 -6765 848057
260 882949 463373
261 880366 920914
262 5846 910231
263 34468 919208
264 87385 835508
265 811906 995577
266 83284 894093
267 571853 159890
268 853154 936820
269 730633 405638
270 484799 928106
271 490854 927949
272 843059 915016
273 550318 129947
274 839209 445249
275 672063 433327
276 2974 867073
277 151122 668059
278 5063 893912
279 540156 121198
280 804171 911236
281 754276 452538
282 -6148 901621
283 759091 939293
284 808675 914150
285 878241 477985
286 883408 501562
287 776355 469374
288 15117 813745
289 811674 948818
290 653108 467074
291 101925 901903
292 505315 87696
293 180598 835539
294 95240 895476
295 502041 144101
296 581418 177355
297 939690 541135
298 10346 860243
299 180582 676361
300 771517 454727
301 455368 873792
302 860199 443908
303 159176 668323
304 844549 947560
305 499641 173192
306 55311 887485
307 658855 401388
308 129279 879421
309 520757 117656
310 777805 914806
311 770341 462877
312 574075 123836
313 906556 507883
314 411843 927691
315 840891 937653
316 23497 772441
317 118057 860450
318 113523 794301
319 -64695 822591
320 497251 944315
321 28516 821925
322 132689 646909
323 -17490 806624
324 781269 948659
325 812495 936194
326 759371 434690
327 892306 841550
328 496616 907772
329 689863 458500
330 806973 977005
331 147473 932068
332 676356 500434
333 797384 965082
334 570481 126547
335 494502 161308
336 7363 831039
337 165507 958254
338 120475 802529
339 468386 97332
340 886987 915751
341 15193 865792
342 67052 834873
343 813623 865997
344 847085 919944
345 764770 453172
346 718660 497459
347 862274 488285
348 204262 654709
349 134316 749048
350 529214 120509
351 47336 806750
352 166472 717312
353 899713 460218
354 854651 965494
355 874181 504838
356 494947 148562
357 554513 119434
358 316 872649
359 407624 927041
360 810903 463328
361 922993 389465
362 140990 908922
363 485660 938092
364 787161 897063
365 881235 490508
366 136807 716753
367 888986 551299
368 505241 930579
369 829092 934453
370 775891 854344
371 834779 961993
372 887195 447688
373 420618 935446
374 106713 900023
375 167698 865931
376 51892 882226
377 880376 552030
378 588123 144325
379 933166 492551
380 153879 712374
381 146797 713247
382 825516 955498
383 111530 774431
384 39391 805602
385 799008 887228
386 747684 449969
387 142071 776591
388 563036 116379
389 828391 948989
390 409171 943119
391 533472 114425
392 527835 161314
393 39780 892140
394 120110 928453
395 445727 950606
396 828275 481487
397 815364 962532
398 838495 895800
399 -84543 829814
400 596605 174137
401 122198 721765
402 126597 882088
403 807710 884542
404 894356 392827
405 839363 913164
406 856601 435589
407 850756 428944
408 737280 535313
409 29126 693019
410 859237 514217
411 875923 440536
412 892901 497521
413 522522 118878
414 121332 766959
415 53504 932734
416 -34285 853920
417 822735 434700
418 108892 726960
419 567721 138360
420 846206 963024
421 141591 717483
422 19205 837644
423 853748 928114
424 881601 415602
425 126904 882068
426 71663 867315
427 19668 891876
428 -23600 911321
429 803413 918303
430 866081 431040
431 866235 477627
432 151781 707203
433 103369 680643
434 858037 970926
435 605636 121338
436 -32125 874426
437 550421 169284
438 16293 878901
439 532403 105767
440 548222 134739
441 755213 956318
442 450145 895525
443 29242 890280
444 148554 850244
445 740469 422977
446 766484 522998
447 828980 401527
448 875061 920002
449 172263 884863
450 46694 929734
451 852320 499319
452 566954 141892
453 114541 868307
454 864957 526307
455 536271 952737
456 66474 844365
457 754853 532230
458 838399 503391
459 535591 155582
460 432385 938968
461 128578 916836
462 858427 481950
463 795513 908161
464 134413 718197
465 692325 458187
466 819308 870094
467 609149 153604
468 839802 847607
469 767256 875857
470 634984 465380
471 174145 712109
472 144410 741001
473 551708 216767
474 861288 492265
475 451228 968065
476 574940 149349
477 16953 879292
478 77835 888823
479 191145 769783
480 208453 720067
481 19364 831712
482 109118 752636
483 879785 483222
484 14279 897426
485 177632 696130
486 784058 468400
487 763322 470232
488 61669 873206
489 780232 426035
490 100617 910531
491 842988 536963
492 75693 901431
493 188692 690018
494 112225 912054
495 483036 61611
496 781198 431874
497 100396 741268
498 868543 967287
499 55571 897016
500 463826 946801
501 45940 844330
502 827784 894742
503 716082 454879
504 745418 482730
505 463837 934011
506 54554 957650
507 413284 952871
508 5985 864244
509 128994 896810
510 106703 883066
511 818834 532097
512 772561 462620
513 124357 931105
514 867833 521883
515 49126 839780
516 501146 97304
517 144278 711391
518 697365 416660
519 817612 493156
520 431641 927821
521 201958 686953
522 450483 934581
523 157993 727351
524 518197 902359
525 506247 102997
526 874133 465943
527 512950 83396
528 141192 733539
529 854418 967793
530 765003 555851
531 457339 933399
532 44716 821658
533 696998 449865
534 897714 432299
535 138537 984051
536 33131 914599
537 534516 174735
538 459200 940369
539 829727 411630
540 476801 920395
541 65835 767859
542 759707 429197
543 897635 526919
544 739341 530854
545 547206 142167
546 850332 548275
547 179250 718155
548 160366 886466
549 923882 457659
550 67184 858717
551 740624 437250
552 535861 116781
553 114247 704354
554 558902 118329
555 427926 907269
556 879687 493730
557 885040 968931
558 450284 889665
559 795373 482522
560 784534 914679
561 221523 685717
562 109411 664057
563 112405 895629
564 108675 843412
565 -25023 883925
566 874302 436731
567 571364 83880
568 -9453 844807
569 829664 492894
570 113816 890476
571 522676 79729
572 65204 944467
573 520975 39059
574 134267 760391
575 71586 926839
576 818756 473135
577 806199 471286
578 -57123 823599
579 722118 488820
580 726115 425826
581 812368 918815
582 45534 820907
583 758026 940619
584 759442 526864
585 123835 862311
586 826083 967572
587 865040 457144
588 890937 450545
589 537477 150009
590 64234 883039
591 540125 152225
592 169912 721058
593 824586 873934
594 146977 754134
595 712122 452048
596 544081 182102
597 127167 869625
598 139981 705893
599 435314 923172
600 724430 415926
601 167072 891558
602 200180 772280
603 855093 914941
604 771278 420789
605 485525 120863
606 20100 786185
607 913326 443006
608 845015 520478
609 798643 956266
610 403700 835737
611 154983 935892
612 102367 916565
613 832664 502495
614 835856 916922
615 818889 455755
616 818472 428494
617 839712 400437
618 548050 152361
619 822216 910600
620 -29566 827728
621 465995 156164
622 723452 444440
623 72924 910613
624 455014 945986
625 118159 850636
626 152878 712434
627 853783 485264
628 808147 915464
629 117744 900633
630 -9878 854200
631 113331 682871
632 157992 761081
633 586320 59691
634 826331 905466
635 877310 924204
636 84580 878092
637 810216 955633
638 811160 949387
639 463723 990039
640 805388 500563
641 567620 136128
642 733951 468490
643 195862 683973
644 878444 1034229
645 526790 87203
646 865713 525304
647 436348 938548
648 -30148 939120
649 507480 928675
650 -15664 878994
651 26901 833836
652 83937 898003
653 19473 854465
654 181684 755792
655 37369 856022
656 737538 527674
657 930549 433594
658 171442 801886
659 848050 922130
660 34820 893821
661 133562 924539
662 900031 455047
663 172975 654298
664 812557 924678
665 786408 877196
666 93523 923461
667 100020 871404
668 132661 706299
669 850637 456346
670 551152 179021
671 702461 533546
672 11700 874246
673 696809 493972
674 458486 960122
675 845029 972532
676 505072 134253
677 79588 822773
678 125608 944041
679 312 842057
680 699911 427718
681 423769 915557
682 489337 171375
683 732219 483208
684 848845 411341
685 740123 488474
686 231566 767731
687 504743 142072
688 441707 1009113
689 -5324 862885
690 491871 171704
691 826956 859738
692 536593 69919
693 904859 517021
694 109349 856349
695 150894 901696
696 859267 951678
697 498246 967417
698 113339 934037
699 11939 818447
700 836761 507046
701 758355 463063
702 47460 814251
703 539742 152184
704 115340 723064
705 24504 826136
706 92410 901272
707 150412 782267
708 469834 953401
709 595127 104915
710 769621 433225
711 753580 501249
712 872975 447268
713 546456 185552
714 514013 963997
715 106329 859890
716 728679 496687
717 513815 85738
718 544090 171225
719 191526 712332
720 923729 534994
721 -8115 763975
722 157992 683232
723 476507 925750
724 125820 879136
725 561041 83067
726 495468 136404
727 767034 481405
728 794253 517387
729 528717 90411
730 138104 685028
731 811158 396999
732 782299 930328
733 146501 870379
734 3100 793646
735 -50635 871900
736 735655 485230
737 187344 766331
738 425493 932992
739 536794 124031
740 742964 483467
741 798277 510000
742 719644 468990
743 700300 492617
744 532087 140780
745 141425 971664
746 540984 111843
747 705683 501263
748 834389 975588
749 849464 969609
750 163723 861508
751 772906 894723
752 59740 877695
753 721661 469205
754 -39593 847567
755 456809 983556
756 548192 203788
757 810048 940958
758 -11199 834992
759 176488 754277
760 404806 950761
761 611945 182058
762 844922 932975
763 96887 947162
764 520221 163367
765 41336 822740
766 546646 195113
767 720139 546101
768 868509 430420
769 532455 94225
770 61529 850037
771 533977 160155
772 778654 875444
773 514629 930615
774 757171 445992
775 505552 975665
776 700933 482171
777 155400 882043
778 -5651 825983
779 737258 500869
780 801787 481266
781 109347 955418
782 865770 919146
783 86606 725522
784 67407 901004
785 495444 1004940
786 469173 886332
787 73423 876530
788 522944 166198
789 105579 789838
790 123802 923944
791 176359 778687
792 507397 152615
793 727111 468270
794 822427 918706
795 527224 148804
796 504400 102894
797 53504 887849
798 518184 96399
799 175818 705598
800 465569 924614
