NAME : portcgen-1500-1508
COMMENT : portcgen N=1500, seed=1508
TYPE : TSP
DIMENSION : 1500
EDGE_WEIGHT_TYPE : EUC_2D
NODE_COORD_SECTION
1 54047 611028
2 823544 362208
3 281862 317112
4 262927 500390
5 247193 331459
6 888054 736407
7 834593 370990
8 584968 861160
9 177991 960235
10 758183 556569
11 450279 319498
12 458583 347817
13 175049 859223
14 65747 897836
15 68233 657255
16 263892 792621
17 318563 479502
18 15991 905686
19 253039 462909
20 51078 908773
21 70004 29520
22 144484 930111
23 594503 795189
24 313525 497911
25 122767 10683
26 91567 166904
27 197715 116386
28 148127 195863
29 917571 668431
30 852146 395300
31 274182 796857
32 28539 885313
33 319883 354111
34 368180 487377
35 801998 362610
36 233222 175047
37 338077 500361
38 570652 860371
39 934349 467659
40 927023 425760
41 332072 511352
42 20378 592387
43 864240 364828
44 885985 698446
45 35952 887914
46 25653 665625
47 262033 767145
48 54748 838876
49 620908 815288
50 552700 862935
51 262711 488919
52 843067 711776
53 60544 614492
54 901486 720967
55 29692 878907
56 835298 687786
57 239937 435863
58 483651 336395
59 324705 520788
60 601908 828616
61 251039 753249
62 303795 773152
63 51322 645646
64 85280 867356
65 171394 946175
66 145862 924623
67 911236 392614
68 861939 709081
69 331821 762692
70 62666 875332
71 80235 -1881
72 129874 51510
73 722962 588226
74 246026 435216
75 247131 455743
76 88695 18166
77 460712 332399
78 814873 356475
79 797804 386852
80 477615 329691
81 294231 737852
82 72614 848411
83 224349 823139
84 912854 406205
85 865144 313072
86 219021 454987
87 27762 604745
88 242629 426516
89 300122 328171
90 954807 682428
91 237411 303134
92 239886 791900
93 158270 134056
94 900578 688521
95 41991 599514
96 789104 617926
97 578245 866554
98 289096 773074
99 254896 482745
100 227264 207472
101 68319 909265
102 293540 797618
103 241256 467331
104 86638 880507
105 275348 824807
106 342083 485628
107 306237 795048
108 353993 508677
109 793411 341454
110 622150 849185
111 182744 157288
112 80427 8795
113 196552 467614
114 759120 639190
115 600221 834164
116 273836 451458
117 264245 275940
118 890564 706337
119 275595 340840
120 321836 503486
121 273463 779976
122 852486 663370
123 244981 512361
124 534086 802283
125 887620 387698
126 743060 594192
127 269954 780725
128 270327 362991
129 853800 336071
130 9412 562474
131 208177 183868
132 -29983 589934
133 137216 25439
134 250898 426263
135 469372 288089
136 24547 615271
137 815503 347208
138 356573 462091
139 834443 380921
140 336496 472364
141 287206 776336
142 308557 526892
143 290411 521798
144 868473 665684
145 263644 804161
146 553280 820067
147 95560 610950
148 265177 327255
149 220491 283487
150 213299 890973
151 869850 689256
152 263528 323761
153 336506 488677
154 122066 884270
155 894325 693848
156 819183 379517
157 255207 446773
158 149647 921949
159 788171 623889
160 95586 7554
161 188245 912959
162 298981 277441
163 483961 304322
164 199037 169747
165 294748 483809
166 878681 701461
167 291896 254684
168 11908 606690
169 43948 581866
170 849408 682778
171 873796 708442
172 113987 11228
173 907601 366062
174 295485 255718
175 181188 187758
176 770351 386509
177 910713 417483
178 80314 896627
179 76436 933394
180 310370 792689
181 444853 273286
182 179504 197227
183 846259 413670
184 174705 922489
185 320310 426092
186 316831 424015
187 376332 463018
188 135767 986299
189 72809 11756
190 187891 883718
191 273566 287304
192 873130 460687
193 748836 599143
194 85939 5042
195 88991 18861
196 879216 703604
197 385160 496705
198 337127 487294
199 832543 319403
200 38633 574128
201 811229 621637
202 287489 496624
203 449324 369358
204 534875 808629
205 303694 765663
206 519304 326938
207 337157 475432
208 180330 186525
209 270372 301084
210 441043 319969
211 331915 489591
212 905013 410964
213 317270 736567
214 288319 747752
215 281477 824463
216 221331 188332
217 157215 160261
218 465187 307554
219 42503 874137
220 859259 466465
221 298650 768737
222 778921 612103
223 925625 696353
224 574799 866283
225 886288 377096
226 609849 843943
227 37522 925095
228 269695 765609
229 450254 353076
230 83078 42189
231 189705 910498
232 304463 801271
233 776684 596432
234 827995 360105
235 254298 334832
236 344097 524493
237 42984 907648
238 941565 410760
239 49760 899458
240 782204 336376
241 809383 599445
242 501702 365343
243 364939 518665
244 333845 474907
245 349367 518039
246 291594 284884
247 105174 11638
248 912662 403116
249 68215 888837
250 845437 701366
251 47185 911270
252 141978 211295
253 854228 473874
254 295218 311869
255 72225 70277
256 632795 837192
257 868224 724686
258 343808 538350
259 34780 585843
260 460049 313557
261 31958 588425
262 837297 331677
263 805283 391247
264 38137 953510
265 292708 492059
266 466975 306629
267 776983 589030
268 274495 845709
269 851292 725193
270 176358 911876
271 325861 521050
272 818554 595423
273 35705 904314
274 816361 346100
275 443429 321666
276 320707 527806
277 277249 291708
278 896268 416720
279 762925 347668
280 73254 890804
281 51628 894923
282 38385 846917
283 279364 492362
284 83337 892743
285 288103 753823
286 77120 607203
287 119337 -29104
288 307278 760983
289 596206 793287
290 588010 849331
291 281100 297798
292 526608 339940
293 445080 350735
294 919368 450585
295 288942 302191
296 138579 186404
297 487802 317992
298 436387 353442
299 272763 485505
300 290561 291546
301 279366 794302
302 187659 186243
303 869737 729844
304 880545 680266
305 894361 427313
306 137197 924624
307 455505 354061
308 63144 888773
309 834639 666381
310 104653 626821
311 300724 777799
312 298265 321029
313 845145 714804
314 166940 210248
315 150569 851452
316 581433 862101
317 473265 298243
318 847814 407070
319 566700 824182
320 60715 894021
321 879683 409037
322 245830 310021
323 583835 802032
324 293125 776680
325 109814 -23755
326 252873 316524
327 68378 605083
328 149520 941414
329 277714 467307
330 266463 433626
331 265464 340086
332 22864 640151
333 -28548 603287
334 957069 387128
335 371847 503821
336 41187 863530
337 296796 785039
338 61522 611134
339 835846 338067
340 806245 612291
341 290277 502218
342 825975 583567
343 190291 181769
344 897054 415615
345 57185 620183
346 221825 456834
347 76753 -9771
348 454263 322295
349 67815 38036
350 111488 13694
351 166461 930655
352 160627 912872
353 287858 823348
354 759286 580364
355 272824 769167
356 72717 907002
357 78051 -2792
358 897347 352397
359 930523 432625
360 291191 334487
361 290207 333848
362 152488 180902
363 144687 150099
364 45034 618946
365 291880 316370
366 806675 568791
367 579186 840007
368 121502 920785
369 267113 474604
370 794913 372234
371 826384 720038
372 815705 387620
373 821075 413656
374 248839 835033
375 886179 681948
376 46570 588930
377 909460 702251
378 315856 506530
379 40573 896858
380 131665 869443
381 975199 615256
382 64644 619621
383 56907 584759
384 317608 501526
385 780972 622341
386 38224 910123
387 221648 448153
388 269735 321504
389 203454 206237
390 310771 790844
391 911778 437417
392 897642 691931
393 81766 897139
394 237649 272114
395 599232 859387
396 109568 908534
397 185460 937633
398 64059 906922
399 885678 425282
400 126362 924067
401 145930 31692
402 99176 41628
403 49004 584346
404 919256 451572
405 816184 320025
406 172037 214702
407 818602 312665
408 884486 699017
409 558235 862053
410 248423 356092
411 283764 772936
412 828690 400498
413 846650 373209
414 867202 404182
415 321859 492435
416 153524 914427
417 239259 800747
418 780062 648673
419 590440 871362
420 880750 426222
421 113149 11516
422 458624 349364
423 795755 581872
424 66628 899487
425 13045 632681
426 64455 892672
427 257887 461888
428 181021 174472
429 174920 922394
430 -4015 567519
431 787006 419869
432 111999 59733
433 944688 372981
434 807525 351591
435 134087 921587
436 116993 603102
437 84166 875423
438 548027 785017
439 885167 670415
440 257635 469058
441 260022 782265
442 570424 799022
443 97718 865377
444 28906 595614
445 303741 766450
446 796243 593844
447 173924 176907
448 -15720 569798
449 799049 384653
450 138327 207309
451 822537 359809
452 63372 613391
453 347338 485777
454 751932 610735
455 195655 924572
456 29752 619901
457 115967 3643
458 74237 636710
459 502465 297755
460 302628 801238
461 73753 255
462 452144 327770
463 83982 31766
464 916569 404584
465 864807 353019
466 122477 192222
467 119485 875814
468 809243 367686
469 878563 678338
470 281758 318981
471 283647 815967
472 90195 41971
473 853887 695196
474 563002 807766
475 599880 811194
476 196421 367787
477 933609 405353
478 318278 488505
479 853021 371335
480 340714 513661
481 889565 416448
482 273532 758348
483 931122 378633
484 34966 603141
485 877778 727759
486 836744 715998
487 60588 867283
488 313516 488298
489 791515 604289
490 152219 159895
491 868775 368328
492 792644 588728
493 790026 575640
494 72850 929749
495 899183 672524
496 891704 692042
497 220838 171936
498 561425 814456
499 921761 398155
500 75363 894894
501 93423 16845
502 565826 825865
503 275622 427576
504 881152 675119
505 230197 366000
506 261310 476061
507 896048 402995
508 37702 916682
509 781422 320276
510 764089 554451
511 569307 859028
512 880091 697985
513 254478 331987
514 273529 319691
515 342524 513032
516 26659 656581
517 20090 589320
518 71331 590630
519 59341 898093
520 335590 449270
521 817141 387615
522 782225 642628
523 47783 859610
524 880476 699007
525 202437 484915
526 464789 325359
527 810848 694147
528 907221 679381
529 799576 632724
530 173427 181225
531 455697 274365
532 919805 716335
533 58614 885369
534 879179 650932
535 241527 460893
536 484729 307119
537 321419 345643
538 885600 704716
539 140649 954708
540 241801 310881
541 481368 342705
542 38389 917119
543 258089 266726
544 265253 322599
545 260491 321192
546 481174 297029
547 829057 391877
548 139797 933577
549 897928 425666
550 74385 581032
551 22682 896588
552 545479 881030
553 52304 -39942
554 29766 897623
555 573639 843206
556 102435 10611
557 728308 553787
558 131865 892419
559 120858 52637
560 230806 772557
561 176218 931928
562 854527 343467
563 264421 428385
564 326756 783886
565 44935 911831
566 54328 650830
567 567407 860594
568 246745 322445
569 543498 880045
570 810184 358764
571 40057 602883
572 585780 857768
573 873310 424968
574 314228 759518
575 335814 292877
576 -14489 611392
577 179329 166013
578 173417 144991
579 110432 920792
580 17658 613657
581 912810 412424
582 235111 325225
583 262355 333072
584 75812 637288
585 149881 869097
586 244873 474460
587 122710 -10576
588 189737 904843
589 810173 348164
590 133520 239113
591 76001 264
592 151766 918177
593 876613 699243
594 452458 319986
595 15808 872404
596 805649 606009
597 798861 664176
598 557313 862774
599 883071 693517
600 247359 339413
601 199930 872117
602 336343 533165
603 777838 624775
604 859367 356595
605 63765 559690
606 304956 777800
607 89876 901250
608 731499 615594
609 250325 318469
610 151911 922946
611 893863 381428
612 491138 327669
613 131066 901197
614 841987 343651
615 286811 501054
616 807439 363350
617 262244 793776
618 -18807 595396
619 838641 716180
620 199472 189150
621 758799 624146
622 901190 689675
623 176273 188734
624 157531 169489
625 276756 448530
626 912912 408042
627 70712 895676
628 810032 343037
629 308994 528079
630 284905 801877
631 194233 166100
632 135299 931293
633 275096 441390
634 273289 822347
635 290827 791890
636 68000 916387
637 567487 829631
638 286361 285027
639 128020 915830
640 927865 660948
641 241211 434074
642 469900 298833
643 277123 366651
644 133117 185063
645 861894 690610
646 856014 709990
647 366202 478830
648 271257 444056
649 824983 364938
650 600865 811813
651 273689 800305
652 138331 186489
653 130286 195279
654 141030 908037
655 420524 260624
656 895635 401508
657 162411 172182
658 274388 436179
659 835045 638787
660 154493 152260
661 208871 164380
662 226375 447104
663 458495 346251
664 75946 -7544
665 793064 623573
666 75041 865598
667 776524 610627
668 303317 797336
669 136758 166374
670 920291 437415
671 131026 139893
672 568243 872666
673 169551 912679
674 270992 765197
675 74495 14619
676 435061 310749
677 755109 336877
678 66180 894247
679 274597 797257
680 270418 314235
681 45530 634082
682 359000 511021
683 317411 520680
684 207326 444227
685 76966 11483
686 805384 591859
687 930588 415735
688 321754 356645
689 166578 931711
690 36032 877936
691 84451 47540
692 179633 915937
693 218577 450732
694 58955 868366
695 -23390 590430
696 196480 175273
697 137697 167382
698 336460 526785
699 55509 905170
700 917745 423644
701 262038 326731
702 296566 357468
703 79823 -27267
704 448116 390293
705 172575 885754
706 555923 838504
707 256405 334389
708 180747 292573
709 -15090 652533
710 160028 875089
711 898980 701052
712 81959 22999
713 784553 320923
714 216752 286501
715 567438 780783
716 48423 885127
717 800383 622773
718 137218 926449
719 554091 822977
720 149543 931177
721 823832 716839
722 122746 943803
723 179070 937899
724 285033 322125
725 563867 820448
726 823078 297039
727 92894 188041
728 281079 319057
729 543448 811570
730 832663 601667
731 20284 570289
732 272623 338644
733 258328 769689
734 237813 815135
735 261909 298995
736 13365 604745
737 606755 843754
738 90280 -6378
739 876375 343799
740 305524 791655
741 309761 479833
742 257230 448373
743 67397 622919
744 306134 787475
745 60079 614247
746 893954 701660
747 322775 510484
748 901627 429256
749 280101 768250
750 282507 502726
751 307417 534564
752 278191 742263
753 821767 342355
754 199935 890203
755 890354 369439
756 58694 891057
757 936144 414937
758 57858 885065
759 895696 440517
760 71964 906503
761 894220 672500
762 256375 312040
763 254549 822185
764 464983 291265
765 -6471 609578
766 258599 303085
767 -6105 599886
768 778867 650472
769 892984 380854
770 608116 843139
771 327390 541467
772 182944 178784
773 305931 485217
774 906391 438934
775 231911 168482
776 337952 488229
777 332944 498518
778 270109 252988
779 407912 332060
780 285727 466926
781 783529 336270
782 808682 327526
783 69818 595005
784 154810 179239
785 889842 401722
786 52896 899370
787 240723 457525
788 1390 623046
789 895913 431462
790 752559 592671
791 267423 759315
792 840336 373413
793 171510 930172
794 47493 921019
795 588039 825684
796 83281 -21682
797 265530 376320
798 917552 416061
799 922452 375250
800 584118 831088
801 792166 334907
802 170897 886677
803 106652 185254
804 861854 761216
805 564528 837852
806 506137 348112
807 116529 161284
808 296230 456792
809 830611 366926
810 130506 904960
811 290407 342681
812 149249 181105
813 594345 847661
814 853443 388824
815 375922 507874
816 226698 474123
817 451696 383730
818 107168 893564
819 170578 190576
820 862476 431521
821 76387 925914
822 860041 391982
823 -6756 613376
824 277936 767949
825 347978 457979
826 865006 688772
827 313515 513843
828 32570 878270
829 248350 815857
830 84428 899891
831 568300 876211
832 338595 524677
833 236817 462727
834 109078 906424
835 70723 20659
836 868969 456900
837 269570 321627
838 55015 619600
839 164557 160879
840 295522 444912
841 918337 407789
842 581738 850742
843 303753 527552
844 84456 22842
845 185304 412752
846 438465 342614
847 287283 402225
848 320736 500058
849 112459 32362
850 782202 406710
851 71433 -18049
852 141960 863941
853 285007 792588
854 439472 318330
855 261828 468970
856 230857 450360
857 272925 508571
858 58593 906127
859 891250 676643
860 44206 591082
861 591145 884927
862 881353 673830
863 256602 481158
864 873565 716003
865 254533 317092
866 48267 887523
867 219183 273140
868 90226 37026
869 162499 174602
870 288569 535411
871 249069 503772
872 823942 366033
873 243599 324486
874 157123 889922
875 818095 599645
876 141174 903207
877 47907 588531
878 496341 330132
879 157182 954613
880 310262 549725
881 919540 389387
882 843593 276099
883 164319 950772
884 113327 575552
885 137949 939094
886 527671 845858
887 149005 873369
888 842388 632789
889 152948 163158
890 27477 863922
891 581518 836500
892 913412 424016
893 64251 894807
894 147392 950430
895 345133 522680
896 536354 836573
897 584034 832232
898 178023 891384
899 579625 812036
900 806353 342833
901 70282 910528
902 845572 628950
903 86061 22484
904 301617 488479
905 256938 442875
906 353321 517014
907 789493 616013
908 255618 342903
909 323351 509193
910 143623 210039
911 867892 707775
912 789449 600034
913 123525 17037
914 844218 743842
915 114107 -13958
916 909732 717736
917 55860 617662
918 856583 729247
919 876848 680041
920 316773 538130
921 845019 316291
922 381090 454765
923 795487 328167
924 58580 3969
925 251577 482885
926 885523 401128
927 881119 737750
928 608243 826860
929 775411 632498
930 43221 920883
931 118543 -8741
932 276695 724882
933 237610 329227
934 396043 547081
935 252575 300647
936 174394 164547
937 300499 780464
938 281216 482112
939 342258 570087
940 582454 782880
941 113402 939453
942 811162 603657
943 584403 822518
944 254084 313305
945 231723 325378
946 803049 380160
947 50764 905157
948 934025 451298
949 581431 854448
950 307145 495135
951 568367 862947
952 61040 902357
953 911808 364888
954 69943 898120
955 65361 923591
956 306426 498709
957 191667 175933
958 77898 931256
959 36315 892408
960 224716 460633
961 323786 756730
962 281767 815325
963 50096 651771
964 274559 812956
965 68760 3826
966 24712 605195
967 61850 910705
968 559964 844311
969 141174 932258
970 874411 672214
971 807638 355868
972 214074 917178
973 89929 895440
974 254429 515899
975 106686 855208
976 43128 589660
977 60076 -8871
978 348370 514074
979 116836 205223
980 290638 303691
981 761408 623874
982 212921 176253
983 593358 834490
984 853331 733020
985 33279 616426
986 903030 386565
987 252669 413548
988 304979 427350
989 279405 327458
990 320089 490026
991 112455 888235
992 823545 362456
993 881186 430380
994 171952 215411
995 931736 384381
996 914301 397579
997 53895 593951
998 291619 775823
999 347187 480957
1000 120484 164059
1001 480350 332496
1002 159266 892679
1003 339988 491785
1004 69622 2304
1005 53720 598391
1006 148227 898484
1007 484392 330506
1008 56442 900899
1009 819431 311462
1010 298350 526605
1011 828691 633909
1012 273959 331965
1013 890423 707106
1014 876398 685242
1015 567959 865310
1016 804723 559140
1017 170888 183586
1018 786029 342866
1019 205166 910969
1020 172361 888965
1021 291846 807246
1022 19800 864844
1023 60165 894307
1024 154211 201571
1025 46504 916850
1026 800969 348282
1027 894850 429665
1028 581137 865255
1029 451119 333047
1030 85844 626166
1031 577104 841201
1032 153421 29590
1033 66138 594875
1034 808247 602847
1035 527690 339261
1036 454520 324770
1037 489236 327344
1038 55223 -27108
1039 259062 799282
1040 317593 784310
1041 124392 -25822
1042 355780 480309
1043 776464 607957
1044 85633 859048
1045 276626 797277
1046 869225 415490
1047 -6009 624278
1048 214563 175117
1049 811236 359290
1050 878485 410607
1051 161977 891350
1052 313812 321763
1053 128311 9951
1054 776951 369590
1055 118079 922004
1056 93362 860718
1057 822244 734137
1058 823348 344707
1059 794696 336441
1060 886301 407849
1061 562534 822844
1062 456090 335139
1063 868582 682159
1064 751648 609226
1065 167251 972970
1066 138830 173217
1067 63332 590126
1068 458066 350503
1069 32213 919946
1070 -15450 577705
1071 228577 474892
1072 282948 803683
1073 80444 -1291
1074 856082 336267
1075 -2350 627148
1076 155433 950318
1077 324256 477692
1078 508984 311676
1079 550551 855518
1080 449190 334925
1081 79866 884901
1082 199150 205727
1083 76768 3192
1084 837499 348424
1085 855375 356356
1086 801328 570434
1087 246315 334228
1088 565190 880381
1089 88850 891410
1090 605517 881048
1091 53396 878863
1092 59867 576412
1093 148877 940997
1094 873843 445819
1095 27057 564061
1096 253232 477977
1097 55245 868557
1098 19561 596821
1099 46165 45192
1100 280719 765932
1101 295917 768805
1102 175851 232917
1103 326524 561988
1104 775969 561245
1105 773719 607256
1106 164702 171819
1107 122573 150372
1108 58046 41578
1109 172469 147347
1110 887546 417468
1111 38877 599381
1112 338196 468321
1113 872279 743816
1114 58050 30853
1115 835977 419047
1116 269858 533052
1117 906264 429065
1118 875424 367247
1119 288807 779537
1120 540542 831433
1121 176069 928780
1122 872905 671773
1123 366592 472096
1124 814251 367411
1125 465651 339550
1126 76170 608111
1127 44625 595059
1128 113755 874050
1129 241882 398889
1130 848540 736976
1131 95561 27493
1132 888317 678736
1133 54539 649094
1134 100971 -9542
1135 49973 912953
1136 878588 712342
1137 865567 701702
1138 877416 426684
1139 158012 169562
1140 136286 176325
1141 173859 900050
1142 56193 575496
1143 41520 908237
1144 267296 479069
1145 152865 211572
1146 832727 584675
1147 914292 405102
1148 773690 589387
1149 812030 294857
1150 272690 454409
1151 267796 473442
1152 166817 203055
1153 776129 583356
1154 864681 459017
1155 153615 865515
1156 238642 780741
1157 164064 184766
1158 261516 295604
1159 159804 911395
1160 294429 779965
1161 761917 654556
1162 898121 666023
1163 806046 350661
1164 77152 -5748
1165 241618 753760
1166 465418 335998
1167 473449 324799
1168 43181 565339
1169 851763 628737
1170 836139 367609
1171 197543 152706
1172 327600 497435
1173 272282 317696
1174 276880 766661
1175 484690 313218
1176 259870 312154
1177 19487 538747
1178 218238 458179
1179 267902 281417
1180 66777 857697
1181 332488 530201
1182 44880 931463
1183 858664 704021
1184 362808 466236
1185 129649 -16395
1186 296494 532849
1187 912656 430216
1188 896140 454707
1189 -12969 582977
1190 295746 449274
1191 839219 339954
1192 233960 479147
1193 869991 671741
1194 300272 511289
1195 179824 921486
1196 807031 618045
1197 859693 633460
1198 923954 393325
1199 799163 616150
1200 794727 609101
1201 284692 810767
1202 5818 580359
1203 804458 381258
1204 159346 150631
1205 25119 613482
1206 353409 496266
1207 361723 464798
1208 96875 915146
1209 61632 33769
1210 278851 788018
1211 272694 773208
1212 920334 744173
1213 283578 325745
1214 42359 48568
1215 245632 768638
1216 424556 308661
1217 840410 423986
1218 857802 721752
1219 812407 613234
1220 293997 777083
1221 15438 605589
1222 150905 893735
1223 432396 268617
1224 174097 199309
1225 256399 441782
1226 340682 511647
1227 837336 688519
1228 222354 457072
1229 824802 576014
1230 263396 474379
1231 264773 843556
1232 238338 471043
1233 860950 403342
1234 239644 753031
1235 860949 696896
1236 482983 293860
1237 150194 913443
1238 211432 887365
1239 859648 350370
1240 290064 570737
1241 931646 438634
1242 163519 148473
1243 179997 156515
1244 268321 779387
1245 378633 506906
1246 269632 305635
1247 80207 -19752
1248 485199 307852
1249 289957 789886
1250 149209 180155
1251 61212 611389
1252 54445 44604
1253 277743 803115
1254 761207 618953
1255 810927 330429
1256 74583 911607
1257 259869 287653
1258 879374 382052
1259 276886 333362
1260 111922 -2920
1261 255321 451718
1262 798413 309149
1263 194950 202009
1264 30793 612980
1265 23800 610329
1266 299622 449884
1267 78290 28949
1268 76970 22009
1269 264577 770064
1270 76136 -15715
1271 119772 12704
1272 118194 189104
1273 179446 932446
1274 56956 893276
1275 167104 878743
1276 610237 850374
1277 273174 350485
1278 608226 806197
1279 128821 201515
1280 131953 182104
1281 292363 419990
1282 867576 667064
1283 267407 813315
1284 130728 926256
1285 527908 858045
1286 362939 499829
1287 151110 196221
1288 102852 880492
1289 489847 300373
1290 66307 632117
1291 364619 491706
1292 327780 573358
1293 321658 504653
1294 869779 425289
1295 93349 607858
1296 770269 342559
1297 474533 330334
1298 767667 615644
1299 808736 382751
1300 583948 812048
1301 268639 282779
1302 179052 164107
1303 283241 330733
1304 276730 304310
1305 334542 472971
1306 84452 901404
1307 72638 -15281
1308 226100 412441
1309 592959 789214
1310 366297 502191
1311 895044 428294
1312 47173 876606
1313 279759 330120
1314 295247 334535
1315 248837 851648
1316 302404 803884
1317 790972 589572
1318 46746 661562
1319 108085 944662
1320 448511 306345
1321 64599 -10825
1322 775938 611654
1323 31627 616139
1324 92299 47259
1325 897041 678289
1326 298421 798894
1327 828276 630989
1328 277128 450114
1329 567962 827084
1330 35751 905280
1331 774885 603681
1332 812996 304258
1333 557058 806574
1334 568305 867942
1335 117512 45423
1336 80276 637637
1337 306802 443903
1338 845201 732518
1339 768278 559251
1340 45530 621303
1341 182287 875952
1342 578734 805845
1343 249509 330179
1344 787731 579822
1345 99624 946633
1346 104516 12200
1347 35665 609030
1348 60577 556064
1349 81837 924148
1350 862825 737486
1351 796469 356344
1352 859901 735311
1353 327936 484468
1354 99104 48356
1355 149214 888551
1356 904222 409005
1357 855153 398945
1358 828572 376995
1359 899281 446737
1360 610824 861445
1361 592608 878623
1362 101944 906841
1363 192119 173179
1364 815140 679415
1365 902321 424069
1366 299612 288968
1367 778313 605872
1368 775737 620917
1369 55862 32647
1370 788178 362803
1371 801540 340760
1372 263353 468692
1373 276525 760611
1374 52482 898623
1375 909722 445313
1376 269377 808779
1377 72951 933944
1378 127213 177151
1379 346081 500945
1380 329328 785457
1381 854876 710926
1382 806168 333187
1383 859501 346462
1384 539890 874393
1385 261603 795514
1386 865084 719086
1387 156991 181231
1388 782885 578771
1389 29571 584997
1390 248146 422813
1391 289673 449751
1392 846177 597609
1393 243287 318903
1394 127687 923283
1395 29947 858622
1396 315458 302657
1397 881519 723971
1398 590316 839067
1399 300766 760541
1400 87486 908540
1401 145658 224699
1402 820195 374178
1403 72492 887536
1404 840729 367817
1405 492052 308333
1406 70388 18115
1407 421362 315650
1408 41565 600545
1409 839897 442584
1410 245899 294473
1411 30527 621967
1412 78626 -16941
1413 878107 377694
1414 59588 917224
1415 35077 593610
1416 902092 367144
1417 142465 199947
1418 43572 649395
1419 811663 358381
1420 255746 456443
1421 113807 -39322
1422 40918 597344
1423 777778 589686
1424 782850 623935
1425 131337 24850
1426 259829 316020
1427 830382 342178
1428 535282 858773
1429 258256 812272
1430 582691 813099
1431 170203 942663
1432 73604 10272
1433 556485 869604
1434 244045 452100
1435 892366 728654
1436 290745 427413
1437 624077 842664
1438 932424 416759
1439 281679 267778
1440 534103 900047
1441 815342 589622
1442 854786 704010
1443 808696 365553
1444 894057 407081
1445 755214 594804
1446 461324 355570
1447 246777 458429
1448 535923 817379
1449 117410 16040
1450 344085 772558
1451 143952 27077
1452 903426 414875
1453 204750 176378
1454 899787 372794
1455 458142 317300
1456 166038 928833
1457 284929 447814
1458 850477 344662
1459 568889 794670
1460 117203 879763
1461 774370 373539
1462 882195 416946
1463 795462 364257
1464 850290 687783
1465 819778 334552
1466 832903 330465
1467 793573 339105
1468 572373 860430
1469 292931 446977
1470 312717 473975
1471 484200 374081
1472 884776 729837
1473 581001 825030
1474 159418 178598
1475 61241 892420
1476 565372 836183
1477 299138 779965
1478 196637 122328
1479 869664 692502
1480 37618 885379
1481 929569 410582
1482 868663 693202
1483 800825 580830
1484 301968 308577
1485 804534 612111
1486 543830 876548
1487 372417 475816
1488 100956 28963
1489 766100 359489
1490 289302 776526
1491 33011 927238
1492 149132 881714
1493 55141 908059
1494 593964 811048
1495 892471 392162
1496 143177 886298
1497 617214 806865
1498 871131 745390
1499 392230 540122
1500 115491 915747
