NAME : portcgen-500-507
COMMENT : portcgen N=500, seed=507
TYPE : TSP
DIMENSION : 500
EDGE_WEIGHT_TYPE : EUC_2D
NODE_COORD_SECTION
1 344691 689281
2 137194 44036
3 264596 683164
4 579619 592876
5 259623 736316
6 543662 820598
7 209026 639168
8 180018 642437
9 516251 812016
10 60528 641955
11 659239 499802
12 122225 651525
13 346233 689498
14 536342 811395
15 171732 103189
16 250860 576503
17 178685 144863
18 282492 722305
19 588617 761122
20 507749 818147
21 353219 663977
22 516386 778693
23 573222 799836
24 216944 642983
25 194328 626599
26 518813 509873
27 504203 797384
28 252441 620577
29 561600 737665
30 560886 549797
31 214222 672703
32 235920 101299
33 161840 59689
34 88818 599007
35 600435 486344
36 371660 677821
37 608398 545015
38 367963 588190
39 600667 543912
40 521526 797928
41 621471 503627
42 244916 685402
43 539783 706475
44 254918 626651
45 556455 789297
46 422705 823512
47 541039 669283
48 283114 743124
49 102148 678015
50 518623 717558
51 545601 550222
52 183766 109683
53 504858 760408
54 333093 671106
55 314899 663234
56 68912 615704
57 468850 772711
58 369291 710646
59 117127 139273
60 362953 726253
61 242744 753357
62 19423 68510
63 186130 548942
64 387739 671593
65 173849 21194
66 139570 47148
67 132699 696619
68 107754 596246
69 539341 800840
70 501330 764648
71 173501 24319
72 264090 704574
73 476991 444229
74 534776 410081
75 127378 36612
76 553581 527902
77 275202 646295
78 527902 805423
79 568549 537111
80 279004 681010
81 325543 675401
82 298078 676818
83 223929 634272
84 517655 803614
85 136138 633876
86 266420 678728
87 335387 683623
88 132694 574093
89 213315 661714
90 178863 149734
91 230133 593370
92 302095 664963
93 457733 494053
94 132949 646777
95 528345 435243
96 506133 524624
97 564390 759658
98 526365 819247
99 397104 787909
100 571171 518931
101 598862 422549
102 539702 497437
103 362728 627336
104 304810 692968
105 181274 105480
106 523761 790376
107 216333 708147
108 372895 690256
109 142373 609166
110 384132 751912
111 581213 502617
112 576495 810049
113 487383 900187
114 309430 658239
115 187697 106114
116 551899 828776
117 539660 458626
118 134052 43961
119 79574 117121
120 516505 813265
121 174881 81047
122 380043 681511
123 354518 722788
124 226750 16099
125 180844 674972
126 608108 565076
127 511796 502954
128 263444 648531
129 286293 644336
130 162200 633018
131 179975 88160
132 248348 627947
133 486571 509763
134 370364 714415
135 481091 734155
136 577349 766669
137 569764 511648
138 317929 639894
139 576014 505108
140 567506 556901
141 533156 496525
142 606626 526643
143 29137 642355
144 170682 62782
145 521543 787387
146 359058 653570
147 485446 721186
148 189727 110641
149 476747 783968
150 118114 10979
151 579190 783683
152 508233 848106
153 143111 91821
154 523273 478341
155 568325 477327
156 174471 555318
157 568602 509853
158 321941 728331
159 252970 592541
160 98846 668076
161 592472 552474
162 283037 601666
163 243655 679346
164 93299 59157
165 136545 75718
166 525194 528524
167 142437 650948
168 150445 664279
169 149083 626287
170 247953 637912
171 297153 750715
172 639696 578669
173 141892 679142
174 580137 453528
175 116760 604040
176 181155 163517
177 505614 504612
178 247868 622675
179 544711 498522
180 567556 546643
181 516504 894175
182 321578 673450
183 551255 790131
184 565358 454709
185 259065 652308
186 567361 507761
187 353190 680644
188 509389 823611
189 569716 511383
190 225296 178335
191 512246 515937
192 181561 98471
193 195579 658290
194 40569 123880
195 200497 67958
196 578964 832642
197 551444 473155
198 267324 602237
199 497614 726318
200 681442 523160
201 73666 618843
202 568457 773629
203 113565 133967
204 566648 843006
205 221945 28647
206 312838 627895
207 141478 1409
208 324628 672251
209 517121 490259
210 619353 486123
211 529048 810946
212 164747 1285
213 487226 774844
214 574229 533337
215 611134 505077
216 619716 456049
217 529000 750655
218 144248 594179
219 142683 77222
220 578912 792975
221 141949 84845
222 169396 674011
223 536447 555762
224 235585 88716
225 284497 682616
226 247062 686632
227 463242 884706
228 128109 99258
229 158894 683772
230 172860 138254
231 145045 582031
232 197843 90138
233 115993 106717
234 132922 60437
235 492708 493001
236 97511 25485
237 43612 145935
238 316429 609913
239 506568 864960
240 552079 522370
241 582588 854330
242 37233 119501
243 212085 716107
244 159141 612512
245 621047 493916
246 111441 685203
247 605219 541100
248 150572 119974
249 537618 687455
250 628652 506638
251 585161 793050
252 523172 512620
253 594690 465126
254 640774 533193
255 585368 518975
256 532562 867640
257 108989 44146
258 526633 794716
259 258125 -2503
260 571836 806259
261 532579 741529
262 571267 788667
263 556114 798155
264 502445 785235
265 506272 494309
266 537327 848484
267 601706 530139
268 502938 845512
269 550619 550214
270 548467 505929
271 213720 618095
272 213761 718023
273 139026 761670
274 157307 89167
275 150902 647224
276 70156 -7272
277 145978 744459
278 354661 663289
279 88900 86153
280 255952 661478
281 223319 713840
282 122840 13108
283 141230 624734
284 253850 687971
285 348330 666071
286 462113 797247
287 544923 477696
288 561167 563549
289 186520 622090
290 259013 673522
291 536006 441152
292 579489 481476
293 202373 125230
294 134078 100361
295 165709 615122
296 472513 778860
297 152418 66032
298 178871 578840
299 326440 615706
300 352521 767853
301 271349 703450
302 130676 630255
303 620813 785968
304 564919 474488
305 550187 405478
306 192882 91093
307 389264 613714
308 167402 9681
309 509780 487014
310 161721 637963
311 456501 453180
312 534337 464051
313 577149 390801
314 339037 637177
315 155917 112969
316 113419 569677
317 275210 659349
318 168064 678238
319 547299 800800
320 370330 627898
321 201108 598970
322 409117 690723
323 226114 626580
324 109230 3989
325 290989 648586
326 108645 647859
327 305020 704937
328 190814 47138
329 549006 765884
330 217042 185467
331 508990 766719
332 336017 708271
333 135022 87651
334 122625 -28031
335 265500 628261
336 546693 446069
337 570179 802377
338 327687 684647
339 564999 520060
340 158118 -15182
341 598849 454674
342 190337 664029
343 555230 836160
344 518204 716750
345 189451 651345
346 512270 464893
347 176361 103511
348 133570 598340
349 150013 101483
350 567622 528068
351 242349 657678
352 631511 774433
353 211983 720197
354 556736 816819
355 68647 612555
356 583406 489565
357 351147 595452
358 122863 616212
359 136497 35060
360 354771 664988
361 548179 757073
362 551622 822666
363 156215 89519
364 520744 882591
365 585946 762696
366 356160 700642
367 157481 687641
368 524491 535059
369 505706 794588
370 318112 680864
371 567235 479825
372 608948 761005
373 274223 645261
374 495891 764636
375 132974 634043
376 527869 826870
377 526717 524001
378 487341 798595
379 195673 660432
380 569839 781047
381 543255 749409
382 357570 667691
383 106590 509732
384 101593 590305
385 297048 686304
386 553234 528888
387 289624 746220
388 147101 652757
389 124654 51223
390 157559 47683
391 169445 52038
392 567728 804759
393 156817 40698
394 218887 661788
395 46088 34352
396 168296 61849
397 353769 709778
398 504913 830991
399 520968 412812
400 533995 469983
401 102377 566277
402 186482 715317
403 116765 125059
404 169319 587558
405 478828 819525
406 97200 68924
407 465969 530372
408 557769 824385
409 492509 818309
410 583110 797248
411 480343 784987
412 607975 778143
413 290180 739709
414 204510 633521
415 149970 168513
416 557996 587087
417 172959 627155
418 121938 21734
419 511375 805920
420 650307 773518
421 144999 88579
422 511848 749392
423 555297 849260
424 171443 687594
425 326075 584899
426 554708 542056
427 524684 564795
428 301587 671772
429 187464 158598
430 562335 843252
431 136300 90306
432 80801 64895
433 171616 605087
434 104129 61231
435 162370 687221
436 542757 408349
437 367145 669235
438 622065 743382
439 68926 97979
440 490382 714331
441 503449 828724
442 327901 626849
443 135766 619909
444 348266 666407
445 119059 92795
446 199739 660012
447 211817 693545
448 540502 545331
449 188785 635242
450 269251 665348
451 525547 443012
452 149030 121197
453 337969 639026
454 465853 826280
455 96949 75364
456 471296 713355
457 529432 748244
458 578221 714172
459 314730 671536
460 309157 628684
461 235359 660440
462 272681 697147
463 613190 463386
464 533369 572501
465 554242 802474
466 149403 596739
467 485498 780117
468 545108 445430
469 300629 624914
470 106565 33471
471 131771 89810
472 454751 853735
473 114221 592513
474 153948 139416
475 159039 98279
476 116417 61973
477 539734 811259
478 284610 593998
479 286906 595147
480 565936 808456
481 330545 674303
482 476706 814410
483 540851 598165
484 174226 636951
485 184162 637924
486 558805 792979
487 369235 714047
488 147095 637487
489 281445 721325
490 153912 611399
491 182716 33803
492 199266 711514
493 182003 657050
494 169433 638537
495 553862 460727
496 541351 566753
497 143872 118159
498 274829 640130
499 128143 -22066
500 133554 66003
