NAME : portcgen-1500-1506
COMMENT : portcgen N=1500, seed=1506
TYPE : TSP
DIMENSION : 1500
EDGE_WEIGHT_TYPE : EUC_2D
NODE_COORD_SECTION
1 458063 -23301
2 460349 830771
3 186082 174205
4 587325 834951
5 668851 595606
6 757749 366666
7 751298 403998
8 818210 920994
9 386748 315811
10 421610 190715
11 144753 119555
12 43202 97782
13 637643 553677
14 91152 919852
15 146555 656179
16 406851 6726
17 765179 383208
18 128406 708599
19 219103 495154
20 697327 401949
21 243042 509513
22 814413 909390
23 655816 601440
24 518245 822322
25 506837 849311
26 606897 637635
27 641458 577125
28 355600 -411
29 110451 924868
30 357787 321488
31 227149 481612
32 387722 203193
33 643190 551946
34 131091 690237
35 847645 864969
36 99235 984876
37 70390 957198
38 122375 752592
39 403667 15824
40 373055 8323
41 361234 207131
42 203182 153829
43 521723 883331
44 145141 993812
45 497184 346836
46 512818 348850
47 184343 184564
48 148600 944039
49 691034 558951
50 172383 181756
51 634343 833922
52 585884 819001
53 511801 861480
54 398886 188076
55 -1932 134809
56 -7376 52952
57 8215 83540
58 396637 210180
59 406053 3177
60 869676 900943
61 525415 864638
62 551347 799465
63 360304 158144
64 908087 889935
65 648967 610970
66 611253 902941
67 513664 820144
68 478966 857480
69 573855 832607
70 629741 595834
71 535470 873768
72 538989 813135
73 96344 723368
74 137819 727216
75 362142 7723
76 195041 462249
77 105792 973637
78 223570 481429
79 556763 822232
80 424764 -5887
81 387358 207402
82 485619 327495
83 537193 821483
84 24770 42622
85 437046 199315
86 1206 103520
87 825937 891957
88 177854 162784
89 524319 828595
90 486970 335526
91 573445 829042
92 190276 507880
93 508332 827544
94 14218 120186
95 489836 294562
96 742972 344499
97 620112 847435
98 106999 950397
99 469507 862647
100 746561 347291
101 348759 348854
102 70923 980710
103 630496 865786
104 524688 817547
105 352269 168497
106 664039 627037
107 377190 356090
108 457262 354590
109 494985 832963
110 747050 368637
111 189498 492231
112 382793 193845
113 515230 321931
114 220912 519506
115 379891 309136
116 71166 73588
117 507859 908355
118 378298 349258
119 465186 321104
120 63680 999532
121 380755 -34174
122 474384 779704
123 392531 336226
124 374557 333813
125 655603 569061
126 162608 191883
127 399632 363873
128 892238 899481
129 397343 352804
130 378711 -12211
131 588166 779675
132 537861 765571
133 901757 844493
134 364617 374632
135 199072 174485
136 18195 152071
137 348680 354331
138 394834 356560
139 628403 887482
140 487826 793334
141 504060 836132
142 734080 381666
143 180034 118670
144 214904 464921
145 867148 882554
146 197674 149447
147 401035 338907
148 131310 707963
149 772232 380930
150 432497 -37407
151 568304 797358
152 172306 186516
153 351249 210844
154 725363 389227
155 859898 958764
156 671859 560639
157 674136 600167
158 800801 435561
159 858948 904131
160 457648 309129
161 7970 134958
162 154564 672563
163 542582 849644
164 80332 953743
165 865357 887761
166 375302 204914
167 389926 229062
168 870559 867088
169 98973 1025975
170 740934 341896
171 641654 838066
172 740411 411678
173 879120 927940
174 139581 695362
175 639986 896484
176 144043 701186
177 338048 171624
178 236826 170129
179 402260 26530
180 5486 69139
181 777191 372599
182 161887 703986
183 -23365 85519
184 658217 620834
185 499364 339732
186 645265 620266
187 812277 924366
188 480691 336819
189 355553 325136
190 393604 179689
191 500419 356937
192 147656 716902
193 402832 376279
194 126000 193021
195 553398 775790
196 51213 933342
197 511634 816766
198 844902 894105
199 881124 938032
200 -16053 101662
201 470941 846919
202 470523 352002
203 57839 986476
204 1512 48992
205 207488 526041
206 499565 820583
207 542883 868817
208 736760 429861
209 630027 826717
210 164333 156942
211 153855 131823
212 792823 399272
213 467456 364449
214 681686 583332
215 495512 778406
216 529139 843739
217 498766 336464
218 715270 421050
219 160839 700066
220 -29864 83336
221 483024 808823
222 662087 580994
223 543079 842074
224 145593 675627
225 370076 305219
226 534363 825974
227 126975 144668
228 489903 310914
229 370979 310900
230 160032 746738
231 -5276 98513
232 374781 291816
233 607167 820038
234 753943 378529
235 584501 853445
236 864088 894535
237 460005 288610
238 833693 856185
239 226044 493702
240 6667 109949
241 148817 192600
242 530676 793255
243 491751 850448
244 727747 357276
245 472096 868924
246 397476 -9551
247 182929 497285
248 681361 605269
249 77986 993761
250 394134 9037
251 614037 860934
252 590350 811048
253 240443 521282
254 338902 294147
255 886950 943790
256 511608 830899
257 423548 321140
258 588023 840013
259 374505 220307
260 513281 847549
261 409480 338387
262 427336 292845
263 121168 690056
264 504315 308462
265 407053 200833
266 497227 895158
267 204138 737836
268 493336 324345
269 437244 307302
270 207579 504652
271 730989 354296
272 192519 487550
273 19746 125293
274 401624 158416
275 532772 761682
276 320460 28581
277 661082 568721
278 348782 180596
279 68316 977667
280 160218 697400
281 465386 343874
282 440864 318387
283 885798 928265
284 -36036 98520
285 497956 353513
286 179927 184711
287 504955 870844
288 20691 54554
289 364465 -7232
290 468331 857415
291 359833 177071
292 36601 125979
293 193997 194818
294 541736 794391
295 267623 490131
296 695231 542212
297 495970 313971
298 697554 567451
299 213432 525863
300 463424 307384
301 74486 981794
302 145371 667238
303 722569 364590
304 83115 943789
305 513827 330273
306 394555 214096
307 96441 665321
308 163495 969506
309 757931 359227
310 56537 131746
311 533088 820839
312 13439 133592
313 179387 714797
314 404648 341401
315 375663 301443
316 350788 201089
317 79333 971419
318 400412 26444
319 503645 353545
320 445038 241941
321 77504 946367
322 656988 600548
323 878380 884759
324 110164 933904
325 15696 108423
326 896454 895172
327 411287 -11867
328 665863 624175
329 520714 796783
330 124829 677286
331 -9145 139096
332 116949 1010679
333 901693 916533
334 556204 821776
335 394773 195702
336 237715 193955
337 1645 69103
338 41439 52770
339 865537 931047
340 69482 964757
341 533029 861794
342 235870 471695
343 845595 904836
344 448538 305360
345 170978 707585
346 26901 57049
347 631162 828910
348 111169 987638
349 126407 716775
350 517352 849725
351 393969 -28375
352 498053 873235
353 636135 831871
354 390794 192977
355 620580 603251
356 533205 784130
357 506717 867382
358 650431 636092
359 568074 810087
360 -10781 59939
361 395950 329511
362 627543 818742
363 173934 709020
364 385247 284787
365 200072 537329
366 107106 696771
367 214590 539568
368 753612 437646
369 533078 279816
370 501034 307050
371 357604 169640
372 422953 215657
373 54420 98950
374 880635 891356
375 401183 325225
376 247851 532202
377 193466 133393
378 721231 347007
379 416695 21750
380 491134 342142
381 393986 -8319
382 546717 793910
383 102632 922419
384 843484 904319
385 876280 895460
386 82038 959189
387 756296 404590
388 861770 910243
389 610816 803933
390 127771 693242
391 442085 328170
392 478927 855371
393 54705 959389
394 123470 532894
395 388592 162502
396 723 98638
397 141321 187592
398 111161 656925
399 421197 -26595
400 678020 620241
401 367516 208579
402 387227 169401
403 382704 323625
404 -22974 116492
405 208236 482521
406 72034 992717
407 498181 883017
408 141768 687912
409 417677 188575
410 504925 769792
411 503746 826555
412 514777 816053
413 521497 825714
414 122221 983914
415 499350 331595
416 590660 822611
417 112899 955606
418 891269 902300
419 897283 883571
420 386716 15549
421 803138 397457
422 352798 41689
423 67155 973661
424 88858 972766
425 74648 644235
426 494814 328796
427 481764 333948
428 132025 734328
429 512752 832885
430 567625 833349
431 743043 346405
432 84625 993998
433 503622 835978
434 361797 529
435 419817 329142
436 65996 974337
437 495366 806720
438 559807 763356
439 66243 1002691
440 416265 12744
441 410943 320363
442 342162 210805
443 653275 817391
444 673094 565998
445 160136 172237
446 405277 322021
447 186702 207220
448 451473 312368
449 470038 290131
450 642080 582367
451 573838 839154
452 105633 940535
453 62919 1030969
454 752505 408287
455 438982 162603
456 355860 290166
457 647969 842778
458 503083 886927
459 78609 996747
460 681789 625572
461 264103 483790
462 745721 380787
463 382601 358192
464 640506 603428
465 649471 857307
466 515300 881317
467 627856 788941
468 362804 401565
469 599527 858898
470 193944 546902
471 155738 708885
472 709657 381944
473 81817 986873
474 230450 480551
475 371447 149313
476 390849 180924
477 531750 827483
478 219701 488968
479 372369 -125
480 508568 826492
481 377024 -31544
482 351150 196027
483 -53143 94835
484 338947 195817
485 892785 917697
486 179974 734049
487 698731 541955
488 128788 958285
489 808214 375425
490 -11665 75022
491 502266 890801
492 231302 479075
493 59323 72536
494 129569 975396
495 529007 822519
496 544507 809912
497 535459 877027
498 414968 22273
499 200290 477276
500 793411 409134
501 671153 580264
502 32854 123877
503 380624 10957
504 884670 915548
505 527628 843255
506 225530 483030
507 768943 361104
508 336147 332687
509 645909 589061
510 387772 343139
511 529547 822629
512 391587 54987
513 718043 614591
514 397393 6460
515 449426 -4359
516 569978 719716
517 -32879 75027
518 229916 491153
519 180765 119217
520 82571 934038
521 561131 805004
522 754600 385122
523 136893 682053
524 531020 838779
525 516968 790144
526 118072 1011716
527 227353 456234
528 530016 823458
529 647845 648762
530 502182 382959
531 629703 559165
532 413174 30397
533 156681 142656
534 407658 301877
535 34769 104377
536 549517 843920
537 233907 203604
538 382267 347327
539 97573 958306
540 424956 -40236
541 400724 26444
542 479200 903763
543 225679 494544
544 375934 -12554
545 363194 199570
546 85961 944248
547 496558 851324
548 381805 195171
549 146571 194388
550 152328 181242
551 391029 87373
552 435999 2121
553 180463 682914
554 652641 590756
555 20433 113706
556 137342 984751
557 810979 360789
558 630675 594090
559 369597 150676
560 411415 148576
561 149921 176425
562 343169 151812
563 389215 27367
564 491729 268314
565 3780 100688
566 96367 991010
567 855625 914772
568 13377 118661
569 575785 810082
570 -9052 135492
571 216280 493957
572 389466 17373
573 366899 29123
574 762537 412554
575 449898 183668
576 715587 419410
577 144937 204200
578 -15246 129949
579 878337 889300
580 133652 721357
581 185676 521001
582 484494 882486
583 513200 353197
584 527316 864014
585 429798 229371
586 640674 803037
587 156806 124596
588 192822 198195
589 80766 71424
590 103692 669182
591 186076 169868
592 102106 686012
593 86312 957938
594 469958 335044
595 670477 564108
596 386279 50201
597 160236 471498
598 612673 865483
599 107354 709502
600 486537 287972
601 453552 347788
602 193429 514880
603 491125 367242
604 373388 314206
605 120078 161894
606 722443 390838
607 161328 173968
608 500344 356018
609 53595 81326
610 902246 897778
611 410979 332333
612 117699 738045
613 118059 981750
614 672198 552750
615 478194 339326
616 -7891 104477
617 734373 383762
618 609947 843818
619 718100 374913
620 388128 22870
621 654742 855352
622 163612 142000
623 444419 -46163
624 175132 186990
625 640653 824307
626 210740 526818
627 875239 884398
628 375823 -94218
629 20107 78593
630 42088 1010244
631 498167 855642
632 696120 361387
633 540029 830022
634 1115 99563
635 147285 707011
636 384375 145212
637 667375 639511
638 655664 600489
639 140571 169907
640 216382 523804
641 82533 116412
642 874356 894478
643 177069 741891
644 136362 146127
645 714099 384390
646 697716 575669
647 433779 313151
648 485864 369730
649 -20165 78155
650 -16345 96739
651 638112 859039
652 63809 956373
653 2785 89826
654 22873 943345
655 397908 325655
656 741634 420357
657 458872 829635
658 496373 799982
659 236678 492663
660 158152 130669
661 387789 236999
662 105911 707894
663 626800 570851
664 364225 326301
665 592495 784551
666 180901 182033
667 400788 -28434
668 169262 501118
669 496909 858986
670 111659 685411
671 103016 939361
672 391079 339552
673 598512 818669
674 481046 337778
675 23990 61963
676 538236 817454
677 589404 852994
678 181489 539969
679 635299 542665
680 375563 -8377
681 10587 105927
682 21705 74396
683 641433 589904
684 622508 841939
685 456463 371626
686 87269 956188
687 405882 335996
688 31450 59110
689 495732 853137
690 762228 390711
691 409431 38238
692 655172 573846
693 208749 469172
694 538765 843380
695 128950 930945
696 602303 813764
697 467891 344320
698 79219 996464
699 895357 908850
700 679249 595436
701 483590 326997
702 392740 359885
703 241080 488418
704 118153 991738
705 395838 -1922
706 657835 557404
707 149933 170975
708 846346 906809
709 530804 823838
710 444259 -9853
711 527524 330312
712 543911 834392
713 328017 194743
714 556495 809446
715 361780 220861
716 370540 342129
717 130750 957918
718 550274 833417
719 133383 703313
720 569770 757389
721 372329 23165
722 477219 801667
723 611499 826113
724 470344 319135
725 596408 858382
726 211878 436046
727 385498 208290
728 543447 822487
729 769686 363213
730 41206 97948
731 759607 345123
732 671328 574204
733 377018 2593
734 504818 802244
735 134019 934762
736 81143 940841
737 207353 500000
738 506922 831503
739 448292 6654
740 758254 393679
741 20414 107655
742 102845 949706
743 362632 187552
744 213775 470049
745 656207 571774
746 550857 851080
747 508258 791245
748 201912 498737
749 565653 800891
750 614984 817158
751 530457 830161
752 42949 58309
753 623156 850181
754 383877 172522
755 492146 899535
756 443591 333796
757 399947 159606
758 179219 179652
759 8515 86541
760 593385 819658
761 855618 884985
762 481303 379409
763 124891 717672
764 857861 952652
765 206609 674598
766 765640 387801
767 511218 872130
768 460113 14088
769 212648 511138
770 148003 193126
771 835259 882949
772 591116 845986
773 -4397 118462
774 355344 158497
775 473428 279504
776 525021 864647
777 616920 840979
778 94378 692784
779 2918 116481
780 795098 415985
781 612739 599475
782 524496 804825
783 594558 827710
784 405945 315428
785 702092 605401
786 697266 324900
787 160983 706604
788 197203 520776
789 432593 309945
790 21053 90575
791 -11852 102451
792 843353 909930
793 144147 712424
794 883905 851662
795 93364 1007562
796 756327 405525
797 545797 777442
798 219997 479750
799 438726 13751
800 146080 150125
801 621916 566349
802 712441 579317
803 182077 189100
804 87388 978643
805 658082 864711
806 180177 162502
807 145233 714500
808 386945 66589
809 389324 336892
810 544489 812850
811 164368 664261
812 -9776 144838
813 149011 196992
814 674630 535118
815 479569 791197
816 429323 145571
817 449393 816699
818 172886 168941
819 399310 355023
820 130249 979029
821 210423 466983
822 419783 328861
823 897651 910495
824 834159 865531
825 513250 807089
826 771974 386779
827 612161 665829
828 334345 201330
829 642573 574100
830 171927 720560
831 630237 603227
832 176243 174476
833 12941 109671
834 852387 910629
835 390265 369538
836 738551 400278
837 380357 290517
838 819389 867877
839 402402 4542
840 383078 34429
841 -28041 79713
842 479100 334206
843 104215 934226
844 876668 913444
845 594064 882673
846 401217 16382
847 432504 176400
848 507419 861734
849 425341 8650
850 733 51689
851 560221 830290
852 664662 611905
853 397874 -31247
854 394732 121115
855 648997 584617
856 611316 614637
857 355786 320871
858 479763 340548
859 521021 826468
860 156230 137665
861 537404 819163
862 630222 808970
863 552862 817432
864 501512 832693
865 172422 469597
866 378205 203483
867 118749 942781
868 383632 203235
869 215080 497814
870 234086 504478
871 592221 905639
872 662153 570283
873 608406 865336
874 193183 508207
875 363123 -3956
876 148534 671772
877 409045 290065
878 495318 320327
879 352782 200584
880 348178 204759
881 391842 8926
882 663571 555131
883 510474 816812
884 135218 938871
885 185436 147579
886 353126 149083
887 202692 500706
888 621903 922947
889 743021 406587
890 52356 115188
891 776099 399004
892 542419 802872
893 385248 322996
894 536680 862178
895 629965 851013
896 398515 -11695
897 505228 350268
898 -29495 116821
899 609090 833770
900 380581 150558
901 545254 823764
902 62233 980760
903 154981 1007918
904 461057 364584
905 428564 338877
906 202013 479982
907 674713 593381
908 868911 896972
909 453999 352790
910 30809 95635
911 638048 570007
912 549621 815275
913 558344 819194
914 8797 75529
915 716707 584634
916 869369 937586
917 507322 750242
918 126798 659912
919 19589 35136
920 546503 798864
921 198789 514249
922 539332 834744
923 422945 379268
924 609073 858200
925 723236 391809
926 675969 605714
927 861869 923536
928 106083 710484
929 752398 382202
930 535129 827711
931 368840 164668
932 432547 329855
933 422804 310711
934 594005 870139
935 176452 156328
936 389775 220666
937 149361 683522
938 16648 120671
939 509186 344672
940 378083 324392
941 530285 774682
942 362268 18979
943 391793 326937
944 820935 901062
945 371282 370928
946 369164 212222
947 738275 394272
948 22106 68674
949 121167 956112
950 145193 667443
951 385758 53539
952 413454 203918
953 868559 880753
954 350429 36568
955 479637 295446
956 34032 83691
957 691402 559438
958 109781 964512
959 715533 380880
960 601421 547223
961 834693 852437
962 470112 365187
963 160077 648773
964 385041 220651
965 401459 184759
966 178237 474259
967 500909 828709
968 182665 650553
969 118784 720740
970 477577 352477
971 344324 215906
972 237346 495722
973 857674 891546
974 241958 471721
975 166608 171266
976 355717 181506
977 152547 111024
978 536835 800467
979 488187 816445
980 662196 539892
981 115577 971244
982 514231 854433
983 503077 831915
984 376570 6894
985 391874 298637
986 127086 987866
987 643186 798543
988 554085 823162
989 364858 26502
990 702313 532557
991 768608 358310
992 -11009 86956
993 744475 436609
994 155929 193814
995 438831 369486
996 766190 380719
997 133804 944293
998 426476 296113
999 590997 770706
1000 179307 216270
1001 474533 833085
1002 427852 7303
1003 203681 493041
1004 769554 399388
1005 93278 938222
1006 359011 11457
1007 769578 407055
1008 630772 857973
1009 15777 108012
1010 193548 469956
1011 496560 808641
1012 580126 830664
1013 396525 135268
1014 851830 879527
1015 756151 450188
1016 430469 337477
1017 101118 996555
1018 613773 802360
1019 563841 851797
1020 500482 349930
1021 411466 373755
1022 513650 854206
1023 777261 371593
1024 875017 918700
1025 785330 385879
1026 374039 146050
1027 508584 898094
1028 478276 352840
1029 876603 873264
1030 80542 981906
1031 117816 146474
1032 -10944 45594
1033 512488 804060
1034 422169 340482
1035 29397 137154
1036 150889 183560
1037 53423 85981
1038 663446 597628
1039 192283 113617
1040 633424 841192
1041 167046 658655
1042 335140 185232
1043 213326 493140
1044 329482 -44968
1045 179526 508236
1046 176029 159204
1047 120208 974398
1048 455 86915
1049 649160 583744
1050 372020 181655
1051 505851 865951
1052 503322 789624
1053 505602 854680
1054 126193 210555
1055 612832 841939
1056 734654 413325
1057 139449 174474
1058 -9192 72134
1059 604515 577056
1060 623211 596363
1061 96884 137166
1062 473121 319398
1063 852776 875552
1064 380170 369350
1065 515151 837284
1066 185890 186250
1067 108367 675381
1068 674739 569754
1069 756523 398105
1070 731428 349089
1071 144153 990096
1072 105325 979325
1073 627629 821832
1074 163909 696076
1075 225923 183949
1076 818235 861969
1077 -30590 128395
1078 804440 335569
1079 707605 419901
1080 493026 300891
1081 399557 354286
1082 348955 15637
1083 676541 590134
1084 410312 -31019
1085 612574 847022
1086 532225 815243
1087 423005 215701
1088 624946 836674
1089 434024 -33270
1090 492941 323145
1091 179286 149365
1092 401501 315087
1093 135696 661383
1094 541925 860977
1095 17558 77597
1096 382191 -20945
1097 220202 475259
1098 881817 895222
1099 616139 580263
1100 225463 491536
1101 374065 190801
1102 479085 862475
1103 629291 841657
1104 42965 83826
1105 77660 980117
1106 21263 77121
1107 158464 729437
1108 554972 828957
1109 803364 375475
1110 334825 198924
1111 394233 -4607
1112 855282 943940
1113 550093 832442
1114 155617 703801
1115 627047 593252
1116 779168 352029
1117 376490 -8073
1118 114657 977834
1119 613096 827854
1120 653298 578198
1121 788488 392991
1122 512637 307558
1123 -6058 89161
1124 364550 385877
1125 180390 533434
1126 395891 339389
1127 503929 341866
1128 754517 441921
1129 391821 53395
1130 748581 418153
1131 551033 766871
1132 669689 578123
1133 636627 596600
1134 395884 178337
1135 387244 155415
1136 638144 859614
1137 336691 357968
1138 145668 730852
1139 458777 289436
1140 194941 179873
1141 484226 361092
1142 504495 342455
1143 351915 350337
1144 541176 775220
1145 146360 954838
1146 470836 316372
1147 407958 368428
1148 549325 858172
1149 368291 298607
1150 473896 335749
1151 164539 179850
1152 477754 846458
1153 232681 475952
1154 201870 436539
1155 389193 -33301
1156 66462 993727
1157 558165 811521
1158 195084 495802
1159 16347 73939
1160 607122 880881
1161 49998 81792
1162 612580 829498
1163 119203 120947
1164 401928 327514
1165 398782 48245
1166 190070 201391
1167 120196 698310
1168 430294 321053
1169 393400 323981
1170 157920 709574
1171 5845 124339
1172 480827 289818
1173 424826 343616
1174 139500 709452
1175 399133 30534
1176 754942 387391
1177 692561 348718
1178 442667 365579
1179 62107 991144
1180 220861 497945
1181 676118 579665
1182 481065 361968
1183 189546 489640
1184 108369 991421
1185 655624 569470
1186 104001 1009993
1187 378811 50334
1188 578481 770652
1189 579493 793584
1190 618509 877994
1191 368823 328077
1192 16416 93647
1193 617694 817560
1194 194836 702511
1195 656231 622334
1196 552719 782289
1197 414738 329803
1198 509143 321517
1199 631638 894208
1200 -3274 82634
1201 482570 315617
1202 98764 950442
1203 636340 849839
1204 423625 201527
1205 34945 1010542
1206 158022 183130
1207 385507 357179
1208 180057 203298
1209 106868 980357
1210 677143 564107
1211 698572 569997
1212 68728 979360
1213 560614 806166
1214 109811 981264
1215 66641 970649
1216 895420 871613
1217 844847 857569
1218 388966 170641
1219 100688 988229
1220 452506 364844
1221 655515 608906
1222 882185 911034
1223 387358 -1811
1224 641778 868014
1225 796550 408019
1226 513477 824673
1227 176918 710741
1228 205865 542381
1229 885380 931407
1230 138393 667186
1231 28336 84304
1232 500882 817121
1233 199640 477261
1234 201432 432763
1235 -19188 79111
1236 680629 612435
1237 61476 952297
1238 57074 994414
1239 137847 175431
1240 384935 225250
1241 217203 136819
1242 115970 1016064
1243 212322 549951
1244 151177 514413
1245 508487 339858
1246 618830 828581
1247 422101 390975
1248 417842 254936
1249 401199 374164
1250 308801 194964
1251 622243 596996
1252 211942 511546
1253 -25359 113455
1254 471743 893513
1255 885083 955080
1256 375305 218477
1257 11029 27278
1258 869358 892298
1259 505190 857534
1260 633261 538249
1261 151701 671118
1262 434700 37805
1263 862951 897048
1264 410932 10184
1265 554141 812828
1266 699356 364511
1267 71530 988935
1268 410725 202846
1269 392832 -13795
1270 638904 891328
1271 730025 424076
1272 -1590 67558
1273 474102 347285
1274 275765 461813
1275 380180 27078
1276 358905 -18591
1277 13507 114752
1278 359927 189470
1279 485820 804365
1280 175086 434283
1281 210322 458233
1282 65628 75945
1283 395424 6304
1284 378759 27326
1285 707242 405220
1286 849721 919247
1287 384293 174950
1288 649175 607506
1289 443077 833733
1290 834032 334051
1291 416521 361643
1292 391207 382220
1293 513894 899306
1294 801995 388155
1295 -29007 34486
1296 183603 702932
1297 688541 557994
1298 742467 369165
1299 493584 818685
1300 129406 975097
1301 632040 600791
1302 212557 530666
1303 525355 894733
1304 628159 611010
1305 119795 697156
1306 586552 826911
1307 380934 239053
1308 426261 17421
1309 628174 586883
1310 745136 447483
1311 489221 884103
1312 567802 794236
1313 523033 805245
1314 657238 798004
1315 218803 560610
1316 164466 741428
1317 449220 292262
1318 586227 801077
1319 575017 822490
1320 654641 594398
1321 107190 962257
1322 867461 935804
1323 218872 488009
1324 138152 149135
1325 595236 853205
1326 859903 890968
1327 526034 792794
1328 429000 21509
1329 875405 930578
1330 650015 847453
1331 526225 831199
1332 495569 839327
1333 704039 426487
1334 710303 393355
1335 500455 300819
1336 471228 291944
1337 650093 593088
1338 639392 583582
1339 88554 961906
1340 20136 130293
1341 885701 954386
1342 366450 337480
1343 672483 669479
1344 687665 385642
1345 371284 357416
1346 589295 822477
1347 103100 976918
1348 -57515 51698
1349 215975 500662
1350 41116 87801
1351 103396 939061
1352 33161 68501
1353 209334 487310
1354 144088 682246
1355 726622 433739
1356 573475 860851
1357 182111 111585
1358 556176 788104
1359 -2212 90839
1360 541941 838982
1361 331677 315930
1362 722883 400811
1363 891187 904421
1364 630592 572634
1365 727150 374644
1366 521260 790275
1367 640702 558963
1368 201057 163886
1369 184896 108119
1370 370067 29536
1371 534753 840435
1372 135238 147935
1373 587584 858385
1374 550299 804574
1375 366347 157668
1376 210380 673185
1377 213199 184842
1378 111969 963008
1379 383252 346332
1380 369412 361686
1381 130727 966459
1382 668806 578508
1383 35409 115180
1384 869761 899563
1385 351333 199928
1386 13098 93707
1387 772469 379997
1388 -24535 85853
1389 580833 806040
1390 175236 676306
1391 116880 174374
1392 377757 1937
1393 910076 946943
1394 123768 678478
1395 144238 153652
1396 492258 345633
1397 851181 910186
1398 83760 961617
1399 354930 -44764
1400 30939 87062
1401 53099 977096
1402 221535 492091
1403 189312 169015
1404 357180 201100
1405 870350 900608
1406 523272 853914
1407 -46760 79062
1408 382617 182149
1409 516030 863938
1410 608235 826249
1411 353462 342865
1412 538004 857390
1413 748401 420687
1414 497272 318807
1415 904249 929375
1416 521896 791400
1417 648643 618212
1418 174708 173090
1419 7871 140957
1420 69192 964331
1421 169498 140621
1422 417529 348009
1423 152152 677748
1424 849759 878949
1425 830997 892974
1426 677847 635266
1427 663523 583987
1428 175598 122420
1429 422502 218884
1430 166819 451398
1431 73543 996216
1432 172706 158572
1433 747132 392341
1434 700662 413768
1435 386006 363354
1436 223213 540800
1437 361645 217118
1438 230039 514975
1439 782351 380055
1440 499814 821372
1441 479871 313484
1442 93918 705665
1443 -10245 68525
1444 163546 494276
1445 525360 862741
1446 417157 322234
1447 699491 587732
1448 345596 319063
1449 207318 492737
1450 240419 499511
1451 412568 -45947
1452 591830 878656
1453 370247 -30145
1454 156557 170480
1455 225075 481408
1456 116585 699024
1457 397598 202727
1458 261038 442455
1459 845206 986135
1460 517878 805125
1461 725640 404309
1462 161226 164528
1463 494859 341205
1464 95451 1030429
1465 684663 570759
1466 871032 929636
1467 387631 34791
1468 379673 178969
1469 290738 495416
1470 197805 490570
1471 467523 261313
1472 468293 397100
1473 418983 34776
1474 691055 614823
1475 516983 823382
1476 635887 797046
1477 489876 819675
1478 688546 586304
1479 741976 397567
1480 455442 808155
1481 383144 5664
1482 387194 311574
1483 753766 440196
1484 464445 864986
1485 348839 360906
1486 82879 948300
1487 173503 159458
1488 54783 965290
1489 768023 352235
1490 342379 228432
1491 858033 876937
1492 509883 361494
1493 26391 83258
1494 458834 302883
1495 416490 50552
1496 675413 598813
1497 163307 733629
1498 135907 693356
1499 385887 355771
1500 154248 723223
