NAME : portcgen-1200-1206
COMMENT : portcgen N=1200, seed=1206
TYPE : TSP
DIMENSION : 1200
EDGE_WEIGHT_TYPE : EUC_2D
NODE_COORD_SECTION
1 157826 681055
2 298915 397459
3 961257 33712
4 183422 935849
5 909366 96727
6 920060 398711
7 163535 878861
8 68220 600446
9 86518 463958
10 180817 681859
11 826708 606278
12 859765 534650
13 166132 907984
14 173464 898695
15 342247 424413
16 134276 736800
17 115548 499777
18 280020 418171
19 836931 589506
20 367359 661509
21 194030 792025
22 965511 -8946
23 134185 958326
24 883874 103495
25 305533 428096
26 14535 585398
27 133737 859089
28 203152 914889
29 863046 610240
30 963915 57100
31 135449 478450
32 192127 883782
33 209514 653607
34 44048 493606
35 842525 523565
36 191718 758877
37 977622 135392
38 56328 643113
39 187093 686919
40 346577 468726
41 355022 646034
42 341898 414848
43 72970 588691
44 175891 896616
45 808634 575262
46 393605 613258
47 925940 16706
48 74373 486294
49 968544 123917
50 972519 64733
51 969114 96832
52 195147 686146
53 182292 733154
54 949926 91281
55 245169 739081
56 296015 395146
57 185179 841994
58 953633 385157
59 945044 358621
60 164064 726105
61 416024 694245
62 42081 573094
63 871807 606527
64 38201 599172
65 2532 591093
66 117549 598827
67 858419 643302
68 331949 434310
69 234642 736857
70 281273 491744
71 153943 781748
72 400740 672920
73 179167 764776
74 981424 4750
75 320593 426895
76 916543 534795
77 237891 1006700
78 362521 720298
79 822950 639772
80 104265 468409
81 1039502 75630
82 861590 576240
83 279876 422175
84 390149 659372
85 53040 529480
86 989417 43046
87 158200 914185
88 880736 553243
89 45641 497291
90 179641 973204
91 302207 412603
92 996142 74811
93 954907 34722
94 176279 973664
95 335017 423480
96 187665 880228
97 152684 848233
98 812751 569618
99 311083 430544
100 41137 501267
101 157849 525969
102 821630 586888
103 852312 570023
104 967668 61778
105 382575 440983
106 74625 592043
107 144352 912144
108 90066 571928
109 82678 459062
110 254710 439918
111 336329 425363
112 408610 648942
113 76776 501485
114 812839 545095
115 906612 396640
116 950568 92892
117 372444 445497
118 983027 52167
119 308681 439257
120 910526 401709
121 408773 685957
122 163880 679007
123 372085 408394
124 53421 587730
125 95075 606546
126 114333 596603
127 851683 544596
128 289323 412336
129 189807 914285
130 237358 705239
131 112970 515193
132 144023 870089
133 341978 417401
134 36491 576317
135 216871 904692
136 201354 969837
137 957700 62169
138 936929 378544
139 199794 834776
140 980724 37323
141 952335 374163
142 930341 27755
143 176730 706666
144 299107 453773
145 333892 394331
146 181277 717485
147 347660 384764
148 57747 609453
149 821704 541882
150 142876 857645
151 249454 747635
152 987159 71608
153 975856 55616
154 983656 38492
155 955753 58606
156 169587 736045
157 938158 77449
158 969446 8797
159 359886 671536
160 942242 56626
161 879152 550551
162 198178 720402
163 141636 487253
164 914794 91338
165 156868 958150
166 79172 576862
167 97892 876270
168 193221 936353
169 67634 443278
170 964162 338960
171 58960 536059
172 336139 429440
173 288620 396916
174 385159 657248
175 969938 121442
176 891564 616392
177 62323 539925
178 81785 531930
179 192456 917401
180 280194 476049
181 407324 645619
182 72540 474639
183 975300 92172
184 323642 441634
185 171207 906195
186 249473 897000
187 933838 86946
188 183284 913882
189 170038 731547
190 385207 659203
191 881468 582604
192 861313 631158
193 312020 425950
194 844957 525222
195 384090 654859
196 333528 403221
197 356463 466961
198 357924 605474
199 959539 373459
200 63352 553964
201 289661 422928
202 907329 338289
203 83027 601272
204 269329 440291
205 934110 27006
206 192593 876257
207 818311 608965
208 884306 529409
209 876082 587387
210 126468 519200
211 181185 930972
212 355268 404785
213 240410 716058
214 128212 488408
215 124139 469344
216 952083 86052
217 93035 595975
218 1017577 61411
219 934781 363308
220 933784 100356
221 198270 914303
222 56881 589972
223 108714 516118
224 157296 812058
225 246986 939142
226 127303 737149
227 964887 87515
228 185793 949297
229 70224 617032
230 134058 755537
231 117007 534971
232 80453 480059
233 807511 529423
234 245286 940059
235 963077 109587
236 333512 482737
237 71672 490327
238 105144 497264
239 977664 385141
240 937301 77403
241 89141 460516
242 387138 665528
243 963984 405741
244 339068 430470
245 961268 415173
246 207704 907961
247 191634 922875
248 199037 766240
249 135632 610483
250 91504 481266
251 275898 414482
252 423521 630105
253 833069 587120
254 792838 575740
255 370906 647974
256 173889 725726
257 241679 903086
258 113640 523472
259 100629 493576
260 243594 971739
261 359853 662411
262 932311 28497
263 60890 624475
264 86176 468594
265 303588 408678
266 98533 642947
267 172048 911078
268 210083 780558
269 299583 468246
270 40718 644030
271 978512 24912
272 175896 701006
273 841140 553858
274 256940 420839
275 975175 82659
276 150876 928789
277 452695 691390
278 835007 570605
279 145622 502374
280 335742 389889
281 80454 500441
282 144945 962590
283 941804 59587
284 912812 366876
285 169869 944501
286 88149 470142
287 166906 973735
288 372780 679138
289 320959 413125
290 335499 412984
291 926160 342131
292 908201 662
293 213755 961893
294 163691 857047
295 964148 16455
296 427803 673873
297 251487 934582
298 979315 17118
299 237569 861791
300 851202 643421
301 817497 493720
302 353928 418387
303 366363 664835
304 408052 693070
305 357473 415066
306 81203 586277
307 175026 935504
308 949809 65670
309 383833 664680
310 184177 726203
311 975686 69640
312 25584 601878
313 180419 941004
314 426813 670051
315 948702 102969
316 319562 433913
317 332272 385357
318 113209 513011
319 985404 54412
320 296457 477704
321 125452 858791
322 340350 409346
323 200912 770546
324 216037 925267
325 136041 841599
326 980539 70773
327 308961 416784
328 190328 859150
329 931084 33454
330 934210 359578
331 821971 568083
332 389543 430459
333 914940 -16947
334 83197 618164
335 177747 728368
336 992985 86758
337 972496 388771
338 924472 355727
339 972951 13333
340 863571 538761
341 887822 574717
342 213019 677945
343 28262 566283
344 850944 560138
345 962784 112556
346 205864 957709
347 333005 413259
348 190739 931605
349 111493 550969
350 94913 491680
351 81235 624925
352 938726 344212
353 839420 571514
354 81701 492065
355 110995 495377
356 988211 73757
357 72563 575070
358 105429 616106
359 215057 985358
360 177244 726265
361 959262 17620
362 354611 381200
363 975298 69306
364 984234 37690
365 394080 703634
366 855261 628123
367 984290 94257
368 910909 389626
369 859482 589307
370 171650 659929
371 923875 375765
372 343591 429551
373 923498 337801
374 368404 408654
375 301088 423255
376 79571 617470
377 351376 424250
378 162401 723465
379 401531 468336
380 839890 573180
381 1012001 33912
382 318350 356289
383 908198 360732
384 919474 88787
385 950567 363098
386 111008 598187
387 157090 933591
388 978857 44765
389 818625 595082
390 41883 507919
391 365932 727806
392 3698 622858
393 972011 447203
394 954563 7020
395 941446 58594
396 171439 879376
397 173098 941481
398 928914 406566
399 979270 72567
400 251271 400222
401 957891 84543
402 118403 486122
403 392373 607178
404 914121 107792
405 416008 673865
406 1005950 402321
407 183815 782030
408 189449 940126
409 60298 580952
410 187877 911389
411 371735 625088
412 174547 935471
413 173644 941963
414 168536 719011
415 883028 601851
416 190024 960163
417 854937 622424
418 364883 369016
419 235436 749000
420 123201 477874
421 393486 381817
422 355012 684026
423 956859 394195
424 881594 1474
425 866356 549230
426 211702 730611
427 170397 917883
428 975852 61801
429 365510 682408
430 43874 580117
431 83949 625472
432 979919 18559
433 71040 574163
434 964466 23706
435 364760 664195
436 241606 708732
437 66040 617049
438 128019 944792
439 323887 485596
440 986320 164669
441 290935 474519
442 989504 85307
443 943419 111167
444 376876 413039
445 418012 667308
446 830910 532321
447 942147 26637
448 285996 389110
449 351142 436442
450 809445 615528
451 356619 646569
452 402153 627165
453 340820 389176
454 202755 702560
455 31711 466975
456 172603 881372
457 937439 90424
458 147581 491757
459 345128 396728
460 159367 963510
461 960907 91023
462 937628 365992
463 164578 994092
464 110971 540835
465 335090 422071
466 165627 853545
467 73799 611197
468 294957 957998
469 102076 512816
470 188755 876550
471 142238 477657
472 153512 856505
473 989760 66068
474 67675 526202
475 147346 511790
476 164311 742787
477 317811 436697
478 926384 109355
479 70993 620793
480 188334 906646
481 127287 523887
482 938059 19660
483 961899 32723
484 860375 582217
485 296658 442258
486 196282 900778
487 142178 474758
488 302338 455450
489 846571 604281
490 960010 81947
491 465185 698521
492 950977 102005
493 952096 59362
494 883766 633304
495 200322 913139
496 963278 -20346
497 144559 480095
498 990827 386374
499 377734 720991
500 1007973 76996
501 965923 413428
502 31694 576683
503 184847 684011
504 -2738 582069
505 976113 34968
506 847506 597904
507 911864 404044
508 908392 380690
509 194321 873287
510 170064 680768
511 298354 396807
512 139881 852170
513 116536 851757
514 292688 434066
515 922129 70901
516 879769 587303
517 127624 769536
518 257395 472285
519 945779 112790
520 294704 464594
521 46849 599595
522 343173 413910
523 244826 745864
524 170369 906998
525 69031 560906
526 864274 581514
527 84609 471955
528 139313 478395
529 282995 473965
530 89118 620158
531 987816 56857
532 1012390 55328
533 236151 893308
534 954267 86767
535 195682 759215
536 956735 93397
537 116379 484027
538 411832 683485
539 384315 704111
540 129875 931244
541 924088 397469
542 169602 744060
543 376408 703233
544 186023 954807
545 218940 730671
546 203521 905892
547 978923 132765
548 914156 113511
549 46526 567545
550 323457 433630
551 263203 418566
552 1012595 84425
553 98218 642733
554 338161 405720
555 834259 584517
556 834259 593163
557 952815 352195
558 166635 913769
559 43883 578242
560 833167 582866
561 956790 382479
562 944202 102498
563 386047 663128
564 315362 481231
565 815459 569047
566 386723 658595
567 192279 852561
568 358952 413546
569 283769 459188
570 945228 98590
571 352226 485250
572 374384 607626
573 340324 446470
574 855408 548863
575 173108 856890
576 36498 513257
577 863461 592649
578 40491 499582
579 210461 956510
580 793027 549902
581 981013 73805
582 949357 85584
583 310441 425212
584 187290 866382
585 289338 464770
586 951060 53185
587 164684 723819
588 947129 399370
589 187389 901065
590 291755 406533
591 418732 692628
592 845354 611503
593 881308 584373
594 306187 407571
595 219310 918703
596 156634 988124
597 83605 452340
598 76248 629536
599 61000 499596
600 58661 639744
601 107772 529683
602 1001340 59430
603 214124 888737
604 1044109 45032
605 202763 723956
606 925494 95539
607 994012 18933
608 977470 81836
609 959100 87563
610 145194 472718
611 950269 38842
612 134320 900697
613 949450 386410
614 155379 874868
615 823283 571630
616 982028 440590
617 983566 93522
618 191322 930681
619 351367 386918
620 853876 536926
621 121543 452795
622 80034 469208
623 954497 50198
624 36524 531315
625 403453 654535
626 961782 26290
627 332254 410383
628 341622 372812
629 833369 640068
630 354328 363640
631 309339 439963
632 63740 637207
633 43010 611576
634 296870 400546
635 160795 750638
636 956748 112292
637 98049 458714
638 155934 881854
639 1040006 11629
640 115237 512130
641 258328 490984
642 973594 518
643 131995 921121
644 941696 407382
645 970181 59736
646 315617 433975
647 84479 488493
648 820211 603380
649 426225 679540
650 317810 478653
651 122107 420759
652 302127 447764
653 196910 941939
654 831191 618188
655 351737 447318
656 187286 865516
657 385300 414684
658 34656 440543
659 83031 505667
660 926543 397070
661 92268 620933
662 1012562 16268
663 391200 654709
664 380438 688432
665 967886 105464
666 333572 444421
667 978201 69659
668 189234 941909
669 432837 687686
670 973799 389888
671 855145 573440
672 368648 670451
673 177088 852964
674 272800 450667
675 935434 383198
676 177588 945735
677 382967 410158
678 205781 927729
679 359704 455307
680 167936 903988
681 63024 612894
682 145481 913226
683 163510 950780
684 898906 597682
685 238105 936555
686 915150 354023
687 811037 576306
688 177587 885798
689 953902 14363
690 835841 578082
691 398634 647868
692 121615 478599
693 69265 638555
694 215787 911880
695 104942 907898
696 214420 881107
697 198563 683212
698 160052 866922
699 901325 72926
700 417748 689688
701 356449 407559
702 162532 758586
703 201351 895286
704 118984 494792
705 175229 720849
706 368280 407847
707 923500 405035
708 953753 57629
709 842280 639318
710 145515 898352
711 393310 678104
712 842607 595695
713 857089 551197
714 72249 503565
715 122006 515949
716 191687 734044
717 1006207 84177
718 861772 598822
719 334165 483208
720 83690 588405
721 828303 539376
722 15827 588803
723 181292 707086
724 400278 689421
725 847513 585118
726 53418 546709
727 187320 908447
728 166491 872209
729 151444 686560
730 350896 390782
731 164608 680382
732 942740 98595
733 280161 394386
734 331259 463716
735 204449 909657
736 400270 674028
737 987931 37171
738 974670 59761
739 418015 669777
740 188191 853194
741 951583 39159
742 852877 606913
743 392529 634609
744 276458 490986
745 939232 56454
746 874479 595640
747 891749 33576
748 937172 446957
749 955337 319688
750 122700 455682
751 314805 429686
752 65569 602205
753 915060 375165
754 982237 371275
755 425325 664779
756 121632 482822
757 352802 428384
758 20877 581556
759 166489 834986
760 3255 621873
761 879688 572607
762 55993 501540
763 279705 451913
764 27588 572130
765 856546 566270
766 331427 419798
767 317449 414748
768 392982 654586
769 384367 629190
770 923779 7538
771 959351 85877
772 108154 479528
773 837099 609617
774 293497 367176
775 40461 590431
776 928800 386090
777 106021 591259
778 996454 47077
779 873495 611077
780 369255 394603
781 936483 40169
782 313254 405003
783 75977 473337
784 872073 514318
785 129364 873936
786 862366 564810
787 316224 443338
788 989661 91582
789 130741 871492
790 928299 407144
791 175366 730521
792 1034309 64707
793 213554 881378
794 181278 931006
795 134306 479990
796 396141 694130
797 859018 617887
798 991885 141399
799 173023 928108
800 388376 670963
801 267289 421831
802 324752 464585
803 321623 436454
804 119422 536015
805 410213 686347
806 74420 530828
807 376430 654377
808 798718 525561
809 145840 860115
810 971353 78489
811 299454 503987
812 95541 515187
813 966764 94907
814 813549 570030
815 204479 882365
816 409335 691197
817 93742 512344
818 785 590531
819 187682 721579
820 129670 520216
821 824709 596267
822 99867 482201
823 131943 467175
824 152755 497491
825 322371 450365
826 424506 621700
827 143200 780352
828 91642 538875
829 101007 457651
830 168850 710381
831 930928 97156
832 1003214 51733
833 958868 358144
834 216531 946912
835 147159 904161
836 186638 711475
837 966327 -2797
838 270638 476120
839 962872 370071
840 185712 931162
841 262859 491843
842 254609 401864
843 159354 425773
844 232344 937598
845 938211 58505
846 939809 361293
847 441080 690414
848 981578 101928
849 52135 560693
850 323791 388076
851 122478 862388
852 307900 439296
853 357931 389697
854 936986 28465
855 965050 -9808
856 852819 581168
857 95391 503945
858 341173 405652
859 1006642 87110
860 849944 607594
861 990302 364622
862 198768 705279
863 913002 430059
864 86483 560052
865 174272 824738
866 386169 668796
867 288767 424488
868 912697 49697
869 352732 419798
870 960827 112608
871 392853 714616
872 135221 717739
873 308930 473277
874 195497 862869
875 935765 383025
876 403725 692005
877 964898 37004
878 405423 636811
879 149844 736652
880 939428 373414
881 168617 763598
882 928052 403934
883 808901 538939
884 214290 746922
885 274429 367864
886 947220 456695
887 192008 959350
888 974832 103843
889 207405 952401
890 52406 610624
891 932779 408996
892 881828 358427
893 131774 874640
894 931024 388089
895 179216 933034
896 201590 967428
897 110062 494136
898 144954 508019
899 44474 565008
900 187171 739776
901 169354 895998
902 417611 622692
903 86420 497937
904 309826 439475
905 272579 469750
906 142623 1005883
907 437883 673064
908 941375 390098
909 81275 506485
910 178259 912526
911 268793 420983
912 994855 75217
913 184191 709035
914 305662 484466
915 358596 443894
916 152481 897475
917 892250 400738
918 858533 579607
919 210753 727538
920 160767 910390
921 164574 898496
922 941630 97578
923 812901 542565
924 386786 676270
925 330166 462147
926 406152 631848
927 368087 642372
928 973857 54919
929 968492 46215
930 992988 56137
931 100928 488312
932 49056 682645
933 219567 966874
934 110866 526081
935 180278 860349
936 194327 970703
937 159800 887599
938 113236 510061
939 954775 40662
940 380405 695165
941 324945 411904
942 932489 631906
943 917296 360886
944 935898 22274
945 229146 706189
946 962086 72230
947 824946 582525
948 835718 593579
949 992652 421587
950 89547 513270
951 875962 574258
952 128710 511292
953 287487 419649
954 167099 725986
955 365624 730468
956 982276 140547
957 102910 456339
958 304085 477046
959 170434 776220
960 207908 918138
961 955850 356055
962 931432 113331
963 268268 434256
964 130127 709517
965 937273 62704
966 283743 454338
967 168156 869333
968 382210 706830
969 982236 105063
970 850190 599379
971 131671 856771
972 877815 566523
973 155470 730609
974 96670 644305
975 980822 63767
976 1013604 43629
977 802607 612568
978 180008 922622
979 185915 885073
980 209171 995308
981 66579 488214
982 150247 903797
983 328980 447411
984 951953 34581
985 194283 949562
986 304782 456613
987 157868 851468
988 135642 508703
989 913870 436507
990 50112 636797
991 61911 444383
992 386206 658062
993 236408 921088
994 210232 845951
995 942985 15948
996 840959 592060
997 168620 721538
998 844323 595943
999 41588 504423
1000 913428 2575
1001 212442 925379
1002 142550 543220
1003 368426 652082
1004 256910 406149
1005 423129 638032
1006 293050 424018
1007 342086 473872
1008 112930 461870
1009 959722 442667
1010 48811 604970
1011 296526 413441
1012 1011651 82042
1013 163644 870201
1014 952019 51053
1015 7759 600332
1016 205450 914957
1017 936035 34876
1018 981034 384335
1019 1009207 134248
1020 37772 607039
1021 134057 899622
1022 915169 405388
1023 379999 658371
1024 17377 597557
1025 871666 585092
1026 248498 403041
1027 78098 583552
1028 958986 72115
1029 947762 363577
1030 162141 913940
1031 1008345 26755
1032 145890 909846
1033 774944 589065
1034 963404 409936
1035 364779 389144
1036 59218 613689
1037 101429 444978
1038 34079 623136
1039 221621 900276
1040 170063 849925
1041 287438 489927
1042 909751 362543
1043 913483 133275
1044 313863 426351
1045 199213 1012660
1046 148203 933326
1047 850629 649586
1048 156867 963725
1049 401196 667958
1050 66166 636800
1051 312673 458114
1052 106337 956647
1053 350992 420487
1054 980478 75299
1055 301698 442498
1056 259605 399231
1057 985527 316169
1058 169586 982829
1059 206262 847240
1060 844590 557646
1061 111266 491393
1062 4609 609857
1063 196583 946284
1064 50299 641141
1065 310903 448242
1066 949807 346308
1067 239771 408912
1068 171481 884998
1069 824141 565568
1070 419676 672099
1071 357217 383827
1072 316972 434771
1073 954006 368472
1074 88821 521798
1075 55185 463446
1076 914359 88561
1077 393332 679455
1078 1001959 34475
1079 322166 416005
1080 931904 62575
1081 21199 634477
1082 72508 606676
1083 304492 413758
1084 945645 34824
1085 167227 931994
1086 960507 24413
1087 69832 564924
1088 981274 40355
1089 141936 879255
1090 250920 407022
1091 965827 46434
1092 972632 369627
1093 976025 14113
1094 406282 674998
1095 316582 405277
1096 56586 514365
1097 244676 763388
1098 189642 949599
1099 317182 383459
1100 957361 74273
1101 85151 921051
1102 303423 425080
1103 170098 931829
1104 177098 693391
1105 338110 624884
1106 920576 64609
1107 106597 433389
1108 180672 744195
1109 290529 432424
1110 950481 80011
1111 205635 746526
1112 351934 405957
1113 405215 655969
1114 953041 20141
1115 995294 398002
1116 260888 422529
1117 916484 82925
1118 186161 975793
1119 287570 494873
1120 303610 442962
1121 318413 412985
1122 57462 487324
1123 270158 451741
1124 121331 492712
1125 951004 46702
1126 967495 372529
1127 996819 33889
1128 38767 472000
1129 957102 93371
1130 160693 887811
1131 964269 80675
1132 794229 565652
1133 892521 72852
1134 27933 629146
1135 954027 11721
1136 46967 592468
1137 337923 433457
1138 971999 413441
1139 320732 686173
1140 213253 865028
1141 171747 955541
1142 199889 939409
1143 866712 590771
1144 42931 582110
1145 433286 654984
1146 356726 694138
1147 32311 618668
1148 966485 45037
1149 196252 695910
1150 185804 877689
1151 100015 893527
1152 190656 772107
1153 89419 530192
1154 227613 918236
1155 480849 624423
1156 992498 105242
1157 187573 678202
1158 420915 645059
1159 862404 602965
1160 184790 898828
1161 161378 923538
1162 174685 946450
1163 938754 43106
1164 96644 499111
1165 48355 483629
1166 855346 593236
1167 368031 450486
1168 376813 674065
1169 183625 972450
1170 909556 343873
1171 114940 516743
1172 305071 436050
1173 190237 700277
1174 83926 518559
1175 314754 423358
1176 941109 8851
1177 88251 596927
1178 47314 473631
1179 324863 486564
1180 445412 638429
1181 74630 512670
1182 154812 908301
1183 66067 479676
1184 950273 13110
1185 971236 72732
1186 366798 422293
1187 1014048 50428
1188 936262 56396
1189 84419 521381
1190 412309 660510
1191 159599 730986
1192 316391 369940
1193 165837 814799
1194 314173 325952
1195 9221 664145
1196 138653 687677
1197 789579 600132
1198 920350 57270
1199 153331 875309
1200 61563 611181
