NAME : portcgen-1000-1009
COMMENT : portcgen N=1000, seed=1009
TYPE : TSP
DIMENSION : 1000
EDGE_WEIGHT_TYPE : EUC_2D
NODE_COORD_SECTION
1 53484 709247
2 59318 988370
3 19552 711399
4 712503 990098
5 260208 771488
6 285328 817289
7 698536 25030
8 287681 879355
9 332030 851483
10 142032 968207
11 690243 984563
12 302721 760368
13 2009 659906
14 317044 862995
15 85673 935338
16 671958 972301
17 648457 20480
18 105202 1017065
19 47428 725810
20 130868 962189
21 720660 944666
22 657128 121624
23 278812 808018
24 649947 38508
25 323507 803214
26 676518 967785
27 97570 958089
28 227933 758110
29 647204 53931
30 662622 18288
31 151067 971958
32 427325 730176
33 624738 -7321
34 307487 787017
35 827996 157469
36 711865 1013852
37 675484 143
38 962292 149303
39 684041 49452
40 146057 963853
41 944604 116806
42 668942 -1129
43 69180 985395
44 658004 985636
45 666121 16782
46 427862 718632
47 716486 81653
48 420176 748367
49 638207 -6899
50 625579 93334
51 664610 82828
52 121852 947145
53 702663 993999
54 301535 805986
55 636907 107061
56 635087 -3481
57 180976 957496
58 389830 815003
59 41762 740851
60 720920 1007710
61 292234 794686
62 125141 958385
63 269858 837062
64 668511 965696
65 30943 710809
66 -4430 734659
67 -24396 677688
68 277453 873884
69 117535 956622
70 156256 951405
71 432470 738796
72 330309 916617
73 944976 222633
74 716630 966064
75 695666 987950
76 140472 957051
77 682982 93845
78 293229 883866
79 309627 867116
80 51698 722708
81 165306 979881
82 243397 958670
83 359618 887357
84 683511 1038805
85 624421 -26916
86 440683 712949
87 167475 988434
88 14412 668400
89 72407 960132
90 335463 808751
91 608106 112390
92 157901 971038
93 702415 971024
94 328787 868640
95 166026 910012
96 602287 63310
97 258240 809453
98 447584 752014
99 678887 13430
100 651982 979265
101 130774 949850
102 307888 797247
103 706568 940996
104 284879 911771
105 131015 956579
106 299040 905329
107 664412 84519
108 -10724 724393
109 662028 7497
110 -814 705428
111 675685 64548
112 267727 871518
113 356301 862388
114 216180 999655
115 347629 879063
116 256902 831260
117 316404 892347
118 199037 981709
119 656684 -16293
120 166914 961977
121 410682 719703
122 658548 1022309
123 87418 953193
124 700073 965163
125 379202 897358
126 668427 -8181
127 906444 170651
128 262696 920346
129 687291 97308
130 638486 25681
131 710666 135317
132 290622 765759
133 164793 930867
134 681665 7509
135 -15419 737608
136 467580 772788
137 890991 149914
138 651959 3027
139 664796 1028137
140 934228 169190
141 432372 785402
142 232636 895555
143 893359 176245
144 178625 932208
145 261968 885731
146 675364 84170
147 40671 722350
148 633602 86948
149 696690 104392
150 618208 55303
151 452332 711914
152 644451 135829
153 688312 8994
154 631268 996612
155 321265 804073
156 650553 1018937
157 689379 -10345
158 287268 799653
159 313606 836292
160 182296 986536
161 948200 160005
162 -8694 704674
163 493498 677978
164 -9990 728828
165 683793 136336
166 -56534 728882
167 60058 978384
168 911538 139538
169 302177 910703
170 651902 15401
171 686651 1016689
172 301331 950936
173 932779 127639
174 940947 172438
175 640355 48556
176 318935 773681
177 650394 50986
178 343587 784983
179 437189 770943
180 348582 728296
181 340821 769335
182 309774 846268
183 458421 689901
184 625094 122392
185 447965 755804
186 326817 813768
187 478693 742206
188 64575 975875
189 2927 727149
190 632961 74113
191 76275 962632
192 451995 745333
193 617046 1043758
194 401192 675422
195 291850 792982
196 277088 863208
197 639541 -11099
198 171449 924754
199 157551 993672
200 21180 676809
201 679472 12988
202 653537 -17335
203 334674 843389
204 40052 729289
205 277099 872664
206 437768 700204
207 444514 718146
208 329637 871441
209 220340 929140
210 874919 162286
211 48202 701381
212 895969 164364
213 680073 31710
214 87266 1013388
215 137891 957497
216 475906 705155
217 668923 999510
218 211921 781213
219 637415 27348
220 139634 939906
221 441262 640398
222 692821 -10048
223 260395 860353
224 326529 890473
225 678480 103623
226 700576 49298
227 287175 856115
228 723306 1011240
229 699061 -16047
230 273837 812839
231 251696 816568
232 105889 968822
233 276842 787179
234 284701 845030
235 657379 64504
236 244467 880242
237 311851 771836
238 372825 879009
239 672377 999575
240 651804 114440
241 287562 835348
242 -42223 726813
243 650537 -36793
244 291489 816010
245 667666 989463
246 271932 721163
247 623193 82496
248 -425 691137
249 924794 190545
250 898306 165473
251 147582 1035355
252 22026 705468
253 297657 773291
254 -301 738183
255 15276 707428
256 125166 928995
257 383828 730694
258 453598 775975
259 265820 761216
260 278592 911733
261 290121 847951
262 617369 969205
263 517362 690990
264 500168 705864
265 259124 844593
266 278454 818464
267 666999 31491
268 180018 904590
269 13458 705680
270 270134 815794
271 728790 -11566
272 -22357 736241
273 44141 721184
274 450968 774370
275 708274 -25291
276 859889 175233
277 214876 944682
278 652768 -18813
279 689775 975095
280 48172 941636
281 82314 691121
282 317101 761566
283 258313 830461
284 459116 753910
285 919238 200485
286 278360 886298
287 116660 969788
288 622387 996257
289 890223 161116
290 688171 -1679
291 81397 973018
292 271197 794044
293 687932 983178
294 171246 961101
295 620597 128868
296 913442 133243
297 -15597 747596
298 -20408 753292
299 1591 715675
300 891351 208760
301 688994 6929
302 49471 722642
303 115030 913163
304 328728 886170
305 310714 870908
306 690261 48405
307 480971 723323
308 300286 871510
309 915963 203029
310 639570 1014627
311 29021 741203
312 26765 666068
313 618308 109993
314 161980 880965
315 701842 -11556
316 679539 952658
317 966396 187491
318 -20793 705380
319 442657 681232
320 686902 10009
321 239351 824339
322 300468 867669
323 147211 964733
324 285083 904194
325 680106 12690
326 277196 903072
327 138598 999291
328 940807 191695
329 717842 -11289
330 287155 793987
331 726921 23474
332 331903 904472
333 98529 943026
334 659886 965471
335 310501 874969
336 155288 940487
337 697869 995570
338 671936 -30713
339 170318 935148
340 651006 110534
341 604402 26075
342 436748 721886
343 707241 87254
344 276251 778270
345 -40148 750787
346 628892 1012487
347 280602 775019
348 273046 879073
349 143602 961653
350 142070 906044
351 642919 138090
352 935160 190131
353 313063 905227
354 166997 888844
355 693175 981016
356 299621 887679
357 142376 948300
358 279380 811745
359 159157 993716
360 76077 906650
361 623311 49533
362 259348 744028
363 17243 677304
364 695637 -54190
365 955183 167646
366 897823 156878
367 451515 728778
368 657710 1008714
369 704893 -17851
370 7267 698770
371 715120 987428
372 313483 886999
373 109974 940893
374 130090 922132
375 168632 928636
376 895183 212199
377 -62595 707571
378 30782 741897
379 615697 946241
380 686345 972411
381 33024 665722
382 108942 958244
383 864184 179402
384 925405 181494
385 119472 1026073
386 341192 857788
387 310536 847178
388 89888 921131
389 143090 983043
390 643593 111597
391 114401 975503
392 705067 77605
393 703900 1032857
394 278720 809655
395 653077 51135
396 -27495 699741
397 657536 985443
398 55630 962480
399 26829 699263
400 292304 765991
401 669638 989925
402 160195 959723
403 245694 810927
404 280709 917412
405 265596 929974
406 64098 721447
407 12168 734352
408 311797 859805
409 592195 30251
410 905668 166195
411 157080 978605
412 360972 931428
413 702994 932332
414 3504 699413
415 649740 70528
416 531974 721160
417 672237 -7914
418 284197 887797
419 677972 988417
420 903103 172117
421 46302 688495
422 338515 906110
423 899881 111766
424 659905 109355
425 624454 975486
426 490903 719913
427 588733 103289
428 189556 886010
429 178508 925068
430 668930 1003094
431 40255 676095
432 461017 696033
433 902154 149731
434 733032 -6621
435 876333 205736
436 176588 929725
437 78062 1015209
438 -28486 734595
439 264683 760492
440 -15513 750729
441 243860 913986
442 717975 55014
443 625637 72399
444 432370 717417
445 154328 980651
446 121206 955704
447 649384 58329
448 645152 990792
449 365632 927699
450 889268 179094
451 485238 708430
452 645587 83909
453 717340 26326
454 315472 911115
455 891896 195155
456 732276 58896
457 182014 932239
458 882128 220620
459 124905 948054
460 623438 1038343
461 648830 -12438
462 250439 858716
463 648492 48270
464 310488 867848
465 662157 933330
466 652337 128438
467 114662 928463
468 291464 753558
469 690538 130100
470 937942 152421
471 127616 940793
472 903163 137577
473 361240 843073
474 669964 10778
475 483826 700931
476 274504 816787
477 743592 979113
478 504710 673730
479 727673 -27694
480 457911 712207
481 634938 1035560
482 669797 -58128
483 96890 1011105
484 941848 215489
485 116115 916329
486 6857 748171
487 342104 857916
488 23095 659584
489 260880 797164
490 473312 737613
491 633456 989502
492 575618 89214
493 677873 54759
494 621050 1007018
495 352847 897196
496 639219 92300
497 164849 873653
498 308480 789218
499 -5609 705245
500 119192 1026966
501 45204 724905
502 924597 128610
503 203044 884086
504 657903 -1813
505 362500 829483
506 311545 916590
507 906527 169979
508 620435 152611
509 293854 757648
510 709985 74246
511 925510 181477
512 84805 930449
513 187949 971219
514 35852 736581
515 41978 681787
516 29269 737816
517 47034 973318
518 29129 723293
519 635468 111715
520 49396 721409
521 280435 842104
522 669706 -7348
523 686887 29939
524 652812 149968
525 120666 969158
526 54541 969596
527 75878 978784
528 647290 87101
529 706205 -6996
530 617426 -22884
531 642937 -39869
532 290785 862728
533 295851 771808
534 270013 767269
535 345793 956608
536 426344 708379
537 39455 743503
538 77352 982782
539 430041 764830
540 98243 973545
541 681580 72336
542 78036 700444
543 41530 947231
544 -17304 758245
545 640136 48699
546 178443 959907
547 324872 850751
548 342133 814253
549 710470 964869
550 186078 971994
551 612244 3423
552 74516 968700
553 184527 930956
554 -1867 681800
555 271167 947495
556 157711 976380
557 183021 944404
558 170264 903071
559 92087 975298
560 428627 744191
561 86084 936214
562 185123 909293
563 899262 113837
564 946932 206127
565 291582 866607
566 131461 1051223
567 734475 131988
568 110745 1021197
569 684589 992482
570 876273 184898
571 657558 1018355
572 335485 754451
573 91128 991463
574 677395 49277
575 678009 945921
576 668507 36533
577 162564 957391
578 262330 898087
579 616537 -24623
580 232462 895121
581 109454 909527
582 344344 795093
583 128220 934855
584 674212 971657
585 454064 762291
586 269273 914148
587 341840 887589
588 19746 659152
589 110013 938608
590 262780 900234
591 312158 702771
592 675756 90471
593 303535 893454
594 611341 98017
595 673538 972104
596 943390 110131
597 126265 962259
598 654138 930508
599 283589 839704
600 82704 941192
601 690945 117270
602 894383 157362
603 301206 872955
604 76931 953020
605 693914 958976
606 701409 1008854
607 13661 764788
608 80606 988636
609 142826 973086
610 680289 83491
611 283439 749172
612 340492 890381
613 278048 879008
614 301800 880476
615 91683 965632
616 855338 163532
617 886393 211443
618 503901 715851
619 641485 1011981
620 464510 690037
621 174221 899056
622 142761 982431
623 153261 957662
624 489356 715036
625 700213 25045
626 463587 699527
627 712648 993515
628 651450 -47752
629 83463 995713
630 625328 108668
631 16020 691882
632 701014 51173
633 54994 715083
634 682168 989508
635 497121 753258
636 111273 948016
637 189012 951328
638 301279 811891
639 623036 969051
640 653926 991368
641 283824 801914
642 914167 159854
643 98851 953998
644 346710 921985
645 308675 756844
646 269682 884627
647 117314 1002302
648 614450 -23066
649 453526 670585
650 442044 681479
651 638121 -11943
652 439418 721974
653 872890 160243
654 285552 789393
655 87337 985899
656 501975 739338
657 169146 948249
658 324783 752267
659 169165 955181
660 643229 -1840
661 664342 1019323
662 266694 909970
663 608231 12466
664 -5208 747928
665 663108 1008101
666 10306 677448
667 674121 959039
668 291522 921944
669 438837 729474
670 869916 176832
671 296555 881564
672 695711 98960
673 156333 1004476
674 89723 993860
675 93617 1026360
676 44484 758642
677 924514 148648
678 652646 985264
679 626184 57654
680 703256 120732
681 412115 763323
682 703451 977472
683 942163 226395
684 661723 1036460
685 154606 972047
686 663756 70762
687 310296 931349
688 316155 774838
689 182222 996259
690 455710 707476
691 281312 725735
692 147614 935594
693 677275 997567
694 671042 8031
695 686674 20251
696 608355 10063
697 300436 889781
698 283943 782753
699 237374 882863
700 646443 21910
701 717867 967047
702 906538 196280
703 655455 945437
704 79110 993811
705 890391 201771
706 9598 795731
707 666028 -26764
708 924748 180675
709 656580 50717
710 681101 7497
711 -35413 761772
712 739567 43231
713 105273 956080
714 652030 967252
715 665056 2862
716 679497 122079
717 201065 956489
718 281844 757725
719 736615 997805
720 185607 996758
721 898873 166286
722 918665 123304
723 662261 122108
724 454407 688087
725 211264 914925
726 906125 115988
727 326271 806642
728 137408 978991
729 877204 201339
730 706384 1003898
731 181701 978989
732 336175 823983
733 344464 887644
734 315681 840418
735 238294 896264
736 691009 959613
737 678264 961835
738 433144 705535
739 954399 114976
740 321998 760181
741 -3212 727064
742 706125 45499
743 674790 27838
744 662472 964407
745 700714 1070065
746 103133 1021702
747 932780 197600
748 344896 785896
749 688588 -18315
750 274445 799013
751 64316 769339
752 284633 788780
753 -25092 745031
754 635259 -10013
755 135981 903100
756 300827 948662
757 275781 780481
758 894116 165735
759 132683 963698
760 897935 198418
761 673817 31489
762 714015 991804
763 920094 127227
764 486066 782864
765 80767 955973
766 694777 923555
767 468903 663725
768 672496 998289
769 369920 671778
770 871306 166106
771 668028 -19934
772 203929 964438
773 259144 748182
774 167419 948603
775 911227 200765
776 245695 828893
777 936292 169972
778 879005 73070
779 645488 44171
780 161837 905493
781 933406 184060
782 332445 757527
783 198424 974528
784 466212 656875
785 332147 854666
786 308874 863018
787 688358 994636
788 631281 1631
789 647742 9215
790 38986 697096
791 694568 -27983
792 434106 717497
793 648154 78856
794 700440 71428
795 687650 10173
796 683525 19287
797 257392 800436
798 244854 874182
799 891232 161160
800 899477 206915
801 713600 5256
802 682119 14475
803 463248 694148
804 921791 179990
805 640835 -5723
806 340910 879064
807 352571 952300
808 345652 827843
809 660267 -103
810 437433 792942
811 895351 205876
812 643807 57929
813 343436 771201
814 132561 981470
815 706897 11072
816 148273 954321
817 650057 -6509
818 665588 1069476
819 328876 792786
820 676086 31330
821 612332 124871
822 -4397 710689
823 702595 982011
824 37443 712848
825 77845 986652
826 864912 175326
827 176891 905896
828 317833 830735
829 149026 953814
830 334353 808855
831 19320 729754
832 326322 787780
833 27444 756414
834 680291 102186
835 583161 98002
836 903232 165936
837 652149 84682
838 475304 709108
839 655845 1012594
840 670109 913055
841 680579 88270
842 149020 935416
843 741391 -14866
844 905882 167610
845 200563 959336
846 700007 990295
847 204735 998924
848 419280 720273
849 23350 719907
850 129832 983161
851 333593 838293
852 161526 959935
853 162874 998243
854 449232 774175
855 612043 -46514
856 -21092 715257
857 270234 833967
858 336731 863832
859 469837 783190
860 653595 35509
861 933018 209008
862 321492 896766
863 690114 25013
864 224022 944690
865 658938 4916
866 713166 81293
867 891835 119264
868 176660 1001920
869 651277 1825
870 257232 802722
871 462662 721186
872 917483 181097
873 430476 645247
874 -17472 697744
875 289425 878469
876 51889 755285
877 884398 122833
878 674367 932877
879 441210 739992
880 644414 128848
881 573747 88110
882 27402 725642
883 715176 55917
884 190397 942141
885 312238 732861
886 701534 1061264
887 671830 52140
888 688531 903147
889 942826 173922
890 126541 966210
891 11242 710350
892 663619 55102
893 664883 133566
894 312620 861234
895 459185 668172
896 11084 695682
897 151236 972068
898 929011 248109
899 309647 756587
900 168955 990916
901 25149 715163
902 308575 747480
903 624356 945372
904 648598 -11331
905 454249 732539
906 169757 941948
907 338362 793285
908 687894 -28802
909 900121 252597
910 161071 957633
911 665751 38241
912 320401 834639
913 301314 815632
914 923286 236152
915 464575 690105
916 695252 1034006
917 38631 720456
918 655344 125815
919 -902 663809
920 662824 60914
921 648574 1021782
922 302199 784246
923 290132 834490
924 318697 807483
925 486662 696196
926 39982 749768
927 620768 25965
928 487839 742698
929 667055 36971
930 741276 960890
931 270938 880049
932 53417 708105
933 710979 971439
934 -17094 739692
935 347329 775428
936 275946 814869
937 345249 803433
938 458752 690130
939 664276 95393
940 506054 686936
941 118036 885755
942 670069 48635
943 527566 771807
944 459793 669083
945 477692 707245
946 747217 956003
947 724510 993134
948 171985 950179
949 327971 803746
950 450632 723119
951 909162 195223
952 276869 906290
953 278419 864459
954 618831 114712
955 335224 805445
956 19023 819132
957 658005 -12812
958 460609 746280
959 159243 999262
960 114074 942079
961 318485 855804
962 -16369 721874
963 452238 761978
964 697300 -4418
965 90763 929521
966 689941 2977
967 619142 79786
968 580534 16456
969 158675 922547
970 280876 829797
971 430985 698059
972 494129 707347
973 341331 851348
974 275933 791738
975 90019 909558
976 692500 942960
977 275836 874769
978 962430 148742
979 -1445 739059
980 698681 -44604
981 497853 726410
982 650013 927687
983 -20846 705825
984 649802 -9030
985 616122 91105
986 628025 80652
987 695727 135591
988 151393 1039618
989 616499 -14111
990 274724 832043
991 280855 744554
992 132533 932789
993 31754 678718
994 677672 -2653
995 935934 137908
996 52110 978535
997 616247 37824
998 458638 725504
999 911371 172820
1000 257785 932296
