NAME : portcgen-800-809
COMMENT : portcgen N=800, seed=809
TYPE : TSP
DIMENSION : 800
EDGE_WEIGHT_TYPE : EUC_2D
NODE_COORD_SECTION
1 336141 554885
2 968050 293331
3 587636 231553
4 750958 470181
5 837131 971399
6 766030 537780
7 822884 435092
8 492874 443648
9 751978 478592
10 405996 455193
11 932294 884707
12 759350 530418
13 851991 974558
14 568706 815001
15 972190 939316
16 923165 948082
17 265660 585459
18 900377 914066
19 957789 860563
20 429533 480574
21 978112 315078
22 993116 358670
23 414904 461517
24 945510 308215
25 560142 230484
26 372111 454185
27 725787 506866
28 399894 505555
29 986153 331469
30 944176 243958
31 899134 314470
32 896784 894419
33 962346 291301
34 317088 562431
35 342600 494581
36 563096 258697
37 697774 480191
38 515599 327420
39 988355 894199
40 514600 730105
41 435699 442487
42 320246 497232
43 572187 213142
44 964113 308261
45 549770 700484
46 976776 951224
47 564903 809858
48 839174 924995
49 574231 324122
50 987653 835117
51 927497 923447
52 954296 261010
53 933713 343219
54 462122 738655
55 903572 341527
56 261879 528039
57 326228 604136
58 757696 488868
59 518497 758003
60 879653 915193
61 430459 505071
62 977040 301997
63 558657 786602
64 401407 480255
65 298036 520933
66 365415 493180
67 486539 552736
68 843914 915693
69 679750 524742
70 503970 768827
71 287749 540078
72 896411 847482
73 544462 276080
74 504758 302490
75 805307 993672
76 425419 517687
77 483642 484135
78 556823 741068
79 703150 504177
80 467972 417125
81 920745 880659
82 711746 455682
83 542433 789874
84 970190 311897
85 446517 542601
86 506602 268046
87 249970 546340
88 425317 417663
89 542531 795114
90 487049 283149
91 836617 916584
92 934862 910463
93 870406 869976
94 688629 452654
95 741253 434788
96 285814 591079
97 695119 508923
98 826235 954544
99 883917 873310
100 557402 266857
101 511982 280471
102 783662 503479
103 475887 459392
104 898361 894481
105 557790 743056
106 870364 965661
107 449843 266570
108 941993 863299
109 898938 332496
110 435001 451821
111 936421 326668
112 255595 546082
113 444833 267952
114 295579 585900
115 539487 298470
116 898638 227943
117 785874 461557
118 258344 563494
119 698326 488728
120 516617 777518
121 248097 571777
122 333978 550520
123 279050 586734
124 557804 772742
125 319971 551034
126 945373 347635
127 519463 234484
128 871740 981574
129 475308 749518
130 1034448 379476
131 688724 509910
132 774040 480960
133 918079 932195
134 896775 847805
135 924347 886385
136 268610 523352
137 500560 271082
138 335886 555423
139 731030 506045
140 506527 278036
141 450935 203187
142 757409 502508
143 549912 263542
144 909362 902226
145 849417 964789
146 727749 509835
147 523732 249737
148 586466 667882
149 573147 782678
150 857767 949128
151 263709 417937
152 965217 251835
153 800524 939752
154 1025225 229530
155 544386 264626
156 893525 955105
157 748565 475705
158 913441 882949
159 429783 484773
160 551221 264133
161 983376 284768
162 693993 427023
163 914403 981493
164 762855 470991
165 899781 950815
166 486108 507802
167 892270 886865
168 531354 317145
169 564390 216858
170 903829 847233
171 335755 528368
172 411333 475881
173 573081 246161
174 976519 251674
175 802540 943628
176 522862 331036
177 837017 939504
178 897163 982393
179 352241 472628
180 463040 702546
181 760368 438912
182 611807 764879
183 484395 466723
184 218323 513428
185 450974 477334
186 950226 369602
187 789658 432303
188 962817 304628
189 266370 600910
190 948511 892772
191 311145 537269
192 450758 453273
193 730903 493038
194 550877 676027
195 834356 904257
196 310239 545490
197 923362 909969
198 824094 933870
199 942742 976604
200 706943 402912
201 540434 787846
202 698729 500311
203 469204 521639
204 986049 344521
205 767506 390789
206 842381 971564
207 379190 495487
208 428052 477109
209 348708 549007
210 492624 464980
211 766556 484495
212 394093 426320
213 1030908 324747
214 751329 434986
215 940292 238271
216 868647 933946
217 715419 477544
218 583405 744850
219 555529 285051
220 360082 490360
221 269256 489944
222 461199 430172
223 814186 965968
224 765832 501796
225 842466 909247
226 462966 495449
227 345883 530637
228 553716 739022
229 807900 960697
230 525547 233490
231 451230 507242
232 535458 270989
233 854518 896236
234 976151 358596
235 868090 942619
236 686207 482249
237 859111 940761
238 578477 283399
239 547753 714714
240 750673 485742
241 865328 957819
242 879312 944711
243 484644 269255
244 760808 516185
245 891945 855995
246 553897 769983
247 808718 975206
248 962745 270826
249 547633 286075
250 231108 537811
251 617620 260570
252 863566 919113
253 840868 961186
254 785413 894096
255 454540 526138
256 586604 743783
257 480881 715707
258 285672 490473
259 943125 857763
260 256526 510815
261 494155 773097
262 782072 950774
263 290997 534479
264 543702 733054
265 317478 585410
266 559018 198953
267 825716 911157
268 532128 697107
269 790717 913856
270 571732 731581
271 622623 271557
272 617956 320056
273 506019 490927
274 552284 739297
275 390169 546201
276 557580 267954
277 944008 313185
278 970593 362956
279 579207 300739
280 521493 748565
281 287740 556482
282 991063 838936
283 860380 1003157
284 965109 303550
285 1009191 258228
286 931291 932455
287 429955 457345
288 511461 316177
289 491215 312353
290 729117 494485
291 751803 407627
292 383076 543197
293 517291 722433
294 883619 350168
295 741956 470709
296 301283 528447
297 515987 497361
298 293401 538837
299 761919 453616
300 691499 465525
301 481254 322113
302 799063 1010576
303 712614 465022
304 502602 281335
305 511368 291025
306 938762 921137
307 562046 742385
308 578225 751090
309 536009 754000
310 471803 238355
311 945513 376651
312 904510 321848
313 984025 919786
314 780217 505026
315 921112 212691
316 941777 296996
317 741303 468039
318 289415 544625
319 317439 552002
320 941639 965064
321 293356 588826
322 937195 929948
323 560843 773811
324 982801 307414
325 379578 480992
326 460329 523396
327 546767 269027
328 924037 277751
329 527872 295740
330 786872 481900
331 810488 995841
332 995421 323409
333 449061 448710
334 864713 964878
335 686251 434045
336 1012716 342147
337 446020 517473
338 590156 724037
339 969608 916091
340 828864 903074
341 382540 492608
342 544439 793400
343 333456 584938
344 537167 201522
345 500335 262304
346 742517 450278
347 866183 903664
348 301778 550036
349 599904 714911
350 336240 499939
351 848480 929987
352 797939 1032495
353 762302 477066
354 228667 565728
355 944899 284506
356 988170 355540
357 879443 1036038
358 440156 457008
359 574664 717811
360 793007 490869
361 749761 486049
362 525546 771492
363 905714 880735
364 724180 523884
365 521419 782742
366 802782 950603
367 901021 354227
368 793256 492622
369 271336 564814
370 517781 256581
371 567069 693185
372 971497 921440
373 408414 483585
374 458231 489899
375 557718 798238
376 569240 293109
377 705804 485537
378 719380 423341
379 587819 767820
380 491702 474653
381 831796 899500
382 518152 767745
383 566896 715201
384 457871 502469
385 880159 937904
386 318938 562099
387 447582 499128
388 876101 892225
389 819012 930601
390 365902 523731
391 506351 735850
392 519634 242572
393 522763 273958
394 287926 606100
395 733487 487949
396 723285 511264
397 731834 450609
398 942072 996422
399 556563 268243
400 471248 767516
401 940919 1029118
402 273513 514062
403 780361 458700
404 901088 861017
405 490459 485646
406 308243 506631
407 530519 768209
408 904619 293305
409 923017 898644
410 702101 497025
411 339967 493933
412 717277 461945
413 1007988 304483
414 736005 400921
415 550277 819434
416 910460 937208
417 522292 293752
418 935497 316417
419 393291 539439
420 592037 737808
421 342855 606357
422 481567 264779
423 947306 354354
424 857811 913059
425 250112 555130
426 980884 351522
427 1004456 379054
428 925141 920251
429 927163 314525
430 785892 476151
431 715401 465000
432 929749 883002
433 996816 290211
434 783407 477742
435 740764 525280
436 745565 498958
437 589687 299358
438 928823 321157
439 909813 906856
440 250251 577836
441 871629 928857
442 810244 986623
443 876104 990138
444 410161 533874
445 735901 457175
446 1003010 290159
447 266736 560053
448 979746 893566
449 953532 288972
450 584322 197477
451 336407 577202
452 545029 681313
453 474954 482823
454 527126 304464
455 562189 289833
456 453016 511859
457 499861 735844
458 459300 497304
459 976804 278452
460 876906 876544
461 570845 305767
462 743835 480552
463 881111 982745
464 431367 473417
465 399558 519194
466 294313 597736
467 706354 517928
468 531736 739774
469 374637 496643
470 717323 523639
471 391387 512772
472 506859 761504
473 560385 223165
474 580856 279249
475 775876 484721
476 993832 371032
477 343565 499769
478 887849 927550
479 885441 933338
480 574901 305023
481 977809 320527
482 296320 542973
483 898931 964338
484 434663 461231
485 723398 497025
486 565783 734586
487 920682 319176
488 991247 274080
489 488249 478398
490 433650 393076
491 493638 271319
492 967007 894549
493 307180 571655
494 557838 734399
495 503744 273986
496 845436 978451
497 291082 517921
498 512867 282405
499 670862 465711
500 888336 923370
501 835528 988687
502 565885 795260
503 354792 568018
504 305847 614098
505 819277 910593
506 989835 347712
507 644114 297445
508 720265 510621
509 424282 475486
510 461107 429907
511 833326 982037
512 866866 896204
513 835479 913484
514 822795 934457
515 1025021 927232
516 542899 323763
517 445838 501797
518 930292 937633
519 360027 591590
520 434228 447971
521 490098 284021
522 570678 284618
523 556786 264612
524 968161 274061
525 812809 889447
526 306873 628854
527 293013 545479
528 915761 861771
529 965782 868752
530 525100 724505
531 538857 768498
532 714439 480620
533 507502 279074
534 281512 525485
535 987118 378713
536 869597 942209
537 926866 267566
538 509324 318231
539 525294 493659
540 504021 782841
541 555969 742889
542 325256 538869
543 803585 486427
544 468837 459039
545 924231 940161
546 908705 960167
547 828068 938675
548 440574 474886
549 555359 256990
550 562802 741564
551 392403 436717
552 742015 466506
553 296398 541745
554 920611 862509
555 393369 461949
556 887026 950353
557 466449 474556
558 579106 708389
559 352065 515465
560 570607 738176
561 405834 499458
562 726345 482859
563 957968 253946
564 489266 294890
565 555806 277899
566 869743 922575
567 424172 442994
568 916019 835202
569 830905 924905
570 401700 510120
571 879470 943518
572 754027 467353
573 715036 460646
574 450778 395299
575 575289 717318
576 700963 504563
577 551329 273908
578 919482 340343
579 857100 921543
580 547534 741786
581 873149 964244
582 1009678 339951
583 967115 360979
584 579693 774750
585 966668 892735
586 945375 331530
587 881255 924930
588 580308 214482
589 903821 912136
590 918662 381400
591 334060 481258
592 506023 299478
593 307513 535667
594 253579 519511
595 596340 719631
596 845486 982278
597 952457 920345
598 294288 492151
599 806304 940618
600 935581 922348
601 361131 549713
602 870949 1010493
603 578078 705397
604 524383 274463
605 480607 516761
606 1029011 260658
607 272933 499409
608 786005 522241
609 302839 487215
610 489909 320229
611 307711 500369
612 339557 576851
613 746994 470001
614 267527 594974
615 523013 300629
616 553925 731212
617 305162 541497
618 536020 235008
619 963447 282675
620 982286 325957
621 452257 426944
622 581042 219053
623 916118 365356
624 909187 919595
625 897169 879785
626 552003 301736
627 320997 563052
628 917960 937164
629 877677 937387
630 865181 974780
631 922990 950026
632 323777 526317
633 1016131 314682
634 521572 292720
635 776618 446347
636 514451 306017
637 539287 728873
638 994074 352132
639 906217 350853
640 545174 771422
641 894583 328887
642 878666 948251
643 463857 498501
644 467638 531386
645 355770 441652
646 844176 964139
647 743416 478467
648 792137 494864
649 541863 714549
650 890954 911480
651 536843 702281
652 448678 433192
653 614258 758437
654 574978 338116
655 517441 236107
656 980457 363581
657 860238 987170
658 551114 200419
659 530310 299433
660 732292 484290
661 302041 525309
662 478394 444876
663 788238 416915
664 744381 455605
665 847432 936615
666 745284 454944
667 262811 493724
668 873167 960260
669 430664 503322
670 577221 301835
671 895014 917303
672 314872 581417
673 777904 441468
674 541590 812638
675 362169 574077
676 852685 988351
677 878964 859096
678 259192 548029
679 850182 904510
680 452441 506054
681 553375 279730
682 552636 283051
683 253354 609308
684 1049188 331884
685 836048 514681
686 583793 304675
687 916089 879377
688 840991 926504
689 285358 579395
690 459574 461392
691 558482 767785
692 948637 311928
693 274213 548484
694 516265 264687
695 589971 750500
696 736296 481788
697 906158 349348
698 881316 880458
699 533686 773082
700 290460 499309
701 835789 988693
702 441593 441788
703 543110 262445
704 297652 502613
705 607506 759162
706 739197 479354
707 544197 306095
708 320301 511336
709 916449 864519
710 475169 556312
711 673853 432391
712 959017 338614
713 309049 528641
714 607095 692220
715 293767 559424
716 982665 354049
717 567233 688760
718 1009540 293747
719 301285 543684
720 927405 314442
721 516624 260803
722 997601 907551
723 249318 492347
724 976917 886533
725 840485 941043
726 538869 281539
727 293863 541502
728 390655 533534
729 1020095 272367
730 669871 512213
731 737445 456519
732 982372 238170
733 576257 755895
734 731426 501941
735 433069 475386
736 508016 774281
737 267598 538550
738 500987 258777
739 552252 797943
740 725016 523154
741 955111 375249
742 783953 487431
743 514710 276306
744 699750 481170
745 394849 492550
746 370664 532535
747 979658 326871
748 956525 310896
749 532965 755721
750 839978 885986
751 977560 301361
752 848006 906935
753 947885 868258
754 434623 458125
755 772458 448074
756 291645 501704
757 754199 471008
758 720027 492309
759 633586 736279
760 1023074 359769
761 500772 765558
762 928399 926713
763 702152 503244
764 289482 493703
765 349596 485281
766 995978 322710
767 696352 565824
768 977066 306702
769 947340 281505
770 511610 273272
771 553203 734032
772 329409 484983
773 291252 556778
774 507505 277586
775 960986 337246
776 894813 897712
777 535383 733328
778 829015 456789
779 430020 516621
780 893398 952981
781 690016 412459
782 800208 487581
783 310999 469915
784 1024671 323069
785 851680 986483
786 297103 528619
787 755267 484135
788 798890 970114
789 759460 535138
790 430705 479791
791 870550 986110
792 588611 710798
793 450982 438587
794 527562 276604
795 751899 484410
796 853370 979496
797 519868 746425
798 373926 525256
799 439931 243514
800 947892 320920
