NAME : portcgen-1500-1502
COMMENT : portcgen N=1500, seed=1502
TYPE : TSP
DIMENSION : 1500
EDGE_WEIGHT_TYPE : EUC_2D
NODE_COORD_SECTION
1 124412 777967
2 73373 659473
3 554210 521586
4 60644 692083
5 360796 667121
6 537745 503510
7 127810 155012
8 258900 337844
9 23778 492286
10 24110 681166
11 186911 98745
12 1017632 877666
13 265593 101704
14 41181 649662
15 292750 611420
16 89177 665091
17 883144 365498
18 998147 926253
19 140131 821035
20 79271 798193
21 198892 134977
22 128447 403379
23 918064 717026
24 125569 348476
25 108924 327938
26 -19368 466799
27 141414 316023
28 130694 363326
29 222565 54237
30 27263 486368
31 44395 679549
32 257211 348569
33 53890 821163
34 432677 844303
35 33069 730417
36 107076 770642
37 244661 85070
38 44457 501605
39 519496 484533
40 110047 853875
41 896046 535014
42 35103 441242
43 465896 840646
44 11455 441258
45 538689 524027
46 945332 692542
47 29868 718635
48 942277 740318
49 856803 395185
50 37902 473904
51 94355 851774
52 290284 708792
53 278363 54582
54 399965 818175
55 491128 605105
56 236490 22232
57 981976 876965
58 180082 159818
59 946385 872331
60 859255 369150
61 950859 882829
62 52943 495200
63 917777 729550
64 137210 315833
65 68173 544402
66 288716 621267
67 272743 331356
68 109211 790318
69 481651 821973
70 978062 917261
71 1020950 907052
72 889638 481599
73 92496 361724
74 333692 704728
75 410100 817818
76 541057 518122
77 174829 136055
78 496451 653926
79 172801 176471
80 999459 888749
81 391912 843848
82 526171 531983
83 922308 687402
84 454437 830410
85 177215 141480
86 961527 689993
87 227871 360001
88 132406 308171
89 890286 583084
90 508865 662401
91 488844 866496
92 239274 59680
93 221195 350038
94 852729 457371
95 876964 419333
96 487242 793416
97 106864 772814
98 132789 328081
99 207682 390574
100 271705 405891
101 -12769 492063
102 29474 701524
103 109773 816186
104 101144 857120
105 913463 562488
106 68060 697235
107 12341 495000
108 71266 651649
109 256706 29506
110 898261 504318
111 1013207 878714
112 316627 694069
113 1000515 726413
114 463058 628775
115 56344 684129
116 51224 672388
117 1045 671260
118 448032 826332
119 121921 399478
120 871550 426224
121 473562 596817
122 101362 732649
123 864157 522145
124 15641 501172
125 190716 123480
126 239945 100281
127 913903 416707
128 145221 326911
129 176242 122025
130 475641 860714
131 42881 727715
132 418899 843015
133 359482 658121
134 523658 490089
135 933883 720680
136 120815 815842
137 169436 145393
138 452259 848547
139 542395 559696
140 968656 936492
141 440751 843636
142 27023 464972
143 830915 582932
144 176933 168348
145 293826 644250
146 577055 519146
147 935865 632021
148 104849 813761
149 155787 154673
150 455679 809401
151 126591 399008
152 99608 346741
153 912413 446248
154 518887 544995
155 -12903 506577
156 499058 652301
157 243769 358889
158 858946 572983
159 205829 27185
160 848358 454014
161 325433 635056
162 948920 704867
163 969640 773706
164 125718 816885
165 971572 686969
166 72846 777400
167 312845 679836
168 520771 460509
169 962435 885769
170 173797 142118
171 53633 664965
172 513632 647708
173 488887 823838
174 524256 654786
175 901510 465896
176 488180 621548
177 867914 614884
178 865454 418329
179 837496 508225
180 524252 478991
181 175953 147329
182 44490 513738
183 122521 371094
184 805194 397624
185 177749 201114
186 427556 835605
187 366146 663097
188 167057 144608
189 428822 859123
190 45796 667207
191 1020002 892162
192 461234 821860
193 459939 657961
194 835723 544398
195 880679 405795
196 48244 671478
197 57234 477409
198 265147 319666
199 901544 397022
200 87233 327033
201 198999 70577
202 945838 663183
203 495680 606701
204 226065 40116
205 110341 366466
206 164444 122396
207 170122 146740
208 519395 644863
209 133637 343386
210 489733 833574
211 956838 874221
212 214703 64197
213 881271 358211
214 439210 841836
215 42388 706797
216 530348 539811
217 510982 661038
218 235557 73962
219 431956 794798
220 479670 451956
221 957367 723029
222 51886 701902
223 842987 342474
224 326058 673810
225 256009 47843
226 507364 634476
227 977458 923984
228 850772 423327
229 8553 676210
230 28951 549661
231 17095 710591
232 234941 136430
233 85234 726234
234 509376 438944
235 462818 821758
236 533935 658411
237 257869 363312
238 347272 681180
239 38420 728891
240 45345 685032
241 227041 86348
242 855359 548473
243 118820 825692
244 62655 826745
245 874874 522044
246 79558 455171
247 86589 444947
248 949213 877968
249 972243 731317
250 492248 824891
251 37064 675300
252 322603 638341
253 856766 580199
254 216941 359366
255 61651 718716
256 233327 75840
257 350630 634222
258 252798 334209
259 550687 487537
260 366874 667853
261 121876 820652
262 154489 333413
263 175384 106822
264 441531 831961
265 1009008 917566
266 1002929 647474
267 456370 778881
268 238604 371583
269 255331 362269
270 849947 538497
271 955865 873644
272 261113 350533
273 871351 534736
274 858774 432577
275 870930 424508
276 33068 669107
277 1057547 894093
278 54037 687755
279 70313 675385
280 233422 354809
281 957352 734799
282 417730 846762
283 536671 468807
284 440588 830585
285 1015840 892228
286 252170 328370
287 -5007 646183
288 444187 825602
289 191443 66835
290 497451 886792
291 98382 693096
292 831290 544221
293 9051 717133
294 28819 706655
295 1020367 880869
296 945288 716028
297 211231 97662
298 362395 682014
299 479656 813160
300 870433 454003
301 495217 632272
302 953163 779203
303 25282 507233
304 542302 501642
305 90230 725508
306 256620 352026
307 237971 77846
308 244040 326054
309 1002849 917724
310 110440 799421
311 554297 466624
312 28496 720108
313 939860 880917
314 859978 528031
315 8852 716343
316 932026 705462
317 922826 444528
318 973142 914782
319 470212 639209
320 860946 529566
321 174025 109175
322 60454 495275
323 67199 712144
324 929228 459747
325 447420 783079
326 468422 852082
327 519053 618555
328 858612 585588
329 550310 695957
330 879869 387387
331 43044 682997
332 506081 827925
333 417303 818826
334 970776 702075
335 228546 28136
336 533990 658764
337 176112 157384
338 137723 121294
339 249774 358841
340 517990 649257
341 177433 79110
342 987470 913994
343 90109 789106
344 508322 666255
345 500080 634435
346 946998 683253
347 82649 775277
348 837720 429122
349 878563 536881
350 239842 92872
351 176842 147042
352 449953 623115
353 88530 824481
354 202658 381635
355 244192 392654
356 323840 655368
357 1001866 761395
358 933105 696544
359 264487 343191
360 906818 430281
361 499062 646032
362 90165 377981
363 468585 629822
364 543731 494027
365 334898 683196
366 241352 146818
367 541255 512917
368 991558 898885
369 509549 538045
370 77597 675658
371 83832 760038
372 450552 823189
373 129019 822228
374 203145 180715
375 511960 526539
376 169493 141039
377 442521 796612
378 524921 488783
379 505841 515771
380 234035 68989
381 230093 313683
382 32692 689368
383 348253 662673
384 249676 356744
385 73354 527365
386 516562 641335
387 92160 382924
388 991725 920553
389 125817 340001
390 107116 356938
391 141207 183033
392 495562 531154
393 130822 359328
394 66459 659541
395 288496 684845
396 954687 643625
397 911270 700829
398 888901 406966
399 987736 867858
400 824572 565226
401 302234 667540
402 122791 383589
403 313620 666142
404 987422 898070
405 286665 80439
406 525410 687204
407 987097 855164
408 947889 902953
409 374264 701221
410 244479 341852
411 953733 746599
412 868523 420071
413 872837 418455
414 981922 885909
415 211385 126566
416 833957 552901
417 180394 231648
418 967968 705669
419 533592 576236
420 481836 677357
421 25646 491409
422 156116 119326
423 525481 682882
424 236409 60767
425 896823 407963
426 14612 495004
427 459681 820722
428 543895 682992
429 475673 834077
430 828669 427144
431 871852 545086
432 92752 680246
433 112293 368274
434 862446 478860
435 510857 671068
436 904270 690465
437 373242 699306
438 85155 732039
439 951723 705315
440 244341 80348
441 982260 843243
442 161467 364041
443 271006 320911
444 168250 129410
445 958861 751951
446 546265 517392
447 210200 105131
448 63294 654490
449 128072 325522
450 184523 168353
451 487700 633018
452 1029233 860057
453 239694 354010
454 527309 508819
455 64855 708400
456 324747 631453
457 533715 519144
458 994542 657271
459 11445 486408
460 201651 156591
461 506092 666277
462 527194 510600
463 236195 365968
464 153022 802126
465 160031 139254
466 484016 619359
467 235247 39914
468 873794 394490
469 140102 198295
470 37369 685584
471 96332 848719
472 83223 824770
473 223141 343975
474 -36243 510740
475 34995 723649
476 125673 132064
477 969742 781325
478 971530 701567
479 540328 497687
480 5283 475341
481 859566 540763
482 25137 473777
483 503189 605287
484 919764 732138
485 224752 350988
486 960456 704745
487 966545 909578
488 472991 851364
489 1014916 912410
490 892563 700781
491 381334 644567
492 439606 843822
493 175870 98033
494 81200 772506
495 169139 151981
496 336240 673004
497 485466 661299
498 89749 667189
499 489506 818886
500 40323 486646
501 557924 482414
502 891912 539021
503 76437 672549
504 571689 487587
505 951664 660076
506 512592 487398
507 82140 671999
508 144017 117092
509 566430 522907
510 241194 86592
511 996911 908247
512 1004970 877141
513 201587 95516
514 -2636 545061
515 103374 354001
516 79535 717113
517 521240 517936
518 252547 48327
519 322313 657137
520 257360 95547
521 103516 684069
522 520020 512102
523 573854 504025
524 166879 128322
525 119622 129878
526 864087 418118
527 455547 851654
528 925993 702526
529 953454 662908
530 235907 56265
531 109154 339306
532 409467 805356
533 -19100 526731
534 232801 367026
535 129078 382295
536 84140 841318
537 447800 811212
538 498123 574329
539 241417 366206
540 200577 44121
541 533165 504730
542 486441 661500
543 320806 743786
544 75984 662966
545 60191 502530
546 893640 560469
547 280553 365869
548 223573 337952
549 247602 142999
550 236367 333776
551 498284 697331
552 181932 172390
553 850918 505655
554 61094 705701
555 221303 59520
556 241914 341577
557 879523 420536
558 198192 46555
559 866392 522294
560 327003 696928
561 483285 661327
562 289789 66353
563 80784 332134
564 298471 130266
565 164922 122645
566 984723 740566
567 982274 892007
568 85462 674967
569 286505 104119
570 447871 800579
571 506104 629089
572 275770 46103
573 319436 651227
574 243621 387896
575 55379 816695
576 74114 830626
577 990876 697981
578 517412 674549
579 63691 779058
580 29094 681027
581 94050 810484
582 56066 656680
583 991126 893683
584 155915 351387
585 888470 526034
586 420962 806291
587 447349 836794
588 208972 351358
589 1033905 883998
590 883503 554872
591 297497 661690
592 160899 362883
593 105589 379257
594 109961 333325
595 20381 503480
596 476377 795547
597 876889 582985
598 557239 511594
599 929451 714827
600 827089 498088
601 953155 730276
602 520652 636806
603 118450 800278
604 213894 337912
605 561278 508358
606 980501 879970
607 446420 790496
608 925167 684421
609 478285 705664
610 10840 549275
611 80430 659256
612 923577 731737
613 898868 421099
614 862736 552154
615 50755 490364
616 240185 290881
617 941822 681777
618 179747 120366
619 887426 425309
620 50619 474911
621 991833 890445
622 897497 539719
623 237948 69889
624 22296 456279
625 200922 344149
626 288052 367081
627 72806 670230
628 96078 811352
629 444763 838108
630 253487 34221
631 114035 408306
632 426419 847822
633 957972 691866
634 214184 368725
635 128654 787006
636 953753 654128
637 877738 449384
638 234016 30227
639 1041922 879343
640 966710 845036
641 153672 169248
642 -38444 490099
643 1035755 913414
644 476873 678023
645 922963 429023
646 28411 442172
647 841084 528062
648 472010 855785
649 504236 660756
650 1015687 887642
651 381741 660738
652 36257 512804
653 345971 608239
654 834821 578200
655 91587 394464
656 38983 682890
657 969644 864249
658 117879 412821
659 543893 502483
660 489613 620194
661 17629 459340
662 335041 676618
663 123474 823798
664 219869 368798
665 980528 720097
666 250862 318766
667 356023 639591
668 859743 411355
669 -5060 536610
670 134527 140611
671 543132 489700
672 191730 115676
673 943057 707953
674 325117 687951
675 54930 507237
676 333308 631909
677 1011555 913353
678 967801 714697
679 48496 696758
680 207625 373852
681 70264 645323
682 194406 126755
683 102915 787402
684 77736 354034
685 946908 690789
686 487846 616527
687 54300 716657
688 467854 676697
689 265543 60814
690 480003 563109
691 831667 563262
692 36531 516227
693 924788 682454
694 263249 349142
695 309849 680738
696 435830 890663
697 319738 628789
698 222994 75775
699 370741 692017
700 514255 501680
701 265575 104206
702 534617 633986
703 236612 297020
704 816236 552637
705 261671 49087
706 -2256 538030
707 545026 498654
708 864215 363234
709 258606 343352
710 208846 95202
711 954351 725198
712 227427 43582
713 88010 716134
714 235101 86091
715 24390 522210
716 320720 675218
717 947424 689747
718 296239 618521
719 101657 817048
720 557213 487177
721 76521 697719
722 414700 849864
723 118983 345961
724 466954 677885
725 209899 90618
726 141561 105736
727 914115 714162
728 233344 105296
729 16100 497713
730 80088 796885
731 116586 795110
732 232242 393551
733 357154 635682
734 572172 506587
735 980903 704365
736 430932 773578
737 218883 364528
738 69122 784731
739 227722 78983
740 932717 674333
741 108105 391750
742 989249 886156
743 525563 488856
744 552745 488118
745 364891 632924
746 180210 113728
747 52504 654107
748 851243 589231
749 479635 672052
750 119511 329929
751 137149 770290
752 873946 463935
753 857379 418167
754 489 468895
755 344048 660362
756 278529 335159
757 272750 92935
758 445644 817405
759 219627 335051
760 478865 644918
761 873752 410208
762 457220 826169
763 982057 858686
764 118417 325694
765 470251 687968
766 855721 584727
767 920992 713988
768 347936 657982
769 991536 878444
770 461210 681293
771 920783 710221
772 98471 677221
773 568814 477751
774 514326 503601
775 1003043 884938
776 312633 639389
777 885193 398908
778 1009951 937771
779 22397 539194
780 825498 582302
781 556212 543065
782 971342 879018
783 928271 705040
784 995242 864827
785 451657 812134
786 862148 429780
787 151992 336189
788 259607 381875
789 231898 357755
790 999288 844292
791 230875 350375
792 503714 672094
793 889281 415414
794 540990 480087
795 978405 885748
796 109599 796810
797 362221 681747
798 132965 378160
799 894366 417412
800 375726 635401
801 988220 858713
802 474601 816889
803 55436 709742
804 544215 469351
805 249932 391920
806 456550 656829
807 889291 413523
808 73479 824598
809 546912 498011
810 173121 153816
811 339461 678727
812 180432 107523
813 200940 178405
814 97151 812359
815 -4179 473907
816 555183 512282
817 202068 65559
818 13571 481806
819 79787 838696
820 517668 682921
821 115033 362495
822 72349 732288
823 224002 122287
824 189023 128098
825 857164 537539
826 973595 894359
827 311316 663350
828 916062 699755
829 6561 481846
830 205937 98239
831 255749 347983
832 -11230 526946
833 175034 135375
834 22960 525295
835 919681 697953
836 173746 165123
837 847150 561779
838 265525 363869
839 487643 716200
840 878667 388763
841 964925 903353
842 931317 728650
843 522596 687296
844 115977 374572
845 1002217 862895
846 835706 548719
847 83454 780951
848 307435 669752
849 867764 547376
850 7779 457360
851 65628 777768
852 904061 569180
853 233843 63570
854 236670 354277
855 168625 131392
856 518877 634756
857 865752 521375
858 977256 735283
859 55959 704508
860 534364 507661
861 60417 724079
862 190571 166013
863 1023360 902500
864 315066 661034
865 18284 518482
866 257975 359168
867 182254 134984
868 15405 474762
869 971569 761191
870 835204 395336
871 853898 406140
872 265654 35799
873 826586 558210
874 111202 774692
875 76361 496733
876 345775 659239
877 222423 23180
878 920354 432333
879 847322 530077
880 202250 168531
881 112510 773323
882 532510 644370
883 164167 151809
884 858321 566129
885 67796 655589
886 254866 383504
887 107986 324036
888 846911 419320
889 883759 380974
890 529746 691455
891 12751 477598
892 88084 785661
893 964848 918245
894 348986 655913
895 405562 825344
896 252712 77031
897 83750 638783
898 531353 492308
899 883336 405752
900 17315 533684
901 149346 128572
902 866772 363435
903 88122 384179
904 495632 668242
905 1004840 869852
906 35540 710394
907 410870 843472
908 524563 641114
909 569291 539848
910 832594 569660
911 256217 82190
912 130759 332685
913 932732 721493
914 851358 412466
915 873557 414839
916 892339 436328
917 904714 443814
918 8026 514382
919 535593 493366
920 489133 662907
921 -40001 478265
922 429332 853663
923 22372 503654
924 149611 135204
925 171104 396922
926 477783 621075
927 122880 338698
928 940431 706658
929 871523 433448
930 519374 666734
931 487745 835328
932 153352 110952
933 550030 519739
934 354537 671370
935 127738 383264
936 195275 51761
937 328994 683737
938 190745 132400
939 75864 681306
940 29915 475747
941 547421 515890
942 315762 652087
943 30034 638576
944 7853 529130
945 25895 549692
946 869906 433203
947 127295 101366
948 534190 539435
949 885507 355218
950 320224 651726
951 67061 749659
952 89694 789323
953 261686 380564
954 400746 817950
955 188565 146071
956 31700 649748
957 -1990 693635
958 27239 672647
959 138272 340184
960 264477 352660
961 955319 673627
962 235564 8632
963 450244 860040
964 154328 150784
965 120104 815876
966 443904 808615
967 506451 696396
968 158358 389098
969 69582 491101
970 29222 694730
971 1008079 867955
972 225393 53056
973 8605 468844
974 245166 319592
975 241536 354852
976 552685 493361
977 68287 354132
978 208665 39295
979 -276 478790
980 489678 672223
981 984148 933345
982 1000076 889583
983 105594 337267
984 82652 665428
985 413700 795563
986 15594 531462
987 42839 733763
988 67902 829364
989 582962 519337
990 6804 744647
991 310299 344208
992 402444 675595
993 81168 783211
994 241426 85886
995 248149 43842
996 485230 644599
997 21909 704360
998 54572 400620
999 297851 678685
1000 549898 519292
1001 875963 416559
1002 97926 800709
1003 23618 457624
1004 118287 803107
1005 952154 694215
1006 200000 308491
1007 20008 502784
1008 983166 919528
1009 797733 523133
1010 849463 366333
1011 906106 423359
1012 979715 858709
1013 532229 521320
1014 26739 528652
1015 197980 158330
1016 98968 800521
1017 994215 883101
1018 142437 768539
1019 889164 398628
1020 311434 722630
1021 953602 694756
1022 543560 482316
1023 192484 314068
1024 213077 96147
1025 43102 734499
1026 968591 723979
1027 203174 132172
1028 534271 511022
1029 5044 503457
1030 212039 197254
1031 947422 687217
1032 69660 692146
1033 203838 93026
1034 292177 347884
1035 491133 674468
1036 828933 553038
1037 118454 766336
1038 131837 309205
1039 155279 809526
1040 39027 516588
1041 870360 565205
1042 114811 349552
1043 203463 367269
1044 877470 406130
1045 217182 378360
1046 565394 488494
1047 441841 868360
1048 73694 813950
1049 206248 334953
1050 440399 620390
1051 104841 822280
1052 854905 413730
1053 948592 902394
1054 101955 359095
1055 33671 712671
1056 170107 109334
1057 863599 579211
1058 859451 403252
1059 494732 627138
1060 86984 713636
1061 891060 542396
1062 268728 110808
1063 837729 431012
1064 855506 556960
1065 888855 400935
1066 280361 98453
1067 113834 811810
1068 224476 384757
1069 36633 710548
1070 49272 523217
1071 539306 464562
1072 55467 812160
1073 809940 537440
1074 -7679 524591
1075 920081 685698
1076 30585 694317
1077 999309 916338
1078 243705 65839
1079 29805 484621
1080 938276 726723
1081 1009223 863839
1082 889023 498745
1083 75202 635634
1084 354483 634170
1085 813066 562393
1086 198925 117077
1087 481732 674467
1088 73257 770112
1089 473278 819693
1090 332759 641778
1091 151100 157059
1092 543732 492438
1093 15514 494609
1094 848570 408168
1095 833959 570613
1096 539962 663820
1097 960246 708491
1098 816228 557556
1099 260746 357178
1100 330234 675100
1101 432138 638127
1102 511431 509362
1103 830931 546963
1104 161725 129708
1105 310146 673049
1106 532075 478673
1107 208090 76797
1108 87640 314763
1109 986900 868045
1110 938430 752272
1111 514386 678439
1112 895584 409966
1113 850902 549133
1114 122222 157778
1115 835139 542935
1116 168023 124165
1117 26913 480485
1118 328305 649790
1119 104361 326153
1120 504268 505419
1121 340808 688697
1122 998736 719473
1123 34366 708806
1124 243029 82053
1125 471758 689608
1126 298811 665281
1127 94558 796819
1128 363284 620659
1129 227595 70226
1130 55942 787898
1131 101772 666709
1132 239671 95442
1133 951207 700441
1134 874739 528127
1135 883782 532794
1136 88231 828541
1137 472393 673242
1138 977230 702125
1139 51218 494854
1140 864626 560046
1141 171227 129838
1142 93121 824071
1143 107485 801982
1144 995117 896019
1145 237762 63093
1146 540535 521141
1147 166559 121026
1148 172357 335782
1149 480306 668185
1150 163958 313330
1151 -3669 461563
1152 585583 502679
1153 282392 375365
1154 452496 834141
1155 240615 37864
1156 78884 800727
1157 385717 625734
1158 502246 637157
1159 469681 861986
1160 443419 811087
1161 151798 118800
1162 195399 157661
1163 168745 112930
1164 199701 120591
1165 506698 607840
1166 318478 643715
1167 28378 697169
1168 573473 561604
1169 342168 660155
1170 238749 38001
1171 48647 860473
1172 898811 723870
1173 201595 25224
1174 904040 757915
1175 21512 494618
1176 158032 175833
1177 144846 332358
1178 59371 681219
1179 486069 705519
1180 360884 703005
1181 357462 652477
1182 10313 691543
1183 318608 647777
1184 122126 831370
1185 322553 694189
1186 473331 810738
1187 255655 351871
1188 40369 699558
1189 86578 778789
1190 525350 520504
1191 258866 378422
1192 509381 518468
1193 93845 368109
1194 31968 468756
1195 54130 647186
1196 967616 853291
1197 514774 652359
1198 857676 412386
1199 386170 629893
1200 134831 417654
1201 331085 687748
1202 508395 498309
1203 261480 329128
1204 93649 786060
1205 71592 340620
1206 831323 576268
1207 66237 636275
1208 518224 578066
1209 545495 532825
1210 863913 453654
1211 1019152 850001
1212 71442 807029
1213 350329 662693
1214 73715 814787
1215 887205 433458
1216 490517 765364
1217 942604 373373
1218 435724 614605
1219 222128 83377
1220 153626 390352
1221 866586 549154
1222 943182 682186
1223 549923 502273
1224 88318 344659
1225 79304 380603
1226 301213 683497
1227 65599 670401
1228 233140 50188
1229 131085 365861
1230 68955 838340
1231 940122 894317
1232 220917 195557
1233 225492 379131
1234 76158 817364
1235 841114 424798
1236 952425 716683
1237 520024 649176
1238 574696 506182
1239 994849 894966
1240 98779 380493
1241 178717 132558
1242 1012399 919967
1243 199059 94961
1244 251770 64061
1245 188358 184003
1246 210801 156103
1247 94476 341220
1248 886419 444429
1249 225395 79509
1250 114070 780714
1251 851540 442844
1252 2683 506183
1253 338908 654272
1254 335099 646490
1255 462567 848049
1256 127625 344216
1257 237266 324398
1258 240172 47917
1259 39983 643860
1260 56261 752698
1261 488483 663857
1262 234084 357051
1263 494290 656142
1264 902439 555134
1265 245968 82301
1266 985287 720320
1267 368480 635604
1268 921827 704006
1269 146029 764688
1270 558732 535460
1271 860995 534292
1272 16435 474026
1273 44148 715880
1274 564126 522915
1275 434877 785918
1276 980031 877615
1277 931321 716516
1278 83047 759107
1279 116189 374066
1280 180296 122545
1281 834775 538365
1282 531174 626997
1283 440706 831867
1284 5763 482005
1285 871240 423161
1286 233000 37960
1287 211054 353564
1288 460290 837378
1289 174136 168529
1290 15375 530159
1291 891069 543665
1292 972379 941078
1293 134187 390527
1294 11753 501703
1295 53630 786227
1296 979525 873480
1297 485532 516632
1298 997102 861923
1299 961241 895666
1300 848598 499495
1301 240136 65631
1302 314621 615871
1303 886012 563958
1304 319526 694588
1305 527654 662654
1306 71814 776410
1307 885045 517667
1308 973052 706391
1309 200170 411355
1310 220126 81334
1311 198352 365592
1312 20979 439824
1313 369946 661977
1314 508055 684274
1315 856227 426828
1316 891898 569053
1317 994286 881758
1318 23643 475588
1319 70700 797427
1320 87583 807294
1321 506257 661339
1322 973333 664816
1323 506993 484149
1324 275676 387905
1325 98737 784735
1326 475965 624715
1327 275071 326841
1328 863541 464964
1329 465082 813342
1330 849741 613923
1331 819262 491320
1332 894964 455769
1333 878096 419693
1334 884991 444658
1335 510438 508330
1336 310541 632066
1337 238924 129558
1338 361419 663562
1339 878024 562672
1340 37758 480231
1341 946262 645079
1342 313178 665285
1343 314304 675097
1344 521861 467449
1345 236707 63387
1346 25893 495856
1347 853159 538689
1348 331561 664600
1349 511358 508382
1350 156390 805651
1351 47338 658939
1352 877979 417349
1353 828249 493357
1354 432029 819877
1355 39120 507370
1356 476881 855759
1357 831671 566732
1358 1017028 930930
1359 868028 532676
1360 510555 684903
1361 165998 126283
1362 283413 648877
1363 941686 690911
1364 867186 381418
1365 113130 789380
1366 862762 395070
1367 225023 409041
1368 138844 406775
1369 273066 601483
1370 8768 507245
1371 874282 420805
1372 463270 828985
1373 990696 876015
1374 201309 53279
1375 437093 645443
1376 216179 53861
1377 418158 880837
1378 42360 677615
1379 224137 80914
1380 103529 769822
1381 348559 679840
1382 188116 113509
1383 171801 358995
1384 551701 543321
1385 534561 468260
1386 953036 901224
1387 1025794 900674
1388 26080 655981
1389 826774 549560
1390 900150 412141
1391 87247 826454
1392 277980 93922
1393 1018227 882020
1394 329854 627139
1395 879999 434188
1396 547941 677773
1397 301171 680763
1398 51348 496874
1399 990622 906190
1400 882182 434543
1401 446717 813621
1402 243913 399068
1403 77991 717677
1404 44024 654428
1405 250189 62526
1406 807922 501214
1407 62686 681154
1408 25913 457456
1409 915619 702162
1410 188936 374048
1411 25509 467316
1412 427679 870584
1413 933796 738582
1414 337251 717981
1415 360145 630085
1416 169029 123380
1417 3528 485898
1418 886872 467304
1419 478575 645557
1420 298520 648319
1421 243818 365713
1422 49996 678030
1423 543500 466192
1424 147194 341194
1425 484148 658597
1426 66397 321329
1427 996371 893572
1428 853605 444925
1429 543867 524529
1430 197413 106698
1431 184251 118389
1432 107125 360705
1433 555502 621439
1434 516054 490301
1435 346396 645983
1436 218300 344639
1437 994619 879168
1438 950055 725651
1439 -13273 491793
1440 521359 503844
1441 197800 119784
1442 903630 410979
1443 492611 661094
1444 102347 809377
1445 444353 644064
1446 867838 409962
1447 440580 831565
1448 486522 621243
1449 98538 817016
1450 1036652 902702
1451 76472 779562
1452 65952 681036
1453 825291 528877
1454 -13608 454518
1455 236265 312586
1456 192066 68352
1457 -2878 694909
1458 185527 143348
1459 115765 388809
1460 215663 39713
1461 452289 870278
1462 501824 645226
1463 253407 23851
1464 303296 373366
1465 543557 535502
1466 233541 77398
1467 541223 516781
1468 963629 703087
1469 1039235 918059
1470 -1399 665069
1471 339933 668386
1472 494802 626330
1473 39882 759127
1474 546833 547018
1475 370443 692164
1476 1006065 917722
1477 309623 693837
1478 432087 815813
1479 125960 795242
1480 846850 414466
1481 987144 669152
1482 163844 136931
1483 452665 838152
1484 154031 198522
1485 869699 529720
1486 77015 807533
1487 171515 380666
1488 27673 676091
1489 923530 732567
1490 864992 416782
1491 846802 396665
1492 17677 537636
1493 827259 554686
1494 72161 658146
1495 82518 350620
1496 358592 635115
1497 474198 717818
1498 490780 678496
1499 465957 798314
1500 278073 368180
