NAME : portcgen-800-810
COMMENT : portcgen N=800, seed=810
TYPE : TSP
DIMENSION : 800
EDGE_WEIGHT_TYPE : EUC_2D
NODE_COORD_SECTION
1 396105 532010
2 240525 406616
3 180196 -9357
4 852323 647859
5 264243 246236
6 380773 524897
7 389655 508931
8 336905 243400
9 838550 740225
10 863633 836888
11 356855 527452
12 194920 33932
13 911497 780043
14 181558 113436
15 163142 29865
16 207057 422968
17 393572 530472
18 222597 32813
19 611505 90698
20 876260 719804
21 856085 774386
22 353308 541786
23 322512 221420
24 798789 757030
25 281694 154675
26 338014 556721
27 860927 737744
28 257019 483445
29 896432 793295
30 212363 806744
31 872948 710436
32 668162 120539
33 189135 86703
34 231404 173196
35 860792 742305
36 278763 255972
37 268504 212685
38 168239 19813
39 865858 747635
40 242747 800626
41 237447 154975
42 625109 54542
43 129974 134316
44 241704 417703
45 249906 840064
46 851436 754756
47 364301 560740
48 176824 -8453
49 273495 366454
50 217491 25185
51 894087 718579
52 295660 195777
53 286747 229827
54 232909 400590
55 668473 47997
56 573419 47630
57 872303 777719
58 209478 428416
59 235947 76660
60 194626 88748
61 261196 209459
62 917604 822844
63 663485 24818
64 323621 579615
65 895777 748532
66 384559 552421
67 356130 496769
68 956580 755962
69 257256 407997
70 153438 59219
71 645840 32705
72 143271 22034
73 156949 55411
74 293077 438042
75 414999 498860
76 290549 168043
77 852015 753991
78 651831 125098
79 251086 826007
80 329276 458513
81 939278 746441
82 374177 481636
83 879412 756587
84 215749 412321
85 318392 192018
86 807598 767720
87 772378 717543
88 616373 122055
89 360387 545170
90 362889 535882
91 634994 75772
92 256412 158066
93 304966 214228
94 815078 730281
95 141651 856027
96 313221 190248
97 665832 160678
98 285008 490286
99 785530 762778
100 360980 519391
101 824615 730305
102 299746 507338
103 243872 368767
104 831119 715644
105 236684 780304
106 299925 216301
107 761933 716066
108 847019 731129
109 336314 573751
110 209324 430507
111 279741 217571
112 918460 784440
113 609252 84425
114 870995 771636
115 899596 799141
116 222610 184792
117 259244 141869
118 404289 570021
119 335959 500386
120 869917 765996
121 632552 73440
122 668425 122029
123 233831 460425
124 654211 37658
125 220722 22501
126 365233 588364
127 268095 836160
128 857259 726064
129 803516 800803
130 393669 566288
131 209836 57771
132 159076 107817
133 141247 46892
134 156503 825591
135 169830 103915
136 197722 822978
137 291837 141245
138 656237 77910
139 245530 147730
140 291219 564730
141 358597 519389
142 800516 705942
143 680404 91123
144 275299 778843
145 832968 758215
146 247223 -306
147 735653 128178
148 658761 47429
149 809998 727288
150 817708 761916
151 259831 433822
152 251221 467680
153 258198 796157
154 414308 491689
155 195504 859045
156 195836 767608
157 259738 840765
158 250291 843658
159 664628 92944
160 806926 673494
161 253518 202719
162 863298 693548
163 282100 412208
164 164844 54543
165 237657 813200
166 243700 414330
167 847494 768997
168 284407 444239
169 399904 487482
170 578383 58885
171 216426 821595
172 246184 459267
173 838242 680318
174 257719 857277
175 324655 187527
176 272062 428994
177 299751 545832
178 166562 85075
179 257082 854488
180 803200 752479
181 871191 714396
182 791330 687633
183 382012 554044
184 213751 488101
185 856967 715284
186 314600 257964
187 390095 495822
188 297895 269234
189 372529 553015
190 211203 84805
191 254015 380323
192 221753 87308
193 159340 36387
194 238967 843569
195 893573 747910
196 812336 736383
197 628507 8926
198 219150 826815
199 660779 101171
200 188292 443318
201 274930 266599
202 285927 545935
203 267179 196363
204 852343 723646
205 327753 404760
206 273390 258754
207 650728 63986
208 366005 552630
209 925733 762622
210 201539 220101
211 242142 236725
212 201117 -3700
213 823297 752135
214 670142 78686
215 655589 83421
216 193770 810099
217 167213 16048
218 195159 824699
219 656518 39433
220 195213 854401
221 194344 50930
222 904307 772532
223 259440 237264
224 292544 222604
225 191785 199313
226 829217 726509
227 252593 206314
228 847690 751754
229 190847 7850
230 908503 732900
231 291372 449263
232 879410 771852
233 197016 30001
234 163430 781665
235 227320 440165
236 860873 737349
237 864407 800684
238 654923 52572
239 227080 171393
240 141714 70236
241 169636 37948
242 314688 196823
243 181248 1959
244 287653 476377
245 298054 425452
246 292677 419672
247 275159 560853
248 329612 168665
249 280237 205848
250 693513 60662
251 262612 446109
252 247513 736991
253 175965 820428
254 361757 549713
255 894848 826905
256 229035 449131
257 208597 62879
258 290961 165094
259 79270 19137
260 166950 24432
261 274262 822126
262 239125 836719
263 220820 465080
264 311807 223668
265 255602 152131
266 648283 59414
267 186715 78468
268 258815 793402
269 806925 866836
270 654299 83478
271 170526 42166
272 238889 388709
273 282017 452294
274 245475 425291
275 250406 770933
276 235662 51167
277 313623 848651
278 360451 505238
279 282952 177930
280 389090 509609
281 331696 512855
282 602570 102533
283 251127 221985
284 310658 188745
285 676493 73365
286 412331 506944
287 682932 -2642
288 245814 460561
289 635443 100055
290 881319 739648
291 237984 359536
292 672507 67237
293 162762 814600
294 216608 391771
295 589914 51489
296 190832 837244
297 400062 530707
298 892829 775600
299 223994 91243
300 861092 738319
301 263869 440401
302 397024 546379
303 258447 456911
304 425656 519975
305 358450 553740
306 181926 466155
307 817174 765818
308 221431 758805
309 826350 766791
310 265510 422495
311 323587 552906
312 294627 238692
313 833429 762328
314 274227 484254
315 270035 244829
316 309115 197275
317 846528 830874
318 375286 600566
319 650795 95502
320 307755 175193
321 791251 755902
322 927051 707615
323 319734 156916
324 335332 536644
325 438715 519131
326 175976 8600
327 798772 714822
328 336584 493953
329 322956 511274
330 193263 369742
331 291745 119877
332 369799 533120
333 857825 752036
334 623802 90274
335 848073 709371
336 370695 539701
337 343099 546962
338 219663 353243
339 372282 505759
340 234119 419592
341 167160 72882
342 323066 565869
343 685010 99833
344 222220 396137
345 244389 449881
346 863647 727726
347 747002 21739
348 278921 427592
349 802639 712521
350 196512 31495
351 633357 80784
352 180347 19419
353 148483 21537
354 250677 800671
355 417195 598165
356 259623 247802
357 664660 46796
358 384104 558941
359 288927 776860
360 238087 372078
361 190998 14842
362 663415 37932
363 240258 -5588
364 290554 176577
365 339629 229415
366 905177 734931
367 188856 16398
368 439614 508851
369 256875 423846
370 284038 92747
371 365470 564869
372 641169 136796
373 199574 81454
374 615325 67637
375 868253 832193
376 263987 887444
377 654147 92797
378 862458 665915
379 876420 781049
380 671517 130522
381 174367 78527
382 325339 570336
383 261834 444926
384 134940 56455
385 432482 527081
386 229393 884380
387 131504 77468
388 925314 789844
389 930800 780002
390 639527 43930
391 194777 793984
392 652765 80146
393 640727 147657
394 255925 139807
395 220117 28483
396 208460 435
397 246759 56917
398 259252 396426
399 258304 409915
400 797692 748392
401 194693 878060
402 889222 687113
403 275633 425973
404 242084 461381
405 638785 58424
406 835517 733168
407 346014 542451
408 332232 437458
409 352200 533512
410 190978 29959
411 370735 592750
412 232546 451418
413 755909 766876
414 232603 784028
415 277183 172833
416 802736 815758
417 658605 119841
418 316678 256009
419 706305 96845
420 245834 421724
421 891712 796218
422 279528 436184
423 301803 556765
424 272242 184384
425 197947 806838
426 654350 132033
427 703253 103785
428 236314 169547
429 197417 54526
430 595895 87765
431 283534 186348
432 924040 773427
433 341625 497353
434 349792 544389
435 425920 522250
436 194019 43075
437 232229 432059
438 907920 787953
439 332762 562333
440 223779 435066
441 146695 110410
442 227126 420184
443 193101 852061
444 864279 698455
445 268977 174412
446 894404 757352
447 314532 530858
448 844177 720213
449 276550 259535
450 315913 259268
451 874717 760357
452 213387 775115
453 290356 371767
454 806523 732512
455 921687 815598
456 191750 832546
457 691971 70318
458 331015 530511
459 246732 348802
460 275982 442603
461 648646 87288
462 221521 847257
463 804641 710153
464 571043 98406
465 230475 760498
466 273225 175372
467 650502 86459
468 242035 454064
469 139612 32007
470 173238 21408
471 401621 592342
472 299517 148677
473 149236 71355
474 210540 807438
475 223940 763708
476 253524 447368
477 258918 815055
478 639308 30599
479 151796 20829
480 358242 576175
481 861888 756314
482 219708 800613
483 193199 819131
484 175047 -6002
485 360481 533109
486 867025 758601
487 357928 503753
488 823258 759828
489 840063 700937
490 713230 104298
491 190861 839602
492 145671 32053
493 267250 173459
494 935753 805235
495 849447 706901
496 691171 60743
497 339029 511011
498 255813 397964
499 287408 220787
500 296280 150451
501 813084 753071
502 678576 121323
503 253742 216460
504 226563 444893
505 396656 520680
506 239661 835349
507 786996 698281
508 212469 743243
509 198630 58981
510 817957 706202
511 240544 5773
512 293603 440668
513 895920 786492
514 858761 772493
515 314389 178435
516 223962 788066
517 298889 580170
518 195735 754912
519 796522 744493
520 774216 825918
521 196777 804533
522 893917 759704
523 267016 434495
524 265180 178169
525 193382 43519
526 845241 700524
527 302686 155961
528 697661 77468
529 230617 806433
530 637199 51260
531 287253 833158
532 735334 725790
533 158990 99771
534 168296 435548
535 835593 718174
536 257779 185333
537 845209 705802
538 683300 98206
539 335044 524675
540 809196 681082
541 874691 715261
542 229607 186090
543 365925 557179
544 816681 642093
545 618757 67808
546 181945 86641
547 666255 101447
548 860991 746646
549 148391 13594
550 268481 216292
551 126079 70133
552 817196 736456
553 823894 715188
554 218352 788982
555 805375 712770
556 374142 496563
557 251563 807906
558 352745 511598
559 764979 742067
560 186438 416323
561 262421 433252
562 849264 791548
563 192938 20338
564 605962 21111
565 896988 741662
566 225165 70858
567 279245 358603
568 180733 432265
569 259440 834370
570 363615 503537
571 444071 511790
572 271406 841723
573 865869 745265
574 854848 782942
575 860916 753234
576 319520 431948
577 213814 496037
578 190105 34147
579 293670 194207
580 236270 807917
581 265942 400150
582 865950 826156
583 359904 549604
584 299602 165201
585 863315 766383
586 798596 742714
587 809860 707681
588 269389 242970
589 372234 546956
590 192045 61609
591 262967 202970
592 885520 730682
593 362957 542919
594 364528 478450
595 199112 761456
596 375937 555906
597 595101 157937
598 852657 757075
599 893921 789124
600 625909 51431
601 182586 26106
602 205275 6135
603 204062 761415
604 138585 74354
605 381347 511822
606 390764 513546
607 167577 77307
608 649536 57178
609 848398 720929
610 615658 85245
611 368147 585687
612 337315 566193
613 308171 277473
614 296258 911019
615 293945 211447
616 210112 813698
617 271774 419965
618 244113 233595
619 363909 198369
620 115964 91510
621 189331 181175
622 823391 666922
623 875997 686491
624 923698 688297
625 197597 442143
626 296498 881205
627 225624 787208
628 257840 381600
629 859377 733381
630 657011 153065
631 837650 755223
632 866428 737417
633 199602 119281
634 235691 785380
635 316335 512454
636 352890 547840
637 842468 657625
638 240958 714191
639 205763 35930
640 296020 213222
641 864856 701674
642 310404 205933
643 416832 556458
644 605714 78782
645 237770 206495
646 272971 488887
647 331266 498112
648 208522 99052
649 274163 212064
650 593060 104522
651 856563 745779
652 837468 734647
653 138174 100718
654 234666 408932
655 294114 352767
656 904861 711882
657 288822 198381
658 841970 786285
659 202325 792883
660 845569 752409
661 213471 175552
662 385708 535450
663 354751 557873
664 210394 763757
665 691416 77356
666 585891 84989
667 855129 758660
668 263241 123558
669 407744 469036
670 171846 -12124
671 193619 29388
672 164372 41140
673 365949 432202
674 207780 843403
675 256611 760140
676 922568 791117
677 185490 407864
678 790748 736734
679 226831 835715
680 902268 830364
681 386701 501969
682 309037 190505
683 260689 805261
684 145585 8732
685 320274 551057
686 966239 787343
687 197651 393573
688 901410 784002
689 629667 63265
690 244174 813601
691 799579 782332
692 904880 761255
693 211261 58101
694 250915 833807
695 244744 206897
696 198903 54867
697 754197 708202
698 805288 716735
699 915995 764907
700 877973 753422
701 954114 779993
702 242726 236189
703 635173 41173
704 189245 74813
705 200359 803773
706 869881 742324
707 347096 530838
708 721233 72987
709 633749 164731
710 248960 486516
711 227617 384692
712 953861 760905
713 215554 358752
714 240262 409420
715 335960 519755
716 256677 830535
717 266778 373415
718 134543 23729
719 893121 814716
720 888162 787672
721 279064 378883
722 821819 731417
723 279556 446139
724 225283 370393
725 851851 732087
726 668109 58853
727 253502 404459
728 291127 220064
729 632799 24958
730 289199 189636
731 844556 740827
732 253026 201845
733 296968 544464
734 848393 750362
735 661852 28135
736 613670 114460
737 673256 66029
738 179098 18334
739 823331 742157
740 263449 177021
741 611531 72175
742 214578 386545
743 292818 835187
744 298187 186367
745 332209 258921
746 147524 55381
747 303569 587093
748 262103 362587
749 847805 727767
750 224970 47136
751 891550 745381
752 870422 737577
753 277612 413530
754 870110 720166
755 393476 544519
756 933132 745384
757 228294 -32438
758 268454 816802
759 947992 708988
760 806345 755357
761 862245 688277
762 225978 408993
763 271069 834909
764 816323 825357
765 243816 138805
766 292837 115791
767 324615 515403
768 655233 67305
769 193598 858655
770 965889 823482
771 330602 522493
772 622210 101398
773 876217 807941
774 256863 375126
775 173267 56860
776 430074 557734
777 221446 847411
778 285787 183325
779 801688 691410
780 866322 720432
781 171056 10416
782 223533 442592
783 311765 742485
784 148091 -7229
785 362401 545308
786 342412 547837
787 879089 781738
788 337873 575909
789 212339 225817
790 218414 54930
791 383499 580934
792 237914 759546
793 375624 508409
794 863404 668141
795 134892 7681
796 249653 825468
797 887698 779518
798 349718 486237
799 845513 743769
800 319316 186287
