NAME : portcgen-800-801
COMMENT : portcgen N=800, seed=801
TYPE : TSP
DIMENSION : 800
EDGE_WEIGHT_TYPE : EUC_2D
NODE_COORD_SECTION
1 395017 163210
2 766859 546971
3 724969 132778
4 793002 123835
5 768354 496132
6 651717 -854
7 750165 204439
8 333751 136475
9 625236 234646
10 26758 1087040
11 400276 286978
12 384044 25393
13 639575 312491
14 446843 305781
15 483663 249201
16 735538 578451
17 811589 502202
18 551845 205686
19 347604 147792
20 604302 350285
21 777952 220074
22 90299 964260
23 392897 120565
24 29508 965439
25 577495 180242
26 790609 514232
27 750104 153107
28 743476 47435
29 654175 334432
30 702160 506845
31 767141 502119
32 481070 286426
33 506631 253194
34 544370 311805
35 798921 545637
36 705463 52556
37 807428 501614
38 455885 238968
39 797176 173761
40 74328 977532
41 783965 173221
42 341503 98115
43 742280 497951
44 482421 364862
45 377132 37995
46 706386 -6154
47 486892 277687
48 752089 492734
49 571657 324729
50 787748 494533
51 614028 159338
52 687926 272829
53 622939 330006
54 329815 84253
55 632289 149611
56 711748 492852
57 41891 1021478
58 641651 294216
59 717205 182944
60 48226 940053
61 828499 101460
62 673199 320265
63 669789 370821
64 675754 -42249
65 605283 195700
66 367926 85645
67 729457 192406
68 771650 209325
69 611801 151277
70 825275 534189
71 28748 1029845
72 725672 99510
73 730104 -8272
74 596768 225663
75 -10744 952101
76 728918 52746
77 737910 6796
78 486717 288041
79 604232 340593
80 340336 53342
81 734127 534287
82 574421 343316
83 453321 248020
84 546117 120978
85 350285 50376
86 4933 998230
87 528333 229640
88 643490 304801
89 375271 67008
90 762392 500505
91 353228 74782
92 790212 130704
93 463701 241603
94 633598 290265
95 749175 476405
96 35803 978778
97 716580 495930
98 745860 -27272
99 771011 -26486
100 451508 304924
101 568565 211378
102 376639 73471
103 424012 276838
104 389056 117075
105 499775 293724
106 16951 982982
107 436037 278810
108 634289 197457
109 756881 -24457
110 649114 189810
111 611378 334812
112 609504 340818
113 350120 170716
114 417771 214608
115 652251 -15972
116 -80376 1002772
117 28706 985673
118 671649 149465
119 626696 345469
120 729882 136472
121 426561 82495
122 50600 998860
123 527478 252533
124 584220 153171
125 565726 219504
126 644365 339481
127 658045 304998
128 700799 91776
129 488832 256928
130 468037 271074
131 798564 190877
132 -15745 987274
133 741683 17855
134 798529 163930
135 485285 298781
136 28490 965685
137 604921 183438
138 415726 93374
139 780701 513970
140 784784 510286
141 776678 144670
142 444437 266529
143 432700 125049
144 556002 332743
145 570244 133787
146 743278 156818
147 785088 163657
148 519436 255019
149 763546 539486
150 638401 195950
151 710198 98274
152 529788 236279
153 473986 343325
154 613664 318105
155 764342 457371
156 733754 510052
157 -7534 927103
158 543170 206059
159 389683 98459
160 680922 40247
161 606651 157865
162 445866 258217
163 -20894 1008019
164 613063 271628
165 -23365 969699
166 534376 257405
167 699959 472935
168 767528 476452
169 585477 298018
170 497046 209236
171 3276 1002409
172 661495 527831
173 626716 148204
174 725936 70337
175 29133 996828
176 486653 250316
177 699370 21298
178 735483 519462
179 656728 287203
180 592375 293263
181 785575 470035
182 665703 316326
183 572260 349934
184 -17491 935637
185 686476 389528
186 354527 60982
187 696481 481904
188 589180 294018
189 657910 365355
190 -22458 979079
191 732908 42990
192 584804 241781
193 678719 -27026
194 545091 315214
195 502861 300985
196 622067 178437
197 837519 153744
198 622933 286226
199 519140 295228
200 609742 192994
201 615626 196781
202 -12041 969626
203 480688 259986
204 499686 292801
205 753839 115487
206 39991 997889
207 12584 1023538
208 732804 129861
209 425619 291395
210 704226 526765
211 515526 323308
212 735441 465495
213 813651 469979
214 756284 93985
215 800571 163887
216 414482 94054
217 -74288 902003
218 85020 944268
219 790415 179247
220 614705 169167
221 486101 324953
222 745483 540181
223 720749 67819
224 397125 107898
225 754338 36127
226 747610 5059
227 760306 160319
228 553144 168693
229 313683 81492
230 326867 82028
231 399277 83198
232 752986 -10163
233 751221 99333
234 715072 -63144
235 406127 127224
236 704870 74140
237 318324 119756
238 598351 190678
239 725592 -736
240 374251 68265
241 579717 230346
242 388967 93836
243 596186 317436
244 748813 -16854
245 710620 -6346
246 651126 193769
247 729300 438868
248 662187 284069
249 586821 323895
250 42042 1041229
251 683843 35269
252 641641 168803
253 -31871 978807
254 783423 168863
255 789578 511936
256 600529 192464
257 354537 75245
258 591572 170774
259 781860 486337
260 838846 121516
261 42266 952117
262 648859 274757
263 788082 165678
264 523798 269054
265 683534 291352
266 549517 257820
267 796132 31051
268 383740 80341
269 783406 173451
270 550745 271429
271 42103 972395
272 730825 451992
273 791558 46274
274 639809 210278
275 402226 72696
276 752104 502683
277 757739 165512
278 618270 338130
279 627935 255965
280 436656 307780
281 765820 468032
282 602191 228053
283 488032 364348
284 611838 155752
285 -54 975525
286 505093 279501
287 755152 464778
288 295708 102296
289 830878 478786
290 785156 97435
291 691678 11449
292 614007 365771
293 554410 194933
294 352866 55360
295 476830 280542
296 700525 307364
297 583342 301029
298 708321 545442
299 363090 85794
300 748923 55803
301 756939 103788
302 627016 329992
303 631145 312367
304 757593 173490
305 608975 250399
306 49486 1021290
307 570127 276660
308 711000 51931
309 635221 330186
310 473117 300923
311 317792 115842
312 709261 516014
313 780884 130683
314 813311 162209
315 836641 148919
316 33326 954662
317 516148 262463
318 362762 60104
319 740761 525299
320 589312 374676
321 -13842 1012874
322 659473 125926
323 718618 36605
324 632922 335371
325 373409 102984
326 774639 192065
327 515030 363604
328 744096 47173
329 670630 256405
330 500866 381120
331 636411 299419
332 732776 -1213
333 773664 143652
334 20912 1025767
335 612591 183909
336 745690 48083
337 567383 167513
338 573497 149446
339 615575 254073
340 727428 465777
341 803714 513215
342 610199 230660
343 739914 489016
344 705030 184346
345 672031 316344
346 785742 479329
347 786457 190564
348 714628 516004
349 557403 156666
350 592494 121196
351 387404 137650
352 738267 75559
353 699232 55287
354 462503 312424
355 612933 268822
356 765607 406095
357 374044 91851
358 18262 970209
359 729105 511288
360 754726 447182
361 630922 299651
362 39696 1001351
363 737458 60208
364 462124 81589
365 320498 119709
366 35570 944672
367 427159 30
368 46345 967648
369 814646 68681
370 366522 138848
371 593644 170232
372 590501 162889
373 606072 181441
374 789412 172231
375 718915 49745
376 23843 982842
377 696372 54696
378 450821 323540
379 736693 504523
380 475941 307361
381 801209 220016
382 622814 66338
383 730108 52303
384 774293 464122
385 735843 169620
386 654301 205120
387 30035 949113
388 367030 32871
389 75205 954980
390 59239 993449
391 507296 252291
392 452425 230260
393 902401 186826
394 716724 17587
395 787495 -36655
396 608526 208444
397 536982 329239
398 38556 1030655
399 451994 280989
400 501864 270389
401 634696 321772
402 716095 -14490
403 722425 34790
404 480094 337401
405 622654 310187
406 578383 250805
407 596229 148680
408 466117 273419
409 753253 460811
410 719437 7222
411 762567 154225
412 14077 979935
413 693560 49976
414 42953 959283
415 701676 123720
416 723052 54588
417 316977 87896
418 773987 7589
419 720781 526338
420 547871 174841
421 675311 348099
422 659263 16802
423 476842 318904
424 735510 173508
425 726662 137935
426 588536 205773
427 794406 125086
428 707396 65065
429 604617 309271
430 763354 134252
431 781286 91798
432 496276 278707
433 -44843 939693
434 815051 167585
435 -2058 1017378
436 510501 256553
437 569228 184886
438 -17101 1044540
439 508483 295949
440 493876 280509
441 547267 339640
442 20746 953039
443 334941 18942
444 580268 149970
445 736644 19141
446 457801 270223
447 829077 128849
448 797199 152103
449 698073 -30146
450 345779 81921
451 373353 36090
452 817448 496185
453 658974 315406
454 543653 311427
455 587178 181724
456 567215 327790
457 638866 185752
458 354346 86934
459 343780 33834
460 34838 1038464
461 523315 248067
462 403631 284272
463 612354 339162
464 25919 960235
465 366379 74267
466 47360 968553
467 -33711 1039848
468 564772 165245
469 834024 95371
470 792402 458726
471 101782 926226
472 374472 66081
473 350687 144244
474 641303 319599
475 631442 176492
476 563720 292843
477 468004 313485
478 603482 284277
479 731195 542680
480 478289 312254
481 343634 90531
482 794203 442910
483 14893 1034251
484 759297 522565
485 591697 321053
486 756643 512262
487 39783 1038730
488 719672 17707
489 555429 283251
490 568239 136491
491 28583 975531
492 57724 888257
493 399656 86139
494 425571 259430
495 603520 224699
496 606817 296581
497 707785 -1313
498 43105 970691
499 659847 267419
500 616364 166967
501 102406 955349
502 -27792 927998
503 354123 76336
504 692720 471756
505 717244 132518
506 449458 286773
507 723944 162030
508 753348 499342
509 9354 940970
510 639197 309441
511 632510 240073
512 647814 367781
513 19467 943341
514 704958 75306
515 536473 131406
516 698511 44776
517 736197 9158
518 331962 53955
519 460567 341054
520 381196 82298
521 679672 294488
522 711232 67756
523 552180 155411
524 654384 311144
525 750606 16420
526 796500 109594
527 437119 239693
528 374851 100730
529 364486 86422
530 337353 159000
531 740890 75014
532 632626 141415
533 567298 264513
534 469303 283626
535 339130 82331
536 759205 9287
537 782832 539346
538 746351 480990
539 -29795 948744
540 727730 42285
541 78667 1011913
542 274342 104532
543 583855 224573
544 593777 159711
545 388697 116950
546 43749 1042620
547 348992 138678
548 452211 259624
549 665537 91480
550 460536 317709
551 598803 162701
552 451332 294745
553 625973 281592
554 396310 116617
555 728747 126982
556 613411 345930
557 658878 329772
558 358101 60606
559 665424 6600
560 55002 1018556
561 815178 231877
562 822333 145777
563 608028 202342
564 417266 108147
565 770494 49955
566 784112 122075
567 402038 -13979
568 465282 99550
569 649178 277304
570 777293 112373
571 756908 493087
572 12289 985026
573 774546 168695
574 739550 57749
575 542953 298034
576 644592 257569
577 483448 264532
578 393354 87248
579 676783 49376
580 694363 186226
581 61196 983483
582 623800 173536
583 571252 102790
584 669948 42355
585 653883 304737
586 775637 162076
587 365583 11868
588 722423 500204
589 739120 151503
590 389835 25898
591 725731 487684
592 333333 102448
593 770590 75416
594 812951 142409
595 770353 54311
596 654066 -7780
597 505480 287270
598 597483 194273
599 802231 522379
600 703703 82822
601 367507 71070
602 479444 263166
603 624026 163887
604 732929 109483
605 740861 499639
606 573902 270170
607 603804 165554
608 628893 222670
609 798864 158792
610 345144 62924
611 54435 1023282
612 757882 470265
613 607585 174187
614 722872 468065
615 650635 250175
616 812415 102895
617 718773 496636
618 720744 24289
619 645389 140661
620 731548 466551
621 17962 938113
622 753904 120239
623 787719 525397
624 739750 499052
625 637846 349687
626 496162 284149
627 381355 75570
628 637924 202559
629 -36751 1009008
630 794535 34223
631 7629 958785
632 341943 7582
633 597936 237271
634 502510 255000
635 742322 -28869
636 715311 496948
637 495875 289812
638 14277 988906
639 493165 339618
640 665196 58315
641 792282 159065
642 42056 993322
643 764999 111452
644 608110 250988
645 384602 38338
646 19349 999485
647 720136 29357
648 741060 78442
649 452633 324835
650 458029 293317
651 19559 954997
652 605788 326187
653 652464 133195
654 747970 499577
655 796536 112845
656 709204 141098
657 334212 68035
658 615467 186983
659 583888 167288
660 743933 474973
661 493710 272632
662 597280 285191
663 469565 316867
664 21931 992793
665 704084 259131
666 377870 87827
667 23407 964588
668 777499 166390
669 34128 972548
670 784150 508185
671 587204 361952
672 562057 234224
673 465318 261890
674 479619 307422
675 776268 494863
676 767861 35930
677 463828 258084
678 620176 312842
679 724252 -38520
680 711853 157039
681 650072 294310
682 727696 10526
683 794550 201526
684 717700 13428
685 824586 207113
686 341069 81268
687 711110 22389
688 746615 36681
689 570226 227630
690 38357 966574
691 580442 187582
692 726795 459150
693 474604 246142
694 319605 78909
695 390915 98245
696 644019 -14548
697 39769 963505
698 67981 1021411
699 734573 552252
700 755440 499145
701 664589 310490
702 -34419 1031152
703 385830 108993
704 766708 61220
705 480961 234054
706 407952 271635
707 508803 184048
708 585097 239838
709 -9590 1030141
710 32924 978651
711 741143 448156
712 78913 986031
713 823057 175995
714 603952 122017
715 607078 190254
716 681069 3517
717 13832 944330
718 731371 559058
719 818588 167220
720 629986 162192
721 764365 171762
722 553969 175718
723 353711 78647
724 4152 947675
725 400408 103845
726 655548 193739
727 664337 346010
728 722867 6547
729 725588 521160
730 726961 462131
731 511432 291849
732 621000 236408
733 366890 107953
734 398727 147157
735 586593 340125
736 689100 258630
737 486590 264726
738 401862 89182
739 754146 39544
740 758374 535886
741 806041 523721
742 544093 170671
743 326048 77271
744 -20616 978608
745 48693 967486
746 369109 74725
747 757090 40445
748 73593 1010924
749 578498 248262
750 687292 23446
751 599122 275745
752 -19736 934658
753 539164 287184
754 605778 291150
755 830076 113282
756 564528 319229
757 659914 47907
758 601631 283421
759 465684 322789
760 823788 146867
761 589715 292889
762 769244 469433
763 777370 466602
764 -32143 985893
765 68055 1005018
766 363942 133402
767 561122 172545
768 787455 576415
769 495160 311028
770 794631 515128
771 72718 980456
772 526737 211868
773 348232 83615
774 629590 298759
775 723974 24074
776 -6207 940212
777 617806 128608
778 822726 69040
779 305110 106089
780 567641 190906
781 414167 70186
782 750505 -1624
783 738799 172278
784 591944 148647
785 787018 506135
786 603887 205458
787 18519 948880
788 639431 335089
789 375446 43669
790 -59739 970293
791 20394 933136
792 676355 158438
793 629054 162294
794 392028 154560
795 702378 43425
796 1399 1019626
797 529393 315003
798 -6495 992328
799 730564 28951
800 495217 179984
