NAME : portcgen-1200-1201
COMMENT : portcgen N=1200, seed=1201
TYPE : TSP
DIMENSION : 1200
EDGE_WEIGHT_TYPE : EUC_2D
NODE_COORD_SECTION
1 374489 377486
2 691638 115099
3 338207 260521
4 431583 120988
5 980213 347501
6 427650 136646
7 617448 929984
8 156989 725982
9 613876 691832
10 347489 95291
11 173619 746528
12 394460 284584
13 414643 125021
14 559591 904885
15 997609 336027
16 755700 622903
17 339569 208601
18 622476 735372
19 305136 147418
20 165626 777103
21 391272 380279
22 391124 108873
23 419498 84799
24 708473 93267
25 168007 757168
26 285082 169630
27 415076 115200
28 956585 353151
29 386871 195204
30 466158 243022
31 665850 884687
32 376739 205822
33 177465 778408
34 368403 401239
35 397805 299304
36 449145 186544
37 988814 404662
38 423984 245123
39 638894 906367
40 384299 146027
41 323807 408706
42 909938 336686
43 211438 239161
44 642464 896799
45 164531 216960
46 363362 114488
47 399696 124927
48 203375 190999
49 355633 299504
50 627162 832979
51 625361 696234
52 242215 231719
53 447056 155764
54 330933 142120
55 577780 939739
56 673557 91645
57 643571 697537
58 767747 612686
59 379182 84560
60 633740 894998
61 372176 427347
62 622343 102278
63 903751 371216
64 595085 703391
65 344511 138176
66 198582 749490
67 356710 113807
68 182445 748324
69 336630 127063
70 362913 121342
71 329005 199910
72 597572 739984
73 264576 212086
74 221493 182440
75 660318 742124
76 536037 204570
77 395563 250326
78 952594 314254
79 340641 398097
80 614417 750348
81 380058 270010
82 506871 180770
83 219634 767347
84 236205 202055
85 337328 409779
86 173655 739648
87 412319 250743
88 347723 449945
89 354916 387833
90 149619 701564
91 764684 658615
92 611383 840803
93 678614 92820
94 338962 120950
95 362093 112669
96 964828 346644
97 157479 737573
98 702430 879532
99 347140 312692
100 333037 117444
101 379841 417190
102 633989 814151
103 762406 622400
104 966335 320264
105 395948 231453
106 635826 671265
107 659310 131732
108 597537 833218
109 471118 204598
110 588182 898231
111 693424 122273
112 961646 350734
113 512197 116178
114 477602 181256
115 332016 128484
116 792199 649571
117 357742 434343
118 632498 894279
119 597994 682477
120 454751 198229
121 377809 223651
122 784800 616843
123 719589 92937
124 381149 305333
125 724163 105715
126 676841 100320
127 201598 220395
128 378885 83477
129 339582 387709
130 443449 117455
131 323248 391257
132 613632 895905
133 748335 615953
134 800950 594836
135 225905 721223
136 913511 335644
137 332306 191519
138 470137 170291
139 652459 76530
140 944065 348730
141 419305 151653
142 593655 726502
143 648139 691030
144 635367 732512
145 466415 188136
146 601255 962529
147 486312 204605
148 613969 932164
149 116814 754901
150 722382 616947
151 134616 701102
152 185036 733808
153 561527 927748
154 739637 576941
155 441694 99038
156 769101 620694
157 495614 196818
158 599726 914483
159 167931 756533
160 372697 389741
161 169839 738744
162 967298 370365
163 494417 187299
164 931963 347457
165 92700 753375
166 211605 216805
167 197501 203360
168 470472 150118
169 366252 118788
170 327531 403893
171 142168 747881
172 614782 768599
173 416209 93509
174 780537 580251
175 374338 443877
176 667154 65251
177 208359 176377
178 589804 850093
179 340594 317184
180 226619 225289
181 944443 381852
182 715248 617577
183 822499 544021
184 589397 904016
185 724566 625443
186 413460 78194
187 397358 289718
188 203511 171418
189 791313 615393
190 173025 705737
191 629069 703952
192 337260 186690
193 329242 158026
194 674808 923431
195 244998 242791
196 450026 169025
197 901063 368566
198 951401 319470
199 923679 368550
200 620769 703155
201 185522 717201
202 181658 746103
203 694005 78341
204 189190 191445
205 680457 55509
206 211937 725622
207 592453 720823
208 129913 746558
209 634686 860599
210 388592 225158
211 389227 119768
212 144260 668449
213 468694 239107
214 774629 646623
215 589383 933661
216 608727 898361
217 360693 93165
218 598448 714699
219 992777 319881
220 197259 773616
221 367616 149886
222 598099 909739
223 380657 378912
224 372343 261620
225 751610 86113
226 151823 733171
227 365548 138297
228 705069 110433
229 525800 196548
230 595926 921096
231 128856 726097
232 634412 712604
233 490747 195772
234 348702 131188
235 748347 54510
236 318742 429958
237 377636 71075
238 301297 400953
239 351972 266552
240 212871 247252
241 703106 70271
242 637841 899971
243 646318 759969
244 786928 600686
245 940541 361551
246 709114 58838
247 977746 392679
248 460555 174751
249 607006 893345
250 381639 375370
251 640939 708540
252 620071 701807
253 158763 736676
254 737114 121183
255 321352 155472
256 459835 197781
257 619630 873832
258 718190 113481
259 693447 67245
260 365022 194101
261 586666 709556
262 151348 764407
263 651092 92322
264 982963 323495
265 425657 27824
266 392340 82883
267 168982 173899
268 953150 366230
269 411005 104747
270 370535 267280
271 407542 117656
272 716454 123954
273 239725 174257
274 163027 737816
275 400828 309991
276 501099 167476
277 220832 223416
278 675424 101605
279 335216 200365
280 667201 740020
281 180106 788950
282 706567 138801
283 549568 140812
284 232770 206900
285 375677 90193
286 375938 89743
287 372039 26032
288 423406 109091
289 218500 183464
290 936033 401649
291 789952 615713
292 380557 300895
293 350675 247563
294 98928 822054
295 474222 207993
296 169289 755018
297 479931 228037
298 372824 168986
299 141166 765258
300 635295 925548
301 1014748 339818
302 773471 589083
303 526998 845710
304 794842 597571
305 621376 667176
306 337248 154089
307 689039 92442
308 385892 156607
309 142671 759579
310 760778 602123
311 155928 190997
312 596426 852877
313 158589 192599
314 203559 237132
315 474930 158698
316 343959 382281
317 612452 740453
318 689143 80750
319 411954 139476
320 625440 890201
321 333684 190841
322 422646 101760
323 696837 97117
324 178610 735540
325 220338 732387
326 560015 752964
327 963516 422136
328 348271 193016
329 315475 302547
330 658026 731587
331 919138 338655
332 434313 103285
333 959659 373798
334 838620 593356
335 169880 247750
336 292973 163974
337 968177 361829
338 643043 722230
339 263846 176216
340 627622 697724
341 530284 194365
342 376297 140918
343 728967 105798
344 355067 202476
345 789007 632596
346 521315 189052
347 611096 789530
348 679518 710961
349 776683 573048
350 617275 912924
351 958036 393568
352 149748 745128
353 601890 871339
354 690109 170960
355 350328 21819
356 706975 82781
357 502360 157880
358 403903 90864
359 949050 330979
360 520900 196296
361 346626 327217
362 369669 193364
363 113043 765403
364 476178 138852
365 329010 254474
366 328467 460200
367 375646 111102
368 418839 99822
369 584827 714296
370 360619 188296
371 649120 713306
372 374059 396117
373 795926 603923
374 396631 242095
375 362231 50795
376 235363 208589
377 597182 867265
378 389973 168633
379 704805 100135
380 208619 187655
381 328750 186703
382 406067 231770
383 213374 766107
384 586127 872055
385 329145 101647
386 238965 226709
387 499690 180508
388 496441 200745
389 129110 731549
390 932882 392128
391 479822 115025
392 590741 708051
393 197680 170977
394 364682 163416
395 768098 575944
396 389199 279769
397 926641 347320
398 202793 765807
399 314043 395976
400 107585 763352
401 716274 95281
402 657534 670236
403 773254 643603
404 890274 336302
405 898100 372741
406 366461 161687
407 419816 199177
408 356138 113534
409 149584 722009
410 377213 88482
411 932686 395374
412 649589 90180
413 203187 215514
414 724643 126588
415 311466 311419
416 372784 236677
417 596932 910451
418 970325 393467
419 347375 358821
420 967639 377896
421 325816 155239
422 761962 594964
423 192490 192620
424 219926 214641
425 936077 315251
426 302492 415295
427 184912 232981
428 411466 104305
429 533167 142603
430 123099 729504
431 503624 209995
432 339860 153896
433 1013958 356444
434 370022 81540
435 767082 587163
436 966195 395579
437 923791 353716
438 541411 170383
439 977389 331322
440 358239 164537
441 704059 121243
442 399863 63826
443 958941 350041
444 909897 375254
445 628080 927234
446 699589 109314
447 884502 380761
448 150109 804546
449 670980 87102
450 567900 884364
451 389471 163967
452 654878 98143
453 686673 88131
454 684133 91311
455 685168 138440
456 242979 247105
457 559196 882965
458 369679 124739
459 393913 141799
460 165975 203326
461 600812 857849
462 175191 705588
463 356428 297292
464 634160 890782
465 334210 414429
466 330892 193593
467 397286 82293
468 981143 358082
469 642825 897118
470 342599 287093
471 600061 654911
472 625736 909050
473 758236 82893
474 298743 395453
475 717431 93060
476 745146 642946
477 398828 78072
478 201559 220333
479 453583 110948
480 368910 171494
481 668426 155528
482 607565 890626
483 179402 757050
484 335729 165449
485 651016 143959
486 600517 721772
487 734874 63391
488 305042 184219
489 390419 249841
490 629792 856309
491 438303 277292
492 325637 414068
493 481217 195636
494 183383 137504
495 232270 216025
496 381007 249077
497 354802 55423
498 569998 863156
499 598554 730499
500 195114 196547
501 140748 753540
502 737926 564149
503 688558 123550
504 347802 88180
505 525307 200611
506 646234 883461
507 295376 376240
508 195814 199738
509 708152 67107
510 555446 136722
511 924460 347597
512 546318 822048
513 245435 172386
514 399966 119309
515 349688 446978
516 453814 78112
517 409047 233630
518 747495 89913
519 186504 754597
520 358670 160565
521 169068 176397
522 397674 277044
523 600587 860789
524 349477 244688
525 719288 72901
526 640868 710987
527 705059 97752
528 747792 595398
529 647943 942544
530 364212 225239
531 968641 365197
532 456171 168130
533 348022 88046
534 766363 612702
535 333516 422475
536 775434 610236
537 422753 268742
538 476677 128606
539 255134 257688
540 612349 701662
541 757820 606084
542 198318 770468
543 292922 231455
544 354209 135405
545 427271 97995
546 514349 216372
547 230893 232652
548 965599 328227
549 326087 138605
550 770813 49250
551 602048 879423
552 378057 180776
553 666952 715883
554 808880 605368
555 389484 63593
556 766343 594936
557 270683 225298
558 365178 132526
559 783343 603460
560 978170 357600
561 339260 103163
562 444091 99670
563 398050 81754
564 973097 385955
565 407942 250199
566 413539 221199
567 719818 73206
568 137426 708884
569 383474 98409
570 192558 723214
571 605285 868205
572 952752 348490
573 582745 917046
574 516716 864907
575 160011 185153
576 608094 701708
577 747001 624608
578 193616 232946
579 736820 78476
580 352942 395174
581 468095 206551
582 372515 376910
583 736620 105292
584 355881 131650
585 352065 440946
586 586399 749807
587 611682 695649
588 772232 639763
589 213746 188109
590 798373 599438
591 899332 357840
592 542952 869439
593 146713 745327
594 334538 394970
595 950206 304921
596 919051 355418
597 148225 147615
598 742692 106231
599 115295 759376
600 599762 902746
601 331809 112110
602 651240 943431
603 634020 881100
604 421519 103848
605 590377 769830
606 539045 171891
607 512868 199093
608 719464 135927
609 454657 136295
610 622154 875763
611 588207 898746
612 181887 780455
613 978365 360287
614 520710 186650
615 656055 685944
616 915698 350685
617 313544 386511
618 958004 387480
619 630180 874941
620 779497 610036
621 354981 379693
622 490683 166492
623 756957 621447
624 790814 571415
625 403216 88012
626 374423 265500
627 334565 376431
628 162516 753187
629 323063 152577
630 759048 669221
631 388040 110704
632 656225 702024
633 623844 892906
634 944189 390431
635 243348 209451
636 303689 162169
637 769430 621925
638 752688 619970
639 133458 709112
640 339990 404291
641 635657 850504
642 228642 199809
643 390408 144742
644 337823 181120
645 526096 175499
646 744661 625366
647 955639 360465
648 199323 202438
649 371549 59794
650 743909 156464
651 345032 151621
652 677854 76883
653 364426 176252
654 372839 393861
655 183319 752943
656 249349 194868
657 736428 641270
658 382326 33993
659 656904 733994
660 963548 361664
661 387366 292471
662 133444 779418
663 571153 834624
664 177073 753356
665 848447 573436
666 475867 204170
667 436718 222264
668 387752 265999
669 918429 347928
670 620202 735565
671 663569 92108
672 354964 393639
673 770207 654880
674 572785 916831
675 636365 890634
676 632324 726127
677 389417 100030
678 363058 185175
679 960234 387213
680 181391 774316
681 654659 912964
682 351812 244177
683 704582 120065
684 363987 190598
685 218199 738492
686 640153 666131
687 318278 421094
688 677768 72933
689 567989 764799
690 650023 723540
691 188639 200885
692 157936 721419
693 145455 738881
694 394297 467814
695 166870 719481
696 351851 123823
697 431158 237054
698 334656 134518
699 601498 718243
700 576749 865360
701 622301 658247
702 341882 441795
703 540601 203798
704 483659 130737
705 672532 92471
706 521222 152468
707 953774 379402
708 946236 349268
709 337046 128618
710 357368 123420
711 597339 693998
712 190657 200265
713 671836 673975
714 355226 420026
715 398544 112604
716 138355 743474
717 253586 201522
718 745358 596284
719 392626 234568
720 333642 377509
721 716120 586349
722 600349 722692
723 606401 894965
724 612108 752343
725 769407 629652
726 596847 730914
727 766509 615687
728 353808 406434
729 566067 885908
730 983632 297729
731 578408 876276
732 400218 136016
733 149097 723413
734 749904 556228
735 348001 119436
736 621629 855267
737 937469 361827
738 739370 663983
739 455757 183856
740 973794 367733
741 209886 196358
742 586258 893903
743 604882 907902
744 723737 131942
745 760922 628287
746 1018909 346341
747 708689 95267
748 752734 614179
749 443727 242926
750 643555 722645
751 336679 300722
752 496906 143098
753 178149 782476
754 328345 394070
755 224031 199042
756 185211 288986
757 385236 292817
758 342810 398676
759 206580 762423
760 534783 146455
761 624090 664480
762 220962 177562
763 738378 580974
764 392798 61792
765 820090 565948
766 799332 549659
767 795361 613227
768 413046 91176
769 172954 815533
770 771756 531319
771 893592 340367
772 508604 168128
773 109491 712978
774 221942 190243
775 697375 68116
776 399824 129804
777 612761 665196
778 163605 739568
779 197532 218873
780 650058 681646
781 619068 943105
782 178990 728918
783 627765 731890
784 717069 655103
785 578044 930205
786 809355 602801
787 520130 190468
788 778560 639043
789 367091 127219
790 581551 730378
791 500917 136651
792 671828 94203
793 895684 345973
794 949700 332801
795 415368 282177
796 209862 167796
797 351085 400442
798 488893 157464
799 585401 881657
800 369609 84002
801 599372 844654
802 345302 239838
803 619822 698098
804 342247 203079
805 344220 436200
806 613529 840449
807 249091 789171
808 747204 628016
809 614750 877346
810 163896 195791
811 218296 768169
812 491897 201305
813 980210 333589
814 771108 600394
815 492675 197159
816 305069 393002
817 638666 692119
818 980242 379972
819 368198 155979
820 397314 38946
821 624466 909964
822 752399 579552
823 527552 250780
824 445431 234496
825 321162 146684
826 325684 146788
827 945816 360801
828 527872 144137
829 560912 170306
830 339079 457089
831 700520 69510
832 368780 249629
833 687823 84774
834 397660 239236
835 740556 144154
836 710848 97704
837 187730 194649
838 594122 783455
839 309251 104039
840 926337 320890
841 679526 705146
842 245111 191510
843 359671 98293
844 604202 864509
845 268153 175434
846 397302 297518
847 225883 268482
848 159902 784045
849 328926 418114
850 425325 313116
851 487436 215234
852 369593 138769
853 582927 867489
854 383455 176156
855 640100 901397
856 167938 744707
857 476442 157771
858 631649 730160
859 789134 616034
860 436994 174300
861 367889 281603
862 458936 153786
863 604539 881575
864 168841 749342
865 143734 702282
866 923596 368995
867 500739 169944
868 605468 703048
869 303343 168614
870 495771 164291
871 645019 911647
872 599955 854431
873 987809 364942
874 413663 81488
875 948066 337628
876 401718 163845
877 429148 73865
878 365050 128935
879 917669 375352
880 342885 155343
881 800600 646457
882 763180 587612
883 783955 557890
884 429948 153632
885 418344 99219
886 376580 364969
887 369366 417198
888 693803 79661
889 390208 277679
890 293423 179168
891 395013 439058
892 723438 97170
893 778763 580605
894 381854 307002
895 768604 568173
896 580925 867473
897 409535 88278
898 376384 185053
899 315403 413690
900 723196 634583
901 625056 906271
902 371951 254673
903 698368 118197
904 168575 751358
905 209442 214636
906 503397 185771
907 922554 324753
908 596668 864523
909 335082 86659
910 796034 576118
911 620904 662219
912 958718 349851
913 305565 101887
914 441992 101550
915 147529 787690
916 639296 700824
917 375625 399385
918 685638 86799
919 728770 142298
920 201518 725116
921 285592 184997
922 167242 210000
923 409515 389978
924 641651 718403
925 373289 97593
926 617874 911816
927 622040 656705
928 375460 287838
929 637244 873087
930 317248 412162
931 426060 251145
932 345386 250189
933 209119 171113
934 388589 91147
935 963734 329080
936 470545 190572
937 211282 217817
938 415106 134949
939 326101 168103
940 206398 242645
941 369628 231504
942 355905 205810
943 627381 701892
944 332508 168344
945 354368 391013
946 953815 356649
947 723967 142296
948 961880 366519
949 186564 227455
950 366542 365936
951 597410 696610
952 957741 365590
953 176351 775490
954 489444 172096
955 928106 378987
956 599314 705215
957 439293 235789
958 386234 286046
959 392377 270876
960 321506 401755
961 953215 369113
962 618602 732365
963 182784 312052
964 322723 280763
965 580784 722189
966 140119 696790
967 667610 89799
968 988918 403285
969 337259 390870
970 458420 95397
971 484437 203562
972 169703 740390
973 601650 905002
974 965380 331600
975 338467 154333
976 613286 678908
977 789200 558982
978 282811 139551
979 234698 254634
980 182324 665600
981 689025 81724
982 643112 871281
983 222437 202118
984 216055 741961
985 219830 734457
986 767390 595526
987 671086 84930
988 370109 205712
989 625036 901705
990 383235 219851
991 392351 111187
992 429567 237269
993 782613 562324
994 407995 83057
995 683859 82076
996 712074 47376
997 454471 146768
998 482766 215424
999 131710 693837
1000 306776 381732
1001 346065 99603
1002 380795 395386
1003 381551 72840
1004 907978 393895
1005 385461 288727
1006 839908 653303
1007 722291 112409
1008 365740 397983
1009 968617 340723
1010 806198 612427
1011 420667 270348
1012 431725 193707
1013 183807 728799
1014 819780 621396
1015 548842 179583
1016 333467 63001
1017 191668 184148
1018 512651 188271
1019 722627 130857
1020 541782 925811
1021 307308 155081
1022 947260 310634
1023 394618 228147
1024 976139 360442
1025 579920 853141
1026 743701 555595
1027 392422 270660
1028 522318 156469
1029 397630 363434
1030 312279 181861
1031 400417 391350
1032 654796 869983
1033 399203 284807
1034 673361 105823
1035 287921 387435
1036 594236 898276
1037 624715 676328
1038 355883 431821
1039 368263 223755
1040 574481 701505
1041 377379 115026
1042 183952 225360
1043 610637 674634
1044 616522 907452
1045 332252 202474
1046 953376 337678
1047 587617 945201
1048 373930 77129
1049 136983 763179
1050 584316 662905
1051 366475 445201
1052 251946 268292
1053 925472 301306
1054 564559 875941
1055 343940 148256
1056 747647 619906
1057 331477 363818
1058 414713 274042
1059 153558 721385
1060 614219 899208
1061 760229 85550
1062 372523 252549
1063 769766 592061
1064 675324 685559
1065 638916 696086
1066 758364 612308
1067 653793 739747
1068 359262 107332
1069 350418 293977
1070 530157 201880
1071 168392 795546
1072 199952 206123
1073 393547 123862
1074 611105 693727
1075 768843 619178
1076 956062 341664
1077 187047 197978
1078 145271 791171
1079 160578 736490
1080 326536 208985
1081 360506 100167
1082 488211 137139
1083 492002 187336
1084 214496 204871
1085 772942 662492
1086 666147 84656
1087 137631 695207
1088 743482 584730
1089 168391 730369
1090 366023 147196
1091 378025 72801
1092 470495 129268
1093 344402 131918
1094 373309 284897
1095 425770 262639
1096 395883 158667
1097 606306 732745
1098 317369 388130
1099 604541 923986
1100 916013 368339
1101 190305 767035
1102 421057 105910
1103 206562 271041
1104 387964 276117
1105 632681 883013
1106 201118 227261
1107 602222 882095
1108 412316 111931
1109 414592 237787
1110 704789 100425
1111 962637 350456
1112 475651 181563
1113 798830 582634
1114 309224 163191
1115 254725 221281
1116 254199 743972
1117 920459 383217
1118 399903 243819
1119 737966 654133
1120 682718 616813
1121 158506 688805
1122 604337 939953
1123 334119 190123
1124 978693 338430
1125 340455 40316
1126 994656 368470
1127 314256 111184
1128 307751 129319
1129 407387 284818
1130 506942 162637
1131 329957 409366
1132 230397 230865
1133 374413 402005
1134 302467 384418
1135 616440 687321
1136 802813 631587
1137 426238 111494
1138 679772 97234
1139 650285 117997
1140 932330 366776
1141 323281 390817
1142 342180 420620
1143 640718 744254
1144 657044 873746
1145 312151 131833
1146 612641 912946
1147 338890 164709
1148 537523 254561
1149 130740 763283
1150 412828 68263
1151 802083 668279
1152 401251 94179
1153 308380 398750
1154 393784 106081
1155 369853 162643
1156 638600 689421
1157 693532 97499
1158 672953 139389
1159 395186 257240
1160 420032 61145
1161 771380 615147
1162 406810 251636
1163 436458 69933
1164 905811 342081
1165 334291 354124
1166 189307 709705
1167 380583 192544
1168 396462 127121
1169 356161 388085
1170 162670 782944
1171 609654 942666
1172 613156 701556
1173 656660 115451
1174 390698 263984
1175 391738 54133
1176 375653 139330
1177 646637 722316
1178 393032 218811
1179 126287 782014
1180 318631 353556
1181 451473 104143
1182 190169 209815
1183 947587 374805
1184 467978 199474
1185 679689 909724
1186 177335 214211
1187 645267 696412
1188 388034 456544
1189 770164 607798
1190 635170 711657
1191 682832 121529
1192 417345 86054
1193 958014 368681
1194 766585 617514
1195 631507 755630
1196 445419 79243
1197 403902 221864
1198 955268 375331
1199 631708 896902
1200 804028 569795
