NAME : portcgen-600-607
COMMENT : portcgen N=600, seed=607
TYPE : TSP
DIMENSION : 600
EDGE_WEIGHT_TYPE : EUC_2D
NODE_COORD_SECTION
1 918286 120315
2 227751 143893
3 862213 112998
4 756416 236289
5 149948 188449
6 723621 302156
7 339538 932806
8 42855 833137
9 379429 946548
10 931738 179204
11 717582 312467
12 107841 920727
13 865653 96434
14 920335 862557
15 743240 263151
16 78031 894084
17 976228 769562
18 719758 208053
19 207489 175024
20 152557 907446
21 722074 265128
22 363878 873072
23 921258 102213
24 257240 142918
25 911071 152364
26 367307 954779
27 112596 960940
28 961012 764028
29 247243 217678
30 259752 260548
31 969054 717128
32 67800 810372
33 885556 134026
34 288626 971960
35 801541 265686
36 128375 925500
37 683967 295502
38 378002 900756
39 678979 260606
40 453218 941337
41 260289 124933
42 678859 277788
43 934379 113685
44 716321 276561
45 726498 230443
46 246689 86334
47 82631 934389
48 874675 154274
49 372317 909243
50 915309 126343
51 984770 777931
52 751920 263875
53 941437 762887
54 977691 780126
55 331621 857182
56 758310 281867
57 820596 135533
58 922185 173564
59 1095685 771576
60 234625 206375
61 999433 796914
62 396047 936222
63 600717 238478
64 868072 120019
65 354225 873122
66 946706 754357
67 860201 127108
68 894098 83945
69 924720 746327
70 341572 955492
71 924573 122703
72 362805 944716
73 246661 107150
74 212871 172193
75 103161 958577
76 970214 91837
77 729668 279531
78 120329 895590
79 998614 682449
80 256627 959068
81 992147 725772
82 33675 876308
83 182152 878011
84 123348 865451
85 399220 817572
86 972040 779654
87 755442 376111
88 783108 237488
89 405886 879316
90 1015509 798940
91 128397 984471
92 1013020 774042
93 122955 946976
94 710206 327403
95 1022388 722980
96 910659 756407
97 745867 214922
98 731856 322007
99 670422 310484
100 972411 715779
101 721126 248323
102 216289 132470
103 930241 775164
104 891646 120824
105 977209 798623
106 693157 316795
107 326919 246686
108 979739 793402
109 152267 819465
110 430843 950252
111 677164 231333
112 729809 309103
113 360546 909888
114 383816 941993
115 993601 678854
116 867746 106877
117 227472 179818
118 911276 136638
119 699275 249899
120 724593 246424
121 762379 307378
122 877670 136306
123 438051 845923
124 687978 220030
125 182103 822265
126 900815 111488
127 736861 314512
128 315191 203435
129 874296 140989
130 724820 217287
131 259634 208493
132 908343 29453
133 730799 243244
134 893810 88604
135 373190 942187
136 334607 902633
137 319940 167310
138 179126 145812
139 365543 905930
140 148461 924130
141 975045 109415
142 725404 264683
143 983782 796152
144 193126 125346
145 868816 104403
146 1051845 852828
147 846682 52402
148 359707 956621
149 363226 1032456
150 221692 135675
151 226403 174602
152 853062 121702
153 995162 751980
154 917081 109414
155 878214 82295
156 946922 806365
157 946625 124389
158 1047486 799883
159 956067 703426
160 201084 180144
161 85643 974008
162 982606 755509
163 60767 914932
164 988221 829409
165 246607 172879
166 157726 868362
167 769571 279353
168 378201 920946
169 152169 858788
170 212709 210592
171 161489 960694
172 941996 114885
173 38491 837597
174 358882 908186
175 225391 140738
176 1005041 761123
177 895410 58776
178 907902 102578
179 671372 303679
180 1022379 709737
181 704165 269888
182 153402 869666
183 327282 942894
184 408613 949657
185 415492 849043
186 1037266 744705
187 77296 921302
188 682714 273062
189 1000147 708194
190 959059 704214
191 98255 857066
192 918472 161663
193 134435 902114
194 686305 370506
195 142380 870020
196 90802 919228
197 137660 943727
198 960683 747035
199 76018 927518
200 244125 174903
201 842479 220411
202 888580 86650
203 722074 333298
204 235092 145326
205 984754 705949
206 414545 880953
207 332112 962499
208 1004607 829352
209 354226 860974
210 704707 190364
211 647664 268443
212 891823 148941
213 131056 920536
214 218696 134563
215 960710 726593
216 25480 907142
217 220087 194191
218 125959 860543
219 989069 740147
220 231822 233641
221 894162 103880
222 928265 153872
223 927746 742949
224 1021248 798063
225 891299 127569
226 970945 782862
227 813829 253019
228 715902 165325
229 396681 992142
230 265361 152597
231 218234 212433
232 124026 916847
233 410497 816286
234 679025 296569
235 985768 773922
236 229884 252168
237 109394 852388
238 1064537 691559
239 382684 972026
240 250591 231880
241 383200 898619
242 105486 1001434
243 720139 258725
244 244233 200615
245 949695 96177
246 420158 876631
247 356694 894089
248 189041 122268
249 138078 196780
250 117366 981353
251 287858 859141
252 991550 732561
253 260443 135194
254 884414 119444
255 139272 942256
256 250075 138630
257 343922 888347
258 716934 226148
259 712255 230817
260 345796 838452
261 688075 296382
262 82906 925808
263 196407 201752
264 960619 115586
265 397857 971809
266 141165 924454
267 434018 947244
268 209217 161485
269 204072 186801
270 282865 944994
271 90431 903314
272 188023 182485
273 344491 925493
274 341074 892515
275 966927 771113
276 729346 255326
277 405019 967361
278 981756 785107
279 163175 116203
280 986784 184959
281 999218 821146
282 915467 131780
283 845863 95079
284 106867 883533
285 934321 837232
286 868449 179487
287 899362 113136
288 121397 894294
289 362374 921667
290 950924 800760
291 1037870 771034
292 732672 260209
293 897546 764468
294 1016929 818768
295 174386 76093
296 746449 324306
297 973072 760018
298 200497 197455
299 98080 855631
300 996422 762667
301 226076 175906
302 326301 927586
303 97898 946256
304 408017 1033916
305 956887 776013
306 405027 905006
307 819167 235952
308 198539 201458
309 239494 211659
310 994151 671272
311 159392 900785
312 869882 154616
313 387366 923270
314 690674 271904
315 99749 880393
316 100246 971285
317 871586 87315
318 663091 287584
319 226948 224300
320 870440 130108
321 882680 136314
322 174461 117556
323 962120 712599
324 1001309 762755
325 987428 686714
326 736211 300862
327 351467 934345
328 329457 923891
329 736097 259111
330 186267 160663
331 346050 922070
332 149440 225312
333 731013 351599
334 726575 196203
335 136958 214052
336 320670 802209
337 236011 215704
338 1071707 712540
339 240150 166989
340 85555 841188
341 207920 953087
342 946502 162990
343 217785 199706
344 311021 901224
345 785551 320090
346 900976 163656
347 398172 932527
348 983051 799859
349 203928 905074
350 945550 39298
351 360194 937606
352 242646 222238
353 759455 317190
354 434464 939658
355 449563 908203
356 657205 317864
357 1007158 774680
358 386625 953603
359 277807 219304
360 1053488 722758
361 737141 333748
362 174704 168383
363 991379 760452
364 768426 265169
365 89674 891064
366 771232 259393
367 923240 110951
368 898055 75068
369 1035461 743171
370 368880 878270
371 365563 940891
372 746716 355470
373 251735 151055
374 272862 270207
375 413242 957784
376 162193 181562
377 1053635 730044
378 880862 194338
379 968154 707240
380 282464 167604
381 874110 120328
382 915435 116652
383 360310 945024
384 383481 977809
385 142627 912102
386 708536 302929
387 180436 939622
388 736882 229762
389 942937 778819
390 59032 891103
391 889338 709146
392 309099 904034
393 444272 962413
394 800575 316320
395 87817 903399
396 110462 923483
397 959306 783342
398 965388 759292
399 407852 911952
400 693939 224390
401 844749 111874
402 972249 830964
403 664466 221168
404 889048 118982
405 839651 103969
406 208600 935492
407 299228 912391
408 281419 213837
409 971184 711485
410 707305 299033
411 891039 146328
412 729432 243967
413 75641 955412
414 1000857 763545
415 761548 305431
416 150819 199692
417 898584 75562
418 936769 731368
419 117746 918612
420 248287 227603
421 731776 208818
422 237100 275025
423 781134 243764
424 110946 844903
425 206184 173455
426 924675 183928
427 328706 904774
428 904089 118816
429 974486 828795
430 409092 912225
431 182946 884036
432 419218 882116
433 669939 280909
434 976353 738430
435 409257 981914
436 108059 924937
437 859138 61541
438 999979 730984
439 337113 873821
440 675192 328433
441 934258 161994
442 838852 229994
443 419272 909490
444 267527 133969
445 193003 860298
446 939338 137419
447 190473 242389
448 856819 166828
449 708988 255100
450 129579 892400
451 882202 132470
452 93548 811072
453 135848 933927
454 70997 976596
455 394610 837951
456 898617 149870
457 968430 77503
458 1037496 768903
459 439862 870410
460 431913 910752
461 932535 60503
462 133285 931575
463 718208 300392
464 739746 198588
465 55711 901293
466 260665 237578
467 947927 144890
468 900618 98376
469 334912 880630
470 917483 131926
471 748794 274657
472 691474 350410
473 843269 133956
474 336014 874985
475 940751 109222
476 371684 929241
477 886321 175179
478 131979 877454
479 376057 919997
480 341219 936463
481 721015 306784
482 995140 128391
483 358786 958624
484 262761 212691
485 377676 941991
486 186311 905682
487 919742 750556
488 911085 60269
489 147791 917031
490 363030 892652
491 895959 59282
492 872542 159798
493 974709 699617
494 659684 312119
495 200859 187634
496 310799 911837
497 115169 903800
498 369756 963188
499 353480 906255
500 364824 836544
501 189219 238544
502 229061 257076
503 983204 783542
504 925386 72643
505 176797 228180
506 862285 141302
507 1014629 799011
508 150810 904967
509 785585 312908
510 245905 124171
511 940366 740215
512 952603 796056
513 428082 875488
514 368243 901207
515 878604 121148
516 744474 283325
517 965041 785254
518 384793 913859
519 859497 109646
520 125478 889385
521 756645 213124
522 934626 109917
523 982379 764559
524 871678 132642
525 404932 907557
526 379594 913673
527 116780 979682
528 945883 696687
529 693962 298904
530 342278 926460
531 1000777 748199
532 915818 170609
533 415301 939378
534 326063 880039
535 253378 213375
536 893481 179122
537 380419 937914
538 439546 850989
539 869968 123967
540 265508 204108
541 248306 153404
542 832057 60808
543 928714 134194
544 897362 783478
545 677184 232793
546 80779 900668
547 925332 180282
548 915225 146221
549 923027 182258
550 354357 851721
551 340742 978845
552 291456 154671
553 975767 115861
554 216149 170789
555 991095 771252
556 191077 219887
557 411464 857460
558 285861 201260
559 734409 359497
560 776685 202932
561 1001937 764615
562 269035 178507
563 144845 879302
564 714259 240023
565 99420 909579
566 751062 313377
567 346480 887394
568 901305 139040
569 383688 964080
570 195451 236392
571 680686 318608
572 254490 142227
573 215510 200028
574 157478 176617
575 98097 888915
576 837627 157930
577 877142 107076
578 898162 158816
579 338351 912653
580 128788 904121
581 993495 723230
582 124237 902423
583 308366 236565
584 239018 189375
585 899169 190362
586 326787 971659
587 182760 131624
588 183745 171940
589 915857 137723
590 1003178 796033
591 324890 917609
592 1022524 794686
593 962757 187529
594 754635 339709
595 165711 130365
596 338748 1002456
597 918410 97135
598 134798 949089
599 156194 886357
600 924208 706716
