NAME : portcgen-900-901
COMMENT : portcgen N=900, seed=901
TYPE : TSP
DIMENSION : 900
EDGE_WEIGHT_TYPE : EUC_2D
NODE_COORD_SECTION
1 888392 448291
2 862499 317002
3 788331 805792
4 497177 613374
5 268794 898764
6 772538 974708
7 196067 55499
8 304646 821328
9 905644 306093
10 840424 821058
11 285010 208506
12 506405 624086
13 539610 639667
14 783931 957087
15 837434 482276
16 560174 621800
17 940782 524558
18 842352 815874
19 196390 194102
20 845200 308483
21 1001601 503301
22 675836 526141
23 791562 941503
24 768884 969932
25 803623 908193
26 822785 788814
27 795078 789273
28 792918 892441
29 814869 302155
30 928889 507949
31 258012 825669
32 822385 760180
33 546648 630557
34 451277 557232
35 221071 828452
36 461767 536627
37 909740 461706
38 296914 177080
39 677734 535062
40 272422 852322
41 271695 161108
42 214562 803156
43 218855 129023
44 458833 633059
45 503907 644903
46 842060 946498
47 821096 766089
48 891646 327197
49 477150 646772
50 629951 528717
51 184184 -39707
52 789078 968899
53 684252 595286
54 753813 756722
55 789896 932670
56 688464 558763
57 686752 587066
58 468926 655226
59 777854 770512
60 271881 213468
61 276249 813380
62 148953 -16966
63 508642 679628
64 816828 333159
65 913702 459820
66 828358 291672
67 257643 853417
68 507206 576298
69 498030 625335
70 136764 -38041
71 527401 580790
72 458506 653844
73 126851 58794
74 272073 836004
75 217664 848243
76 286495 181158
77 809043 950551
78 764736 971953
79 817723 885952
80 889247 342786
81 822304 263787
82 156126 -59802
83 751881 902164
84 262551 835981
85 642270 541644
86 333873 810422
87 513383 700812
88 293571 172657
89 255326 178616
90 305983 855343
91 519303 640627
92 840356 293938
93 809056 821662
94 839019 302786
95 822152 911953
96 539587 591669
97 245039 845449
98 763467 935552
99 223527 837755
100 869367 304534
101 944695 526520
102 642091 501386
103 868065 241329
104 464923 647058
105 942562 460698
106 170321 19346
107 641112 558959
108 208239 777843
109 491858 654071
110 925285 475562
111 861753 827545
112 784909 899465
113 295203 248039
114 768411 929245
115 780561 876832
116 645530 572253
117 295479 225202
118 194527 -67158
119 839392 283199
120 689294 573427
121 853191 806956
122 750393 896088
123 909261 521443
124 318263 796586
125 804088 796468
126 247445 124033
127 143048 -19644
128 215863 49871
129 826072 924748
130 174033 44501
131 627504 537224
132 190751 20172
133 823483 851497
134 238805 178414
135 514664 646397
136 942923 519307
137 553693 634841
138 522735 618157
139 278944 138425
140 830937 775099
141 503971 621421
142 633965 569092
143 143337 -29670
144 749461 920117
145 817030 344520
146 540145 685386
147 825629 312443
148 984194 481427
149 133244 6766
150 173013 45282
151 655642 485561
152 529173 643652
153 328425 139273
154 608872 522782
155 143157 -36541
156 169150 51413
157 265147 139523
158 734584 856630
159 305954 840925
160 565361 655518
161 837255 925624
162 822646 744068
163 864972 791017
164 937630 482376
165 632185 548354
166 271421 121113
167 919088 433679
168 814208 811767
169 758695 762737
170 899806 471268
171 811805 781148
172 208736 154150
173 509708 705545
174 750475 938012
175 527657 684635
176 324462 874197
177 756511 907760
178 808022 787123
179 725772 573292
180 140499 3467
181 797804 286896
182 212773 207196
183 929015 534793
184 513173 571051
185 291934 832832
186 813611 904715
187 821108 944891
188 903536 543735
189 797753 831540
190 841694 815345
191 783868 953669
192 498177 616339
193 768566 921484
194 780550 933022
195 556969 646929
196 244207 883799
197 271012 834448
198 253287 797972
199 510854 675670
200 509018 652743
201 188472 -35360
202 227239 149932
203 646709 517114
204 139833 40181
205 798348 292521
206 700655 501873
207 251756 805687
208 517915 652986
209 635042 546374
210 987549 516715
211 789955 922202
212 499268 667396
213 268177 207316
214 867279 814163
215 497353 642117
216 883297 500483
217 168657 -32457
218 645067 583093
219 627317 538661
220 253480 208286
221 682880 587228
222 245241 19417
223 657702 530705
224 831461 302542
225 184556 9206
226 170639 230062
227 801191 926644
228 795747 752180
229 188143 28179
230 278220 787641
231 732834 964864
232 261624 818021
233 486140 645851
234 405420 675396
235 207998 141202
236 819750 952352
237 894685 306631
238 193649 59139
239 484177 637931
240 629921 559532
241 778857 839398
242 496324 656529
243 170618 -18008
244 784426 790303
245 673592 563361
246 816110 301756
247 547553 696528
248 815746 934770
249 217482 816741
250 175537 24214
251 216952 162459
252 797277 818729
253 947691 476993
254 872665 494780
255 141862 8832
256 569408 645795
257 467079 639462
258 534898 632252
259 249122 820188
260 785438 974246
261 252961 773775
262 483604 655062
263 111340 53912
264 166615 51308
265 251590 816414
266 319724 174679
267 865965 436071
268 826430 261596
269 230166 149228
270 309280 175001
271 757171 913839
272 256919 214669
273 601948 535728
274 826105 983387
275 162184 29989
276 810942 298681
277 770019 765654
278 923485 512947
279 545254 661654
280 821695 234955
281 892873 560331
282 190783 -52885
283 274102 823404
284 213830 803839
285 843522 802261
286 887760 337163
287 566446 720002
288 658787 505664
289 683345 570892
290 918515 440245
291 900325 497236
292 297823 796842
293 659865 509968
294 638381 476842
295 705552 584105
296 827823 886534
297 851827 283913
298 252699 131197
299 142849 3288
300 513527 647571
301 904607 505114
302 837735 321500
303 235154 258451
304 198713 130921
305 839882 920974
306 335876 805023
307 451516 611731
308 718061 582211
309 923475 438597
310 218168 822668
311 906247 329571
312 807576 961921
313 812887 275262
314 755932 993684
315 766177 875692
316 158168 -14039
317 259515 215163
318 788949 914722
319 496333 674668
320 242997 833687
321 827717 952419
322 259872 879793
323 855514 334142
324 686530 981649
325 182273 53601
326 188744 -27921
327 831855 934621
328 176563 -36707
329 241606 114301
330 928734 492744
331 806107 927030
332 841459 802550
333 521710 634747
334 959240 487689
335 153829 44953
336 777933 842327
337 797619 828545
338 800271 824273
339 252382 155154
340 178273 37754
341 878268 266027
342 729716 904159
343 495971 652096
344 264063 850783
345 119227 -4374
346 892790 478189
347 919691 447823
348 956521 514623
349 857714 216217
350 272468 790206
351 807590 811336
352 278571 829115
353 531550 639224
354 274482 820075
355 508730 677557
356 624827 533791
357 552518 654342
358 794135 873183
359 483704 665896
360 239777 781140
361 793245 922817
362 282420 763243
363 135800 -20580
364 847064 296922
365 769168 941941
366 235578 162965
367 851437 338144
368 647231 540473
369 290340 767885
370 828269 819082
371 947358 455505
372 220699 886402
373 839718 794376
374 548098 597788
375 861870 259154
376 481502 625481
377 822919 812061
378 804311 924253
379 264897 211831
380 498212 700315
381 923971 441416
382 817317 735776
383 267275 797981
384 664551 548086
385 663293 585508
386 251372 849243
387 835139 989271
388 785863 968104
389 845308 344085
390 620289 541105
391 632562 534182
392 512244 624531
393 308459 825138
394 184014 784062
395 878220 782131
396 163022 40129
397 796820 902075
398 882010 284068
399 903581 567911
400 735314 952061
401 204361 -21200
402 212240 38137
403 799782 808393
404 888802 261296
405 685341 562473
406 961992 537082
407 117874 -2372
408 851869 908667
409 880056 482782
410 253841 777351
411 908514 513427
412 147856 4780
413 911289 310312
414 590028 536298
415 114123 57786
416 730546 917503
417 669965 578109
418 882440 301652
419 814639 779690
420 321959 151194
421 253126 190128
422 281876 859158
423 824552 911491
424 252970 814210
425 515208 629892
426 633594 512052
427 513330 706442
428 824327 941780
429 235503 828094
430 505074 653808
431 635770 515501
432 862958 270577
433 791999 924269
434 235947 808270
435 973116 537366
436 970277 477856
437 785758 814971
438 681922 482379
439 828582 802923
440 785842 964153
441 893117 368821
442 188899 49052
443 906821 482668
444 943132 486948
445 778051 959203
446 589595 571774
447 894123 461885
448 962630 527524
449 897323 515182
450 684319 518671
451 499813 593847
452 945398 459993
453 263336 847611
454 505241 637750
455 761137 882261
456 658281 501745
457 260916 865927
458 137252 -39117
459 454046 682109
460 130752 41418
461 927636 484321
462 941453 456679
463 637445 598102
464 221303 844543
465 264395 823096
466 530498 688352
467 832164 288400
468 862989 267150
469 174073 25098
470 241855 793633
471 285535 813397
472 844234 283022
473 788238 894943
474 832168 283302
475 860586 744001
476 643213 547484
477 782211 970772
478 481630 633795
479 144436 22617
480 511210 683471
481 615453 575432
482 813112 261121
483 630344 643426
484 782678 982635
485 221322 791075
486 229576 194079
487 604231 552326
488 770829 332399
489 327388 148441
490 823913 324888
491 523041 583010
492 643568 587359
493 242636 749800
494 802758 817927
495 285385 130341
496 982120 521678
497 259901 775722
498 590490 499171
499 485519 695487
500 505001 664303
501 877800 711530
502 834957 270548
503 262476 862600
504 806056 778689
505 281295 841160
506 811570 910125
507 800454 964318
508 873971 337326
509 216407 -6587
510 631191 518732
511 493154 647912
512 781337 911882
513 810882 280676
514 644308 547222
515 247940 850494
516 102966 35788
517 622109 587730
518 615657 562286
519 957582 517454
520 272549 168965
521 211789 -8231
522 637839 524002
523 909205 468815
524 281848 206578
525 156783 56290
526 162355 34966
527 504078 651369
528 659539 520158
529 239239 171646
530 253834 129606
531 894228 493941
532 302292 149184
533 220678 129111
534 276721 772875
535 296874 189712
536 861259 325945
537 901058 488893
538 848853 293390
539 806044 737708
540 596060 503890
541 885645 479187
542 180349 10019
543 575164 580626
544 517394 665797
545 945153 477636
546 826543 285879
547 793189 943707
548 510389 574033
549 530957 656390
550 211732 761002
551 268509 828474
552 557598 669515
553 848795 970523
554 825567 317598
555 229717 8988
556 277011 794987
557 1000679 489121
558 265611 749948
559 850733 351289
560 496124 658856
561 144725 28378
562 926191 238071
563 893727 238031
564 804987 774472
565 233641 826947
566 758783 860455
567 615678 531626
568 297800 162330
569 912774 468276
570 226745 828869
571 952153 481733
572 198670 28406
573 636333 519071
574 888014 274962
575 501799 621447
576 901153 266214
577 143080 25036
578 233359 819852
579 193639 -19286
580 774543 921367
581 793189 300885
582 287741 818421
583 799905 804319
584 819214 731907
585 648289 553395
586 887408 444537
587 170726 33268
588 818683 346281
589 751003 777483
590 886556 469160
591 198504 46527
592 860331 877598
593 832381 303651
594 211633 142769
595 523317 606861
596 231072 814795
597 769817 757231
598 601699 537558
599 892306 306800
600 829170 312017
601 638313 528738
602 506628 592611
603 532822 616823
604 793055 920241
605 297796 133974
606 960963 283474
607 617761 552167
608 87871 45970
609 625830 575674
610 891133 781486
611 687798 537817
612 839156 286570
613 876358 782289
614 615777 552725
615 647324 507199
616 867214 322200
617 801742 927095
618 296769 143251
619 805479 777377
620 739133 770742
621 865636 299480
622 178976 26216
623 264594 202274
624 233619 815914
625 259095 157319
626 111261 48766
627 225482 808215
628 801503 894818
629 209692 32076
630 290345 252954
631 724239 927400
632 622136 561082
633 982865 484393
634 231737 185749
635 241897 804735
636 270718 795012
637 103374 35597
638 879706 337010
639 627694 507858
640 834702 780032
641 869788 524678
642 788424 780559
643 809096 796006
644 520915 631111
645 218583 813051
646 250702 759801
647 875334 282888
648 282807 162102
649 278247 190304
650 551684 653976
651 264900 810421
652 635291 553566
653 935180 464286
654 212105 770010
655 527558 630214
656 138363 46619
657 890476 248945
658 600691 479885
659 839942 834400
660 275575 816878
661 619463 562122
662 200228 186375
663 778505 797570
664 535461 608032
665 212303 46542
666 647959 491000
667 677241 572522
668 872954 263907
669 906428 326356
670 204852 16649
671 262849 794283
672 785907 940751
673 921219 587813
674 916690 488702
675 907404 508926
676 143974 -5667
677 770563 777335
678 928628 514400
679 270020 151252
680 625607 532011
681 771197 889520
682 201371 209311
683 276159 202582
684 897378 470615
685 245690 177328
686 294360 160009
687 239949 171534
688 264738 810853
689 532525 635383
690 739458 553866
691 236241 175392
692 850375 299843
693 219398 739403
694 873760 776378
695 479708 662868
696 782799 739163
697 247806 827829
698 842595 350145
699 764757 967027
700 244078 235499
701 972859 475201
702 904339 499925
703 671130 545635
704 721984 922503
705 852141 820459
706 794769 825968
707 778245 748689
708 816928 865963
709 692837 558011
710 265628 817286
711 855756 225665
712 915008 271539
713 129985 36464
714 775952 922906
715 519311 596336
716 841091 266225
717 331598 798612
718 808452 784707
719 473019 685621
720 850453 316057
721 618613 589992
722 204979 43671
723 641268 550827
724 881728 313113
725 755491 811225
726 787408 245146
727 502225 612686
728 792976 272829
729 339909 170891
730 761608 794260
731 269816 815892
732 621522 551024
733 634824 514352
734 914880 503749
735 308949 813258
736 768443 910836
737 946450 532219
738 849064 279728
739 643781 575255
740 808928 796238
741 526961 664929
742 426453 679240
743 121612 49515
744 738673 952186
745 223898 224065
746 544434 580048
747 839129 333768
748 507404 638617
749 912579 281124
750 653857 546869
751 530116 710977
752 470689 624600
753 501832 615058
754 229555 126418
755 180000 12571
756 825865 757476
757 525271 716851
758 174292 10965
759 475878 601127
760 774714 818592
761 898870 327946
762 801840 340985
763 844717 936401
764 783745 924343
765 153838 40009
766 925057 492387
767 865059 293051
768 132087 4041
769 189903 810707
770 865775 770394
771 965861 531313
772 838813 330205
773 291922 843400
774 909909 506684
775 678723 542184
776 655388 520958
777 172702 -39823
778 238949 184264
779 254283 249346
780 804541 791168
781 240411 157665
782 955412 502162
783 172246 -10165
784 165429 -18327
785 252935 782716
786 977648 508697
787 637562 561353
788 148922 63389
789 138255 7168
790 697209 522462
791 90055 26750
792 914388 474064
793 191449 44300
794 837448 353201
795 277420 206241
796 799610 815495
797 834733 776559
798 247080 216140
799 288674 147866
800 794788 792295
801 852839 800157
802 643083 519337
803 160527 7494
804 580751 577496
805 243036 198249
806 910408 487619
807 212381 -48686
808 618025 551592
809 295662 187971
810 661521 569100
811 255745 242638
812 764763 772024
813 203342 50620
814 868990 531232
815 966275 500126
816 212147 162625
817 768038 897911
818 743954 934488
819 245136 31350
820 833141 811032
821 177520 38726
822 842824 745482
823 225202 160
824 994086 488961
825 271581 122264
826 263816 797149
827 904568 280338
828 910675 433723
829 944355 460335
830 560698 613528
831 698354 494919
832 241908 222857
833 527035 619376
834 892017 494350
835 866835 813144
836 573285 556869
837 636679 553013
838 206277 870414
839 851762 867786
840 237607 147415
841 131737 15694
842 242921 857123
843 272900 836114
844 910705 509445
845 826801 786728
846 877150 505577
847 226612 789861
848 950377 495343
849 938134 498269
850 828116 921134
851 856579 269322
852 835821 791411
853 602089 536582
854 239380 838035
855 963811 440724
856 839358 945341
857 653931 502494
858 630012 547036
859 528867 653754
860 814260 917721
861 549548 561421
862 946572 529155
863 828536 777210
864 823225 318179
865 876112 311834
866 193890 -54345
867 820492 929340
868 525363 640082
869 540863 589562
870 821076 839179
871 688694 560926
872 540464 622955
873 176269 50585
874 950484 530296
875 721818 913085
876 836071 779032
877 528902 642318
878 551775 620620
879 241223 774070
880 220376 164236
881 550559 676620
882 205089 23742
883 860026 304994
884 848579 726372
885 514917 603566
886 823790 928356
887 619804 571737
888 279918 730912
889 859901 312024
890 622994 520966
891 830571 794129
892 481196 610328
893 512630 724816
894 493453 712378
895 877706 482800
896 165266 -4985
897 237226 183155
898 812508 310711
899 853435 361510
900 724496 906816
