NAME : portcgen-800-805
COMMENT : portcgen N=800, seed=805
TYPE : TSP
DIMENSION : 800
EDGE_WEIGHT_TYPE : EUC_2D
NODE_COORD_SECTION
1 216676 486474
2 372233 385832
3 271861 620645
4 268897 666851
5 298255 517267
6 178756 452401
7 341923 490021
8 1059989 221697
9 278289 751587
10 117387 350092
11 943445 143082
12 248760 343058
13 996090 143518
14 227898 741863
15 219243 291213
16 393866 480159
17 324587 615407
18 177029 290929
19 218350 576632
20 336222 402095
21 453573 359572
22 362769 427618
23 247776 541296
24 294875 761978
25 937768 184149
26 1028780 173409
27 337358 900351
28 379737 351763
29 375924 926906
30 314225 377467
31 287114 398062
32 145736 267876
33 946216 215967
34 291110 462799
35 197362 744109
36 417485 876664
37 110089 304282
38 957576 292753
39 311686 491387
40 350993 434881
41 255028 664441
42 978188 153397
43 982747 147670
44 299057 429283
45 257270 649671
46 111980 387438
47 152960 385102
48 351045 408306
49 387075 905967
50 302003 428618
51 267571 749223
52 427210 411754
53 358562 910156
54 357259 404934
55 464321 892485
56 241157 795334
57 239634 358506
58 978534 179153
59 904807 203981
60 388276 859722
61 248959 558781
62 270694 457164
63 154827 429192
64 309865 403593
65 134914 731970
66 197945 746920
67 1006702 185334
68 310220 388859
69 974632 109792
70 221751 730277
71 231081 617394
72 272116 501697
73 205178 735941
74 257011 761877
75 956231 240820
76 231543 724906
77 111392 457979
78 375689 401685
79 170034 469126
80 320347 471075
81 178765 319059
82 280629 469523
83 235346 402022
84 236575 485993
85 928083 142001
86 939980 201882
87 173665 433530
88 164468 482379
89 1000706 170113
90 377531 398095
91 164744 323097
92 422099 941173
93 150588 445363
94 240869 713353
95 315096 468266
96 359672 871921
97 363674 411891
98 940816 151255
99 155312 510061
100 317565 543055
101 195017 335863
102 234096 726775
103 318055 597651
104 931059 77815
105 432608 891393
106 114254 324821
107 323388 897065
108 948602 224330
109 440094 910977
110 461665 874544
111 299154 596029
112 185075 730605
113 313811 337492
114 304199 653497
115 381202 402993
116 365846 409202
117 145376 305595
118 260837 768323
119 381636 863712
120 318097 414311
121 225265 325257
122 991743 165576
123 384368 893744
124 289068 644253
125 348947 493209
126 309286 589264
127 215086 760673
128 200518 650773
129 265795 623461
130 985940 149924
131 192486 509125
132 317474 474892
133 417240 443315
134 310211 699205
135 924439 198906
136 332477 356785
137 316820 503500
138 279675 587835
139 431824 394919
140 195134 505856
141 335942 441696
142 171157 501381
143 108411 452549
144 275703 553673
145 200766 437807
146 443399 908148
147 278478 480514
148 955758 222874
149 257404 581471
150 145632 327602
151 221175 678970
152 306001 626366
153 201573 457691
154 999156 174903
155 208069 470254
156 946630 170631
157 287142 621349
158 198234 333406
159 965896 145154
160 262039 516996
161 911317 227396
162 203691 706280
163 359561 371362
164 254597 433515
165 255060 599308
166 242779 687504
167 293535 441586
168 372506 1006167
169 295234 640251
170 164784 368236
171 223618 732504
172 200069 326105
173 374221 367048
174 200666 512750
175 218361 755736
176 233250 656187
177 403249 913111
178 335411 524035
179 139885 352074
180 220392 496123
181 184353 440777
182 1054280 154266
183 382374 409909
184 381820 399704
185 423003 868873
186 202281 463225
187 231996 618016
188 265367 485703
189 226741 635891
190 398444 352144
191 313302 386155
192 176628 485608
193 346570 844101
194 284775 483269
195 203858 459270
196 356688 944342
197 295462 521666
198 251196 638466
199 309929 497221
200 227154 774352
201 382164 431188
202 158416 512328
203 278796 603510
204 116869 393923
205 319988 458044
206 99231 448336
207 1007011 152900
208 373432 406742
209 340090 835198
210 902760 182282
211 275192 608437
212 945087 202617
213 270034 560791
214 383174 409565
215 406670 930768
216 949816 166754
217 169727 415343
218 285656 574217
219 150992 466404
220 206839 618093
221 119522 351969
222 261634 745238
223 304877 479361
224 190690 565964
225 227606 445289
226 282809 596279
227 955884 155687
228 963972 204412
229 403323 913482
230 384880 924438
231 346881 366140
232 249301 700375
233 380252 397846
234 194789 613243
235 313101 525139
236 923425 163050
237 342391 999171
238 302438 429231
239 1023595 153738
240 147631 292158
241 177442 721297
242 326277 670933
243 441668 901087
244 319358 387013
245 307707 498312
246 356745 548091
247 943710 110310
248 390999 865379
249 244253 747673
250 309654 592616
251 338957 409670
252 283170 400187
253 139164 363597
254 261861 488111
255 176903 453875
256 860657 218284
257 303032 614524
258 1007918 155073
259 152005 334283
260 288580 743593
261 153350 303899
262 226665 708561
263 295973 520024
264 356347 894745
265 389518 928949
266 277556 505927
267 407705 378083
268 242075 726728
269 968575 188233
270 283155 466025
271 347925 510165
272 327121 398841
273 469892 919068
274 310760 488283
275 263671 432499
276 992070 188076
277 145519 458220
278 239550 635677
279 398035 436779
280 213477 593571
281 936993 144733
282 221475 737147
283 237685 733489
284 198496 794072
285 195907 359172
286 264239 725917
287 197768 439293
288 267010 577926
289 974735 208192
290 356263 973999
291 172100 342319
292 204039 730724
293 190484 364191
294 193595 484247
295 76907 312768
296 297569 639443
297 289240 611121
298 175836 322661
299 239285 747505
300 196002 442123
301 290200 615516
302 183268 448253
303 87531 368137
304 293979 383911
305 287051 518608
306 409738 902265
307 130239 270118
308 157201 348466
309 167750 472777
310 297479 619011
311 327087 378288
312 392380 391787
313 332491 872898
314 387362 328022
315 374029 896568
316 297538 523572
317 903481 159165
318 257115 773997
319 265397 281039
320 361059 382317
321 227245 488820
322 961173 197479
323 325431 433519
324 275797 484029
325 145326 428416
326 936309 206190
327 200268 477526
328 193960 394273
329 373991 370018
330 446818 975262
331 446884 839587
332 902956 80759
333 1033398 132734
334 292617 552279
335 159667 429738
336 294596 444627
337 1006767 165957
338 233654 457827
339 473487 829268
340 229575 425580
341 394863 911328
342 126481 328175
343 249200 630609
344 227167 721389
345 251407 585263
346 1036016 169510
347 293619 674866
348 419772 982836
349 164844 477957
350 305865 456682
351 257540 658071
352 284855 297148
353 936644 87221
354 196455 433879
355 977704 155887
356 226795 641571
357 359285 327336
358 140059 349575
359 339400 485033
360 394062 868342
361 247564 696955
362 158660 350815
363 382434 417522
364 383499 900029
365 261111 481508
366 393324 922836
367 1010310 163714
368 250876 647789
369 176413 410143
370 260499 462500
371 335678 409042
372 289842 462981
373 195961 706478
374 280200 488661
375 938549 115774
376 250855 665332
377 206349 264251
378 388054 428317
379 309205 452073
380 359841 604818
381 252370 701164
382 354665 436631
383 229724 479578
384 175066 465044
385 265519 498633
386 365104 415519
387 360161 428852
388 227964 685151
389 111361 262239
390 413086 886646
391 160412 688596
392 410814 903426
393 232512 741965
394 168465 340252
395 962505 187258
396 196820 697673
397 264235 542689
398 259923 630883
399 257980 594800
400 195927 408300
401 255192 644371
402 288816 461105
403 199286 378610
404 223526 688750
405 153438 444588
406 384063 920212
407 275609 574351
408 380092 943572
409 249284 359351
410 165984 453197
411 191917 427415
412 247251 537312
413 246361 509775
414 291132 604378
415 269940 485320
416 237429 475969
417 936005 264771
418 303275 515005
419 346955 401395
420 339378 493556
421 955542 143074
422 155749 460660
423 199435 757099
424 207448 290667
425 197883 312058
426 109035 420029
427 332993 531183
428 297543 485443
429 365736 941352
430 277217 576473
431 910453 137098
432 427933 939822
433 268373 707644
434 207201 498675
435 245852 723864
436 193075 462130
437 298783 576949
438 279217 493092
439 343616 643229
440 254349 536223
441 964029 109374
442 388165 580017
443 211503 732931
444 182371 447969
445 311593 583029
446 941780 164697
447 169743 409228
448 1002823 193963
449 294825 642649
450 251460 714429
451 238437 655692
452 230812 543454
453 969670 180592
454 121033 282247
455 912956 174311
456 280071 463946
457 170547 465897
458 289986 469649
459 337511 417791
460 405178 874837
461 433712 958812
462 938517 199137
463 205052 738767
464 256429 665431
465 374724 925020
466 251771 737518
467 240988 495417
468 213708 367526
469 359857 432012
470 184012 445621
471 142712 358452
472 197122 361914
473 246258 562385
474 428368 879568
475 246465 490998
476 278806 449752
477 164800 324417
478 251316 601170
479 345998 413502
480 266441 475309
481 932675 200398
482 918998 165925
483 269338 477614
484 449067 379145
485 999582 189557
486 166591 519355
487 273065 650671
488 393054 401771
489 929739 210016
490 947728 157579
491 960687 134238
492 171368 505906
493 411172 979542
494 277376 630563
495 268393 629885
496 294972 745257
497 267749 445327
498 258969 693520
499 870658 182561
500 388962 412143
501 177841 473143
502 183939 798226
503 244010 435780
504 197823 434902
505 300608 521179
506 138807 466375
507 236496 765766
508 148965 333384
509 374601 373391
510 349947 885078
511 261493 697356
512 349730 404330
513 988845 107755
514 338870 434430
515 322509 557457
516 300740 427032
517 349149 406715
518 280589 424500
519 417479 894277
520 291442 337883
521 184663 488726
522 264199 406315
523 207908 367009
524 450466 422406
525 988342 169821
526 896425 138962
527 187616 318868
528 291811 353607
529 352848 389678
530 959982 199520
531 142548 446335
532 286304 697659
533 98794 480127
534 206724 545789
535 232887 765891
536 942715 138127
537 231680 744717
538 285050 483815
539 330475 593147
540 285864 645198
541 301814 602153
542 306147 405788
543 279543 477891
544 425504 881638
545 167931 457249
546 966776 194499
547 275027 675731
548 118258 509440
549 164295 408859
550 903474 141906
551 312759 526480
552 384133 896237
553 169657 415403
554 214545 427429
555 339711 375535
556 248850 340786
557 322332 643404
558 113790 453279
559 256205 482854
560 192052 731381
561 274123 596691
562 297328 848569
563 169989 344645
564 304050 435091
565 230341 488970
566 234463 677824
567 349155 899494
568 338939 409569
569 395165 952057
570 161062 288320
571 232591 740765
572 206359 707557
573 949145 137446
574 1001523 180803
575 376221 886998
576 137228 353538
577 180820 312337
578 925483 155136
579 308357 568751
580 171551 737205
581 327121 509196
582 951298 165256
583 237095 302541
584 957295 192316
585 247110 681740
586 276652 815129
587 353213 434770
588 295329 449479
589 890242 117430
590 942333 167008
591 257129 468056
592 364866 782842
593 358381 901219
594 971510 161174
595 314642 411905
596 290693 635953
597 910226 204015
598 261767 645097
599 389433 376659
600 233495 653229
601 178233 725124
602 902014 124913
603 118783 290818
604 979825 149696
605 190660 385654
606 191135 451051
607 195487 764550
608 138163 432406
609 210554 469966
610 232104 552384
611 401072 837871
612 164747 280990
613 284888 705807
614 282515 477562
615 265034 439296
616 350698 574585
617 407101 947270
618 367519 480046
619 102692 327601
620 101467 283928
621 381168 396582
622 286060 630548
623 345011 940366
624 238861 359859
625 954197 120713
626 163592 394979
627 138975 303278
628 270987 620721
629 289359 801982
630 375554 918281
631 125744 283560
632 918438 216700
633 303006 692631
634 184277 425665
635 243583 632529
636 192805 337647
637 221110 629160
638 345598 613586
639 355169 422464
640 236368 685586
641 157542 464507
642 160105 524930
643 253563 694996
644 887132 181626
645 257193 787822
646 228179 464763
647 276341 681819
648 153198 340387
649 406014 947193
650 143295 288912
651 966751 135192
652 419178 953538
653 421244 912647
654 269644 688396
655 449414 902575
656 296786 421827
657 147521 319414
658 268036 490685
659 398236 947372
660 181881 312751
661 338127 906992
662 420913 955437
663 356248 430105
664 158488 422603
665 101939 450140
666 267039 581462
667 157804 331728
668 163321 340581
669 947794 112058
670 968663 138237
671 153950 492429
672 234898 734748
673 1004280 111261
674 970241 150024
675 115909 377631
676 240586 559925
677 297024 787244
678 111965 327191
679 200116 399121
680 404300 949593
681 247105 851673
682 357618 928982
683 298986 611161
684 188284 325472
685 988217 167864
686 404365 408666
687 184908 719442
688 95265 310957
689 98437 407285
690 307572 596039
691 939358 171842
692 234805 378985
693 121860 493738
694 390027 856239
695 119437 289305
696 333128 360054
697 314062 508452
698 395075 878372
699 127479 382886
700 312710 381616
701 287818 632035
702 953527 194080
703 323064 404500
704 242586 494561
705 197385 547463
706 344774 454289
707 276483 484926
708 223175 741295
709 180011 411939
710 312547 631812
711 261020 634101
712 196885 419472
713 282954 541501
714 295679 755159
715 128674 433840
716 205580 369757
717 251778 580091
718 220694 331689
719 221083 749325
720 234307 449771
721 406435 849517
722 325726 556085
723 230195 472061
724 373337 935813
725 137065 487920
726 896470 161796
727 280780 472666
728 144105 381817
729 1002290 171672
730 391457 873120
731 193642 466378
732 231723 691747
733 266948 583455
734 145238 458417
735 326816 664677
736 324240 449972
737 396595 945245
738 293442 556011
739 208863 749415
740 433515 935931
741 274643 613536
742 170245 359976
743 267609 712357
744 948549 160310
745 316617 924318
746 248554 583183
747 900040 136070
748 927598 190442
749 129744 469579
750 140131 377685
751 226683 770024
752 254781 440696
753 986463 192589
754 916401 179945
755 288415 582231
756 1001896 171274
757 187420 420566
758 328650 584227
759 292398 455190
760 222348 558656
761 347016 376599
762 263997 747776
763 263855 414044
764 937837 112625
765 281853 667624
766 177497 440449
767 161677 361242
768 322521 517967
769 313043 537777
770 372248 876901
771 211695 417480
772 257635 455057
773 337058 950634
774 269234 627591
775 254196 696005
776 415013 368124
777 393371 917139
778 977290 183767
779 189418 468958
780 183133 310783
781 251552 589936
782 306653 441150
783 942498 161272
784 334455 416870
785 245865 452838
786 264383 733767
787 191138 359000
788 370500 379393
789 337559 420955
790 972368 90903
791 286873 431412
792 299880 582108
793 926817 256273
794 344408 889105
795 958582 150769
796 194449 489401
797 176086 512454
798 142242 425793
799 303652 614039
800 910699 178344
