NAME : portcgen-1400-1403
COMMENT : portcgen N=1400, seed=1403
TYPE : TSP
DIMENSION : 1400
EDGE_WEIGHT_TYPE : EUC_2D
NODE_COORD_SECTION
1 285146 519498
2 598397 886646
3 30607 193670
4 766843 264279
5 512787 474430
6 448647 516947
7 457309 562235
8 275761 518578
9 26552 58035
10 399158 743851
11 485085 1011589
12 467700 500418
13 437406 540457
14 760200 222909
15 194504 859181
16 536544 975734
17 474605 377355
18 600453 895987
19 474636 449738
20 40192 969366
21 350680 749785
22 368967 712069
23 804027 152006
24 160846 852456
25 -4968 843159
26 -27899 161224
27 519839 995560
28 40060 90545
29 160739 829962
30 497608 489093
31 -9200 944496
32 442997 459212
33 429088 433360
34 454874 392817
35 560291 869404
36 453997 525577
37 450278 341255
38 615773 917446
39 574390 900460
40 531486 1003333
41 -24162 229682
42 52830 841913
43 596886 870641
44 575892 838458
45 536001 1008359
46 537238 865179
47 584204 927768
48 502545 524363
49 572006 857321
50 14155 55990
51 485350 513570
52 156803 864126
53 346316 509836
54 529712 900786
55 334489 502330
56 179984 825116
57 -19156 264881
58 -1826 101422
59 20473 954398
60 -369 219639
61 762159 218031
62 794674 154113
63 563600 911684
64 735598 289171
65 163433 816735
66 284276 522581
67 -60386 204435
68 471967 497534
69 333852 513388
70 362686 721060
71 277193 544989
72 552026 907814
73 734564 232909
74 502288 564722
75 492428 380287
76 39498 902813
77 162260 822623
78 290862 497400
79 22237 92910
80 607337 887660
81 -33282 958382
82 460749 388651
83 -3546 214681
84 322736 684848
85 803005 178699
86 527226 980377
87 275331 538376
88 737682 272618
89 501255 367297
90 474405 535529
91 -941 826977
92 41702 870876
93 726309 291421
94 751617 201695
95 467522 375537
96 597848 908190
97 477515 577909
98 554248 907776
99 59863 912314
100 390264 789039
101 313399 527645
102 521785 969385
103 699234 248673
104 763616 301090
105 271607 591021
106 772784 185306
107 -5948 892219
108 773644 185372
109 379359 712423
110 436652 388667
111 103626 100153
112 528000 993980
113 574097 923027
114 574210 861836
115 452494 367568
116 485388 421420
117 542348 868401
118 143774 871657
119 446642 419804
120 295027 485124
121 126312 774801
122 554972 902462
123 275589 530301
124 2899 217691
125 239468 834430
126 6871 271560
127 367074 726696
128 12004 871638
129 154575 846864
130 427516 386858
131 767045 188185
132 778321 216037
133 489667 589545
134 47908 839912
135 289154 527261
136 395205 717223
137 10472 39148
138 479978 455909
139 597333 857307
140 2999 920104
141 728706 260108
142 596930 879804
143 591293 879000
144 -19733 946032
145 317478 511447
146 -23192 214868
147 338617 545226
148 850730 172712
149 285314 519824
150 313564 446817
151 314497 735502
152 452872 367094
153 453644 409732
154 339622 519713
155 359091 775556
156 23349 829578
157 416951 511306
158 499375 352443
159 529961 525629
160 352121 723077
161 307400 533514
162 384944 713184
163 72494 103104
164 457526 431645
165 12892 931280
166 22613 108600
167 35419 832627
168 44397 860887
169 -1188 880618
170 352833 735365
171 179233 834063
172 519116 397514
173 477945 432184
174 162677 788660
175 583807 849262
176 468263 375403
177 483070 427169
178 368365 778835
179 -47422 240672
180 304217 547003
181 536560 1001475
182 560554 1020972
183 587164 906174
184 -13458 114517
185 65528 928875
186 23448 842867
187 190016 827401
188 779399 221231
189 200228 843965
190 559955 915020
191 32170 67663
192 371061 698776
193 298674 522875
194 168999 821499
195 34874 948779
196 360640 740957
197 494733 955415
198 337848 523115
199 517308 522062
200 408543 719967
201 453514 602960
202 21491 253796
203 452567 409062
204 27248 864750
205 102890 94588
206 2986 802708
207 199922 854731
208 478463 368889
209 582257 924737
210 486036 570525
211 3698 863704
212 499865 985837
213 342414 557971
214 -25912 256548
215 358730 742231
216 769144 269937
217 554815 888910
218 1853 235779
219 142021 834453
220 64117 78195
221 319557 492855
222 767656 183493
223 456667 408037
224 203248 839952
225 299182 502920
226 752972 153508
227 588205 921005
228 27368 953715
229 478110 989618
230 599 189955
231 432231 524121
232 452309 422749
233 4473 262056
234 736002 240493
235 464857 406975
236 763328 235106
237 769521 279867
238 371315 718520
239 -9571 184975
240 304083 530499
241 567811 892551
242 473465 596650
243 1315 952374
244 546433 961187
245 448780 403546
246 780975 138028
247 423553 711183
248 756736 200539
249 536021 1040401
250 12579 900260
251 526456 971682
252 331324 545452
253 493865 556190
254 529513 830844
255 593386 879309
256 463620 435621
257 770162 197358
258 745479 266807
259 350804 705236
260 489241 589242
261 352004 708707
262 466123 365181
263 55815 901489
264 172191 807215
265 476681 392480
266 804266 187916
267 572247 845167
268 565593 977665
269 194565 854836
270 549751 995095
271 -20055 219222
272 534707 989669
273 38484 45462
274 514185 579222
275 -16053 837263
276 395651 437886
277 547913 1017456
278 334718 527862
279 3507 916071
280 -11739 891269
281 255104 493965
282 5046 901331
283 790924 199647
284 309591 533485
285 354696 500740
286 34905 1021571
287 769062 171245
288 428422 357358
289 546815 966603
290 779970 177189
291 474277 529545
292 40677 92291
293 423384 437475
294 373978 739720
295 538953 585398
296 467546 338111
297 788395 212132
298 -1607 809553
299 534146 554709
300 302293 526364
301 478654 467635
302 746417 191751
303 496588 408728
304 762966 183618
305 434455 582336
306 409060 743545
307 162670 849419
308 525996 1010665
309 144715 852132
310 7432 222867
311 32051 63525
312 44017 892406
313 467383 506342
314 18159 28548
315 37371 887335
316 566627 876265
317 504298 520851
318 845078 212275
319 610592 906100
320 499460 528887
321 461605 530159
322 5304 901469
323 741569 257239
324 36166 87204
325 36368 61239
326 45081 807022
327 530345 428675
328 197511 799035
329 751718 153587
330 -7647 949155
331 19878 50597
332 482474 540609
333 408203 560452
334 539617 889190
335 16587 911974
336 477334 577329
337 14513 66893
338 349357 733582
339 595749 912580
340 191455 863787
341 471011 328843
342 45843 231862
343 267676 494754
344 483209 432133
345 184196 866821
346 83001 92352
347 560071 1013602
348 428651 377785
349 521300 562476
350 336961 708698
351 815335 292708
352 518708 1032802
353 460292 408727
354 537401 948811
355 743768 201859
356 521616 986084
357 465232 478503
358 533024 908761
359 49745 922069
360 149398 852484
361 810629 163406
362 75882 49932
363 628723 892993
364 457850 456263
365 16733 932136
366 281291 564815
367 503785 879975
368 369511 743675
369 299476 480276
370 32570 241498
371 543355 1000723
372 15307 961379
373 509606 1003367
374 534758 973218
375 19608 931933
376 472508 486987
377 182811 842320
378 537648 1027285
379 453777 505842
380 792879 253456
381 163830 820418
382 322487 518817
383 490656 546668
384 291170 518698
385 437061 326506
386 739610 206558
387 166948 821613
388 293144 535704
389 202593 852592
390 519622 984751
391 8713 913006
392 530578 1052308
393 193758 824355
394 482574 427420
395 485314 527896
396 209651 818746
397 214400 814113
398 34796 246379
399 150670 865327
400 819323 246110
401 552760 1029825
402 414554 359365
403 314945 700231
404 10112 890966
405 401031 728289
406 12348 981018
407 336730 515120
408 312128 511403
409 7381 245515
410 -6298 207683
411 618023 886959
412 544525 1050882
413 815405 197246
414 35448 27473
415 1420 103401
416 763713 239134
417 484108 473860
418 518188 365780
419 495214 582563
420 2329 879010
421 266 904785
422 -10107 854616
423 -28420 875323
424 330393 488648
425 30513 914707
426 440321 429105
427 -38443 223521
428 529886 991451
429 11866 932161
430 468621 387176
431 615014 904697
432 760494 284782
433 4394 199823
434 318341 713834
435 414101 364707
436 194846 848209
437 588437 876188
438 590806 909640
439 26443 908646
440 813338 153849
441 336588 712180
442 337820 514725
443 42247 851381
444 1039 834380
445 177242 842003
446 514490 413976
447 581699 885100
448 -2420 84973
449 757527 301493
450 463432 403054
451 586227 920376
452 528339 504232
453 814441 232317
454 507474 505605
455 13573 231104
456 589350 879898
457 800309 200314
458 775028 174842
459 580882 881075
460 476008 1027223
461 297552 515990
462 767149 227969
463 509848 559417
464 26461 134701
465 846670 201962
466 357638 720420
467 469748 411685
468 747947 246765
469 780556 264116
470 8371 897583
471 618484 897709
472 19247 937913
473 -24531 239921
474 783843 219112
475 19559 943319
476 756055 267478
477 22027 83639
478 511923 996698
479 -7314 832967
480 163594 833404
481 506719 962212
482 462653 366227
483 7075 913262
484 798731 189631
485 557097 910796
486 544053 859666
487 378584 744571
488 478608 402968
489 543774 538758
490 450358 402185
491 399534 692150
492 525534 437865
493 474509 568912
494 510882 562858
495 61421 929474
496 599188 960985
497 524690 975653
498 305763 542523
499 379129 696514
500 457020 427023
501 772350 212875
502 221316 844341
503 171487 868162
504 786986 190299
505 485326 412703
506 695524 220532
507 729915 264789
508 487238 376827
509 456231 453385
510 -8112 244444
511 27845 894165
512 520118 1031744
513 514391 542842
514 799022 284562
515 503020 421615
516 546393 925038
517 488313 386859
518 788755 188235
519 304131 728096
520 -14539 211688
521 588060 896015
522 18794 98042
523 438752 381538
524 12577 47682
525 494568 1014722
526 161144 860060
527 470267 425850
528 479798 1014193
529 80400 843264
530 34816 940268
531 725674 232994
532 348204 707974
533 761104 317089
534 600414 884051
535 30857 77684
536 273336 526255
537 353127 711302
538 206124 836695
539 70805 83866
540 338955 691115
541 52217 76304
542 485528 429559
543 596944 905929
544 750934 279726
545 687633 319474
546 303405 521821
547 172615 769101
548 49731 94497
549 405175 720497
550 790261 217455
551 496387 544648
552 3061 824672
553 737811 280411
554 444477 368997
555 191454 848307
556 805599 177190
557 301882 559994
558 803131 192312
559 786276 188089
560 486701 370583
561 749490 248015
562 488532 442274
563 30063 973410
564 186993 825626
565 180898 812941
566 48886 74390
567 490499 1001577
568 202477 766574
569 495835 435276
570 429538 393641
571 613358 897583
572 -9721 209910
573 7193 238676
574 770281 266280
575 724999 267892
576 499849 573647
577 477293 395346
578 -26838 153989
579 294086 510118
580 219785 815513
581 -10620 44958
582 51760 260276
583 21190 258531
584 423051 342288
585 -16635 850260
586 479152 446986
587 10483 228040
588 36554 903177
589 529553 976643
590 288307 514721
591 38129 111593
592 -36273 229996
593 730988 318209
594 580155 922608
595 453038 531589
596 178250 779741
597 -35103 78432
598 506917 588893
599 49495 73176
600 -18884 174119
601 762822 292642
602 187580 802426
603 69407 70318
604 46345 915723
605 563616 523403
606 801383 181109
607 2714 202040
608 426849 482003
609 749463 273232
610 796281 170942
611 154595 842149
612 275298 553404
613 -45877 198136
614 498223 511040
615 38645 863891
616 112974 811531
617 760964 245377
618 351524 754340
619 460437 386608
620 340990 778314
621 487803 1020104
622 350520 703910
623 690786 284218
624 319656 582645
625 -10145 207367
626 463348 434971
627 3159 238224
628 277742 507200
629 22288 266184
630 590370 873688
631 -18396 132854
632 24538 256441
633 -4105 843281
634 712252 264791
635 26492 248225
636 177171 841565
637 570632 952679
638 472434 556903
639 -1137 920062
640 458045 385335
641 488136 340754
642 199688 841237
643 3749 115089
644 543491 900265
645 51342 57231
646 459801 353962
647 173010 870495
648 4297 223532
649 46527 118795
650 462883 542866
651 -3573 861774
652 -26680 840713
653 816102 203368
654 23524 7107
655 519252 936453
656 733843 284960
657 338385 509693
658 -9370 228293
659 419643 367092
660 473188 367241
661 783840 141368
662 392415 420750
663 760908 259329
664 5187 830215
665 6554 120791
666 10227 963218
667 452776 985020
668 498372 1014013
669 597009 867562
670 1069 239108
671 592919 892755
672 425111 466569
673 400280 747175
674 319894 767091
675 345587 742600
676 41643 895456
677 176344 839965
678 499981 574063
679 493150 951009
680 370266 737328
681 510095 549007
682 487646 452778
683 777659 188364
684 505559 462036
685 572935 953484
686 341688 697387
687 377746 750067
688 24043 216201
689 -41513 251287
690 183564 831631
691 580352 906517
692 440149 397684
693 495008 562339
694 568512 885949
695 -2029 60462
696 304827 517857
697 764711 266384
698 573260 870584
699 287781 487828
700 23350 849846
701 3238 884466
702 449967 405119
703 722571 195555
704 37465 263133
705 512891 552005
706 -30126 245943
707 481270 375632
708 56208 78316
709 566549 1004658
710 6774 883887
711 308913 532512
712 641112 869186
713 451293 470070
714 424689 373841
715 523274 1010622
716 794969 137869
717 602749 948610
718 307580 522061
719 474060 439457
720 -2399 99635
721 624951 880219
722 756917 248026
723 373494 761217
724 12031 931248
725 765785 289717
726 492669 508370
727 220200 525048
728 477134 524094
729 -3363 875920
730 322053 522579
731 -28698 840895
732 583276 865117
733 -5346 954782
734 285315 549636
735 304254 533611
736 12233 176769
737 444960 420490
738 283815 523956
739 344969 710211
740 353353 524795
741 311358 536256
742 375756 497167
743 480434 373203
744 200266 818710
745 21115 933264
746 861 838141
747 374141 726335
748 217443 840869
749 1871 831680
750 29135 54133
751 169176 839941
752 48151 69105
753 43349 814660
754 530174 979366
755 -16222 841527
756 29343 837772
757 144590 881916
758 168308 834553
759 750067 272778
760 308947 517814
761 55689 86288
762 24530 62382
763 734521 254371
764 544304 915139
765 307501 493990
766 460872 585901
767 7232 930062
768 857448 175441
769 37518 118619
770 811663 173022
771 475779 430907
772 852260 216467
773 317772 703834
774 22407 928389
775 746828 327248
776 442300 563721
777 1768 838044
778 549816 951823
779 598310 878534
780 731980 174694
781 447261 373220
782 166826 807380
783 13625 884296
784 345356 757046
785 29884 102101
786 479291 368731
787 447521 388749
788 421048 550356
789 295177 503252
790 442138 413059
791 570801 866178
792 454389 448113
793 458021 545000
794 502252 435450
795 542359 912195
796 542762 894273
797 461173 498298
798 481285 416556
799 308371 531833
800 -17344 224593
801 29580 156976
802 455743 345895
803 164529 827436
804 543458 890538
805 494649 608525
806 12570 872485
807 760576 240961
808 -66 844239
809 785092 173353
810 380983 745086
811 17684 842669
812 460904 424328
813 356166 723621
814 355892 731714
815 363133 714901
816 449147 573319
817 342542 503024
818 311735 563338
819 441627 560606
820 531659 980448
821 458513 453641
822 732220 186727
823 532623 991771
824 563024 988617
825 522301 1034840
826 64977 922954
827 349213 712223
828 -23412 224615
829 605718 863653
830 25951 886603
831 451670 424141
832 793719 203545
833 -14131 100044
834 6486 853730
835 374578 737395
836 123267 797032
837 50301 937459
838 387271 755566
839 35519 184159
840 -56 197502
841 450509 407630
842 577964 883870
843 437198 409509
844 474964 448971
845 -14039 278338
846 -9628 826734
847 460888 552958
848 515181 458770
849 -1820 241793
850 516224 504651
851 5039 848869
852 506865 976228
853 -13992 845180
854 442662 395496
855 283825 509838
856 69643 70280
857 25058 904150
858 432641 453238
859 253188 494258
860 804206 283985
861 488558 567708
862 515612 562680
863 31318 230877
864 319928 740477
865 325829 715229
866 75308 56805
867 341422 698714
868 532282 991688
869 183192 802952
870 674242 249109
871 590191 867213
872 48286 90068
873 304986 551915
874 769521 269448
875 498083 459367
876 60141 94352
877 448942 344647
878 477723 533732
879 498790 542439
880 50480 188494
881 184026 812817
882 142351 924296
883 606900 899932
884 804358 208633
885 -1077 27216
886 37 849077
887 762946 284179
888 21779 79937
889 445772 442470
890 15845 67311
891 473439 439469
892 787017 238750
893 762645 226778
894 528470 892621
895 470516 436779
896 516123 955274
897 303771 515800
898 186868 885117
899 150431 842568
900 700799 253050
901 540266 918758
902 -45781 937449
903 16162 831537
904 618083 903610
905 524977 561567
906 707373 253124
907 54534 85707
908 732008 285031
909 325235 539780
910 9064 108086
911 298567 516059
912 171267 882946
913 504219 528699
914 20746 934255
915 583283 852226
916 475040 379866
917 450499 464356
918 -20899 225680
919 352056 729556
920 336235 491224
921 352714 721730
922 427058 341694
923 258618 546504
924 409153 709690
925 -5836 860906
926 -9107 860235
927 434844 555679
928 186188 778038
929 486989 534674
930 542881 849450
931 753032 254419
932 542822 909845
933 482115 466636
934 484895 360955
935 28380 235638
936 107913 876114
937 481776 500238
938 354719 742186
939 790319 206267
940 754474 160543
941 474831 996220
942 21333 24224
943 538203 431239
944 15456 856512
945 379073 686029
946 775388 291505
947 386978 727387
948 148818 841520
949 370899 723261
950 -641 54712
951 73185 233025
952 491000 561738
953 296653 526464
954 348059 696868
955 515828 970939
956 769903 166367
957 22618 920281
958 758180 145145
959 538358 950779
960 141589 823449
961 500143 565513
962 418528 338032
963 755013 276016
964 28007 922491
965 510679 535302
966 362684 704283
967 10506 196642
968 483400 970362
969 508500 432053
970 504523 348528
971 322088 490929
972 811344 165738
973 319240 480227
974 827436 202469
975 125173 831510
976 476581 543908
977 17757 837550
978 19666 862984
979 -2734 211883
980 336452 487807
981 9021 86554
982 732288 256080
983 16680 863459
984 523476 514637
985 10722 97750
986 24583 197112
987 749693 272799
988 230436 824156
989 583649 897149
990 764785 279075
991 756151 271847
992 13399 815641
993 546448 886500
994 441900 446889
995 21973 247803
996 527478 981998
997 764558 189297
998 -1513 943681
999 51426 62040
1000 512144 543604
1001 461530 399417
1002 486616 530636
1003 478663 372574
1004 332852 728518
1005 65529 920792
1006 167857 850356
1007 588883 919759
1008 425163 421213
1009 769505 214837
1010 505644 585012
1011 -38145 218650
1012 474190 395203
1013 479203 387793
1014 303413 532985
1015 66940 903326
1016 9110 911375
1017 703015 275383
1018 459373 402567
1019 450806 558279
1020 4427 31430
1021 474572 940377
1022 291971 480497
1023 600599 879216
1024 295657 501216
1025 198718 849973
1026 709363 289752
1027 -25197 831505
1028 579755 896845
1029 -19840 249055
1030 610107 880220
1031 189162 859674
1032 433222 421847
1033 478246 603580
1034 762190 330571
1035 611755 932128
1036 309091 556612
1037 -13207 936436
1038 545112 1020562
1039 -3572 244436
1040 290084 715596
1041 331720 732316
1042 38437 77151
1043 319409 470214
1044 463365 449079
1045 605286 893759
1046 73543 254453
1047 600733 853380
1048 635494 911693
1049 451750 345160
1050 430631 354432
1051 460953 392351
1052 493710 479200
1053 -2172 928142
1054 489422 525629
1055 352485 689708
1056 820058 190383
1057 -23295 913254
1058 5729 215966
1059 421883 346940
1060 510779 441981
1061 509111 982179
1062 22751 249917
1063 -22376 867936
1064 -18225 805177
1065 63133 74803
1066 264530 485557
1067 768359 287154
1068 30072 59822
1069 21338 968639
1070 466513 569109
1071 350262 725676
1072 562424 888351
1073 466174 585080
1074 -3286 928010
1075 26134 966544
1076 9588 188356
1077 67480 892383
1078 40703 78932
1079 564082 898568
1080 529322 986999
1081 447850 346674
1082 18343 851719
1083 53085 824729
1084 614061 907729
1085 287609 481859
1086 283405 521646
1087 -9538 947469
1088 355469 690867
1089 546624 976140
1090 45697 921331
1091 27912 887441
1092 354120 701397
1093 765677 198368
1094 328336 755273
1095 4932 242897
1096 504582 458253
1097 480450 431257
1098 -2146 224836
1099 576230 849769
1100 393943 743369
1101 163953 816156
1102 524023 446705
1103 235267 541242
1104 11089 174054
1105 767740 270821
1106 11948 71257
1107 19787 948800
1108 740300 250291
1109 -28281 880818
1110 595730 882850
1111 488299 541403
1112 171676 867150
1113 350094 741565
1114 535640 911298
1115 364358 723437
1116 716942 258587
1117 779697 186755
1118 570039 1014475
1119 338677 512060
1120 -32035 253092
1121 709897 251142
1122 472678 406240
1123 13818 893503
1124 591126 878114
1125 57951 895830
1126 511657 334233
1127 345700 706399
1128 -6856 878537
1129 39332 86165
1130 637 872624
1131 -5563 844362
1132 52194 78012
1133 -13349 934220
1134 439198 476405
1135 363799 712630
1136 19848 866057
1137 -307 232891
1138 154296 854136
1139 481404 409934
1140 754719 313529
1141 5940 217229
1142 716962 259838
1143 591834 883876
1144 458197 378291
1145 8200 254987
1146 363754 726823
1147 709469 268675
1148 483975 433471
1149 509527 999188
1150 394184 702705
1151 466922 556187
1152 292817 487687
1153 471592 1022981
1154 726775 246562
1155 501501 586860
1156 38726 91894
1157 11824 971542
1158 472675 390375
1159 365798 758877
1160 67511 87407
1161 312663 508317
1162 515849 531927
1163 560952 1028944
1164 214427 832568
1165 41876 230094
1166 517676 969718
1167 785445 183682
1168 515747 999162
1169 477312 464942
1170 -28821 289342
1171 -6245 243062
1172 438332 681822
1173 496246 483644
1174 28971 907217
1175 153977 840300
1176 -16735 232733
1177 544398 1016884
1178 528380 967212
1179 459838 531375
1180 -6745 828233
1181 504310 942784
1182 493877 459963
1183 291726 507712
1184 417914 355528
1185 337446 506179
1186 56642 258441
1187 474613 449664
1188 500134 1023723
1189 27924 99357
1190 529712 1011201
1191 551308 854137
1192 43415 39085
1193 23549 846470
1194 17993 256693
1195 458238 470472
1196 139004 860556
1197 454894 368983
1198 -3608 121331
1199 563082 991685
1200 283005 533070
1201 506638 962263
1202 29208 82615
1203 328719 745637
1204 578261 876796
1205 413468 460223
1206 802023 182652
1207 230756 816599
1208 730000 264017
1209 25549 76970
1210 452528 424657
1211 796494 232987
1212 60256 78713
1213 500744 385157
1214 831014 205784
1215 499622 959751
1216 20612 974506
1217 457480 442848
1218 218907 833887
1219 476892 401870
1220 452309 456999
1221 572751 866974
1222 -13635 875195
1223 865 850006
1224 -726 226655
1225 516867 912864
1226 142492 815890
1227 792358 113554
1228 869782 178019
1229 466290 406967
1230 533618 904267
1231 808385 206868
1232 33704 245390
1233 751467 267389
1234 24753 111634
1235 594736 915128
1236 766578 278618
1237 546451 950987
1238 560786 1005116
1239 563740 962471
1240 835050 151676
1241 16101 228715
1242 -36781 817339
1243 487538 541407
1244 718369 253621
1245 338070 705809
1246 503692 518553
1247 -12011 875698
1248 455586 456905
1249 782997 196867
1250 103187 74877
1251 426758 415602
1252 340179 729682
1253 798973 165448
1254 406005 705701
1255 751312 244461
1256 731690 272300
1257 494742 977782
1258 251119 470758
1259 38542 879247
1260 315781 699544
1261 67190 927760
1262 6202 887802
1263 754852 296907
1264 511792 941823
1265 146568 809111
1266 447686 436836
1267 513087 993418
1268 497147 1013262
1269 441574 330458
1270 -6207 198832
1271 722830 269567
1272 164422 837600
1273 29777 222703
1274 315982 556860
1275 465693 338644
1276 498744 323660
1277 521828 959638
1278 231340 535135
1279 9162 258913
1280 475830 583736
1281 233095 834465
1282 516971 377606
1283 474659 363782
1284 29279 65836
1285 568703 960906
1286 528094 986801
1287 516975 553405
1288 16806 8676
1289 339684 700207
1290 30066 49176
1291 530160 526676
1292 480433 450603
1293 146772 836154
1294 44809 75335
1295 782251 219367
1296 463789 372020
1297 485154 552081
1298 457795 439431
1299 243767 502452
1300 14982 891016
1301 464790 350466
1302 38802 889175
1303 525772 1006279
1304 20114 969079
1305 474737 434914
1306 598001 901487
1307 375277 746925
1308 44881 200108
1309 476783 959386
1310 457093 469305
1311 32314 162889
1312 477153 348564
1313 554514 869712
1314 15142 232496
1315 610562 906737
1316 140161 868874
1317 98385 32122
1318 468419 446165
1319 591263 885002
1320 21876 878746
1321 6256 98450
1322 8668 837437
1323 -12884 912608
1324 505395 553660
1325 484466 402168
1326 -40553 48742
1327 785604 277822
1328 -1276 66872
1329 804193 189996
1330 478025 377157
1331 476066 414317
1332 393336 756765
1333 162185 837094
1334 805399 215387
1335 488302 337586
1336 778665 208738
1337 502362 475587
1338 39200 236604
1339 545968 969182
1340 -31001 241655
1341 339761 693027
1342 190207 822048
1343 329 215086
1344 -2601 908864
1345 311755 518963
1346 18416 266011
1347 572669 886456
1348 799293 189711
1349 16354 936878
1350 484940 452208
1351 170486 834163
1352 151482 843821
1353 48321 222828
1354 158192 763922
1355 426297 319193
1356 789966 178472
1357 432 929250
1358 423674 445885
1359 767518 153488
1360 53215 91210
1361 68454 214403
1362 143171 853436
1363 373808 773763
1364 745936 231814
1365 271870 564427
1366 471423 322509
1367 336538 750664
1368 754722 188610
1369 267052 798860
1370 274451 527781
1371 21577 55658
1372 203100 846618
1373 764539 239109
1374 765584 230217
1375 142169 860691
1376 473052 427741
1377 410136 710797
1378 351725 718199
1379 377395 730348
1380 5073 914727
1381 812783 169086
1382 604489 898448
1383 478913 523794
1384 457810 486620
1385 47024 63649
1386 457457 374868
1387 448213 429929
1388 484706 457118
1389 164329 843161
1390 456835 371900
1391 463098 410520
1392 344507 743882
1393 439368 440158
1394 819969 256145
1395 155566 796085
1396 154256 844708
1397 474892 1043136
1398 159108 824153
1399 724696 278760
1400 504064 375405
