NAME : portcgen-400-409
COMMENT : portcgen N=400, seed=409
TYPE : TSP
DIMENSION : 400
EDGE_WEIGHT_TYPE : EUC_2D
NODE_COORD_SECTION
1 631172 828355
2 515429 117338
3 521847 75873
4 97901 903726
5 671411 738298
6 306830 649378
7 188070 804075
8 538709 102790
9 213889 922241
10 444237 45559
11 128756 816323
12 647675 792085
13 260891 596938
14 627994 695600
15 161559 876592
16 482242 865112
17 213773 894920
18 443675 129463
19 598832 817428
20 209812 951050
21 201789 875591
22 692638 797110
23 410756 160721
24 310197 650245
25 172855 837686
26 171317 898668
27 219297 589065
28 575428 794165
29 559377 170796
30 74334 882576
31 230245 872615
32 110624 900221
33 709836 719166
34 239232 606062
35 96552 890180
36 132107 912818
37 248486 932200
38 579866 803003
39 457021 48546
40 539380 158673
41 509014 172614
42 274914 916348
43 632416 892781
44 668938 922132
45 296203 640576
46 495474 69065
47 513214 132264
48 687805 743154
49 336884 598388
50 113652 926161
51 667316 873157
52 632082 838790
53 196955 534307
54 228160 860733
55 155279 873625
56 574269 886800
57 605072 741196
58 503749 129009
59 524738 793526
60 693053 922217
61 549107 820579
62 153022 835779
63 198855 912862
64 492177 -5532
65 743219 829026
66 570861 163544
67 537833 102338
68 277927 634357
69 691832 738397
70 491377 11409
71 140029 889417
72 471255 67075
73 224669 660840
74 673354 796380
75 272189 644519
76 516458 96118
77 366188 649983
78 586091 824261
79 330471 710693
80 512134 780876
81 527888 154652
82 669320 739048
83 205769 585981
84 605698 849076
85 530728 120279
86 294926 645254
87 660813 724822
88 596506 870274
89 138423 926251
90 649754 696767
91 632066 760897
92 498161 64647
93 313658 618398
94 643049 805560
95 326494 636502
96 440347 55526
97 512645 122282
98 515967 31867
99 174091 904723
100 209890 653529
101 155642 931172
102 612488 822349
103 463668 114161
104 691911 785033
105 627873 827613
106 147353 821751
107 314609 522113
108 120355 845056
109 243404 695695
110 468111 113382
111 306005 687659
112 300457 579271
113 611173 883869
114 209459 585540
115 625057 818067
116 232908 703126
117 721584 866875
118 531562 734621
119 534947 152150
120 575763 866888
121 360121 644001
122 570449 89482
123 385533 688649
124 263990 589605
125 624186 699449
126 484786 198385
127 125218 923402
128 642810 820702
129 537905 93278
130 233507 835318
131 204514 904908
132 583725 795253
133 440302 155727
134 302436 600761
135 576154 168199
136 275949 579215
137 105054 897428
138 632459 786982
139 271138 651187
140 532456 23006
141 650545 713136
142 134283 883237
143 245185 648424
144 157137 929739
145 188517 853146
146 595967 832999
147 143252 847371
148 327431 633068
149 607913 185745
150 714148 866164
151 336321 683236
152 182909 838041
153 211431 879956
154 494178 65208
155 229340 821169
156 622004 775030
157 693708 841642
158 81339 899185
159 187806 918434
160 179942 978526
161 81577 786705
162 529545 94006
163 306232 623110
164 264802 576679
165 687227 742653
166 514897 158025
167 650318 778952
168 561138 755801
169 460329 101659
170 121117 929761
171 163012 835229
172 299302 666593
173 152650 937516
174 588081 836754
175 114755 794887
176 469895 768222
177 491094 37527
178 684533 832593
179 368338 662777
180 473678 104065
181 271799 643728
182 307533 600826
183 206755 652628
184 199631 913364
185 339133 561403
186 399882 721104
187 548239 73799
188 210306 863326
189 291113 666862
190 509628 123039
191 251507 769830
192 495114 85583
193 299744 664056
194 256146 572202
195 169165 873897
196 346564 692673
197 119831 904869
198 592160 788410
199 507221 113255
200 282596 627651
201 232108 876940
202 284880 578413
203 621356 745372
204 370977 657809
205 532128 128972
206 552869 16776
207 512507 103617
208 444210 117229
209 665008 834675
210 638405 839280
211 144475 858669
212 219177 856955
213 268910 687173
214 465414 126763
215 228971 617163
216 285834 617637
217 512094 36893
218 660761 837425
219 567625 772040
220 531727 105945
221 668314 784595
222 225690 557046
223 537328 28601
224 677579 820361
225 139816 972872
226 171402 946293
227 211178 953660
228 654969 798572
229 233825 633840
230 458722 89750
231 39130 859296
232 497488 109371
233 273482 710735
234 461043 99730
235 128009 886965
236 488740 85231
237 152395 874984
238 518833 71498
239 289584 629959
240 514689 67414
241 133334 898639
242 120473 891160
243 683722 836959
244 245982 687018
245 228222 549591
246 504474 149552
247 452756 133490
248 562511 113594
249 219813 620391
250 226342 856220
251 101105 941744
252 344406 693883
253 560705 835622
254 204611 736722
255 422842 69294
256 264203 837953
257 448555 149704
258 214602 643764
259 143405 880798
260 493959 -19361
261 167093 830141
262 255225 720034
263 316286 641736
264 286916 647040
265 205120 785871
266 144069 758560
267 273404 674854
268 636811 744716
269 662837 776824
270 699800 751744
271 560090 915583
272 591835 787154
273 594482 762146
274 291772 648397
275 276834 613278
276 114728 895200
277 551205 66269
278 255450 659702
279 323391 654358
280 643464 785882
281 266241 655803
282 462249 36695
283 94757 878830
284 263230 622680
285 207219 859040
286 241080 613066
287 162534 825329
288 694931 854500
289 715451 813846
290 354792 725447
291 656119 784803
292 689704 768351
293 581197 126824
294 177172 930725
295 152046 1022353
296 102400 952275
297 482841 67081
298 194906 908549
299 549395 122701
300 566442 747492
301 596146 834089
302 255732 638590
303 542021 92062
304 171249 932332
305 636468 820249
306 292698 655005
307 702019 915587
308 527364 86091
309 295625 620618
310 603400 690348
311 217344 810831
312 286046 617606
313 602886 775181
314 255867 593693
315 322747 625410
316 207835 684173
317 516476 76764
318 523915 64712
319 510221 120453
320 411466 694560
321 405307 660695
322 342937 622643
323 544206 76816
324 667575 836082
325 614972 837988
326 36786 891621
327 567479 890035
328 467295 111734
329 182654 929685
330 585036 787275
331 552217 780116
332 294281 658729
333 357711 643013
334 149879 797379
335 724238 854672
336 137378 826939
337 274543 651373
338 584073 137364
339 623037 796503
340 626432 790480
341 595259 799087
342 322973 695384
343 193481 976944
344 244817 671363
345 288447 628950
346 161309 917357
347 400703 -7980
348 208891 643343
349 196810 832140
350 226103 904087
351 235116 885980
352 368556 649017
353 530740 88504
354 380088 691005
355 279741 623645
356 319735 677734
357 156869 895309
358 272277 643098
359 112945 856974
360 87381 941409
361 97491 852476
362 696563 780735
363 529879 190923
364 516896 137123
365 321062 691050
366 484643 107628
367 236793 846180
368 577058 769505
369 443844 166106
370 381531 662665
371 346516 642880
372 549237 782468
373 606399 99507
374 797446 844271
375 492541 160567
376 634547 864135
377 229840 941846
378 304520 609903
379 299344 603955
380 616664 856780
381 657240 781294
382 577798 958856
383 243109 585032
384 143728 799807
385 231177 573088
386 245900 648168
387 489364 172347
388 308090 557243
389 268887 608620
390 588043 776471
391 182834 899742
392 668169 880085
393 567554 836066
394 542089 54276
395 543666 -2003
396 219694 603910
397 149932 890363
398 514513 147763
399 203753 952906
400 139222 937445
