NAME : portcgen-1000-1010
COMMENT : portcgen N=1000, seed=1010
TYPE : TSP
DIMENSION : 1000
EDGE_WEIGHT_TYPE : EUC_2D
NODE_COORD_SECTION
1 115613 46412
2 616774 656577
3 126095 929877
4 139499 28335
5 17826 905212
6 440668 549264
7 262510 861087
8 136629 49994
9 306129 847932
10 471004 241526
11 581227 176764
12 697006 129390
13 296079 221400
14 602600 605071
15 579737 148743
16 566479 185142
17 716500 123345
18 476475 563252
19 268927 858081
20 56458 806133
21 332348 940944
22 585169 209184
23 88876 851382
24 291000 281222
25 81518 853340
26 51909 880439
27 159446 52477
28 692487 95749
29 45571 795995
30 229436 263648
31 501026 205184
32 714217 158780
33 569668 169173
34 117835 64373
35 372943 873759
36 82101 834969
37 198045 300928
38 71171 45399
39 574311 166840
40 730837 123147
41 276107 277232
42 183639 656179
43 187357 720828
44 694084 129978
45 461071 537904
46 71604 52867
47 530080 153359
48 137825 48985
49 660793 649118
50 150296 726593
51 593447 189616
52 84483 906711
53 185771 669929
54 634037 690349
55 268574 290083
56 533888 561277
57 97240 15860
58 269556 881512
59 558366 186216
60 444326 570452
61 292081 874361
62 340677 828512
63 647573 669003
64 206557 270520
65 146072 101050
66 276750 295916
67 161504 49018
68 431292 539283
69 476311 158601
70 292280 813182
71 518793 108622
72 243581 253409
73 700652 74682
74 415745 547851
75 468815 178408
76 732118 123738
77 453943 573198
78 149418 115668
79 454621 531964
80 227816 695877
81 26052 860511
82 209449 668300
83 78854 817771
84 389258 561020
85 623361 705569
86 651681 620662
87 619419 657294
88 635981 639709
89 258020 858841
90 84454 41040
91 661617 612549
92 69615 22968
93 321347 861764
94 402860 530176
95 64956 821002
96 585656 140335
97 724543 78652
98 152180 18809
99 647948 732973
100 714185 158003
101 59307 874723
102 224627 708634
103 139220 25049
104 139329 72439
105 735266 120222
106 605405 661586
107 35743 927226
108 110285 75844
109 458447 503845
110 80978 38869
111 520008 560013
112 662630 692124
113 275789 257650
114 571926 120135
115 564638 148101
116 117765 52082
117 290345 857597
118 305390 822942
119 623060 638355
120 120357 38732
121 75249 6366
122 297691 896979
123 255637 243998
124 249004 237283
125 482540 562677
126 252084 895957
127 442066 541606
128 50977 32867
129 742200 104401
130 715345 82710
131 5186 817650
132 169923 68166
133 700840 123025
134 477242 524807
135 702918 84769
136 240326 289939
137 258599 278186
138 105784 58904
139 184897 735704
140 320306 857784
141 48378 837406
142 704923 82455
143 83641 864173
144 53279 861828
145 42994 832650
146 529347 265772
147 626850 672266
148 186971 768943
149 102356 59456
150 248571 715043
151 689926 652179
152 211101 231552
153 288456 240156
154 243566 679617
155 684118 102378
156 202458 272859
157 621670 113559
158 701851 70724
159 706041 648845
160 441042 479294
161 242808 732856
162 598865 151709
163 502891 582752
164 205251 734537
165 205851 272225
166 475190 162035
167 262953 714560
168 224975 256679
169 129853 54139
170 414442 546289
171 544387 177368
172 29615 835496
173 478270 510896
174 436383 557055
175 278047 670287
176 113696 75893
177 505037 206328
178 97505 100772
179 575850 120310
180 221917 693428
181 666753 658743
182 285268 845703
183 524253 239441
184 501244 202090
185 34386 849341
186 663483 147710
187 614961 629342
188 672931 689090
189 478501 201810
190 469062 524945
191 450732 243719
192 557180 134879
193 236709 756735
194 628880 568177
195 66217 808047
196 593313 172059
197 232781 271780
198 494157 167664
199 103674 816968
200 -4693 869622
201 604166 651416
202 594286 613020
203 311413 874550
204 475856 579893
205 175853 300788
206 491855 219564
207 104747 56816
208 106645 834122
209 50940 929011
210 610270 153215
211 120707 49905
212 588815 192891
213 505166 566215
214 557806 164915
215 472783 582790
216 37297 91360
217 338320 868371
218 515416 236826
219 299838 839144
220 320651 902760
221 623184 678231
222 545623 232203
223 524205 157921
224 58634 820527
225 481667 184555
226 226912 252242
227 38866 872593
228 695865 108458
229 731030 57878
230 60818 854448
231 524084 549260
232 500775 528210
233 113677 55067
234 38457 886766
235 88539 894295
236 176873 652536
237 575825 167937
238 280169 896503
239 86005 40413
240 738519 98602
241 475210 200024
242 563555 142869
243 548742 206952
244 246379 244394
245 634165 658214
246 109556 815751
247 241318 685980
248 570539 190560
249 466794 556898
250 562330 157006
251 201634 216549
252 535990 204469
253 295091 837820
254 639143 678538
255 667380 649591
256 600251 637226
257 605754 642907
258 118370 6069
259 438611 516697
260 716474 85061
261 230612 741690
262 548059 163143
263 539737 205575
264 425024 530697
265 621964 103910
266 448030 183982
267 479367 279438
268 571013 191774
269 690235 178818
270 758734 65348
271 729719 143461
272 83827 834852
273 499287 537160
274 10182 871384
275 486763 560828
276 471388 533310
277 677821 672540
278 681586 608783
279 537961 192830
280 677985 119502
281 82781 817744
282 272347 275368
283 523509 198532
284 122746 61494
285 238876 286704
286 314915 271169
287 561278 188852
288 152692 284642
289 245353 859699
290 80062 819878
291 721822 81888
292 636772 655021
293 278000 237525
294 691439 692227
295 439446 506578
296 614484 604725
297 478794 156648
298 223380 222292
299 524080 150323
300 665628 703940
301 101535 33500
302 212000 682284
303 67176 875363
304 469470 229914
305 285741 295235
306 511760 536829
307 260558 709233
308 429697 541670
309 641154 665273
310 312623 870562
311 346670 883617
312 77955 871579
313 737312 88317
314 585141 147876
315 573182 191872
316 260610 259033
317 640418 638406
318 412561 571240
319 23420 848362
320 204931 733398
321 495565 224682
322 567652 188287
323 297040 896003
324 714193 125395
325 726309 82950
326 50533 858567
327 714915 127709
328 534831 169385
329 584320 181612
330 497124 211836
331 460693 530602
332 209815 698508
333 63617 56103
334 345623 880020
335 328658 842303
336 284916 845828
337 641503 658451
338 242243 222745
339 213274 727323
340 511128 251470
341 667331 108281
342 105782 871017
343 188918 717650
344 471247 534459
345 487070 526043
346 266946 735032
347 465921 522194
348 243827 687045
349 25680 841515
350 245033 264149
351 722254 100450
352 327370 814413
353 520794 205404
354 178733 691695
355 32779 883825
356 576297 152598
357 578186 155555
358 20150 825528
359 230434 741792
360 574290 182395
361 669384 681301
362 327146 850811
363 431444 586739
364 169936 731648
365 251012 237419
366 627545 654102
367 498077 555743
368 291496 243282
369 4443 830152
370 341006 847193
371 99395 54090
372 511563 590858
373 546375 122887
374 432963 535608
375 634126 636784
376 210703 703441
377 481742 513563
378 242593 709348
379 252562 301733
380 706078 93437
381 712141 78091
382 553923 137158
383 272909 237814
384 235062 262495
385 241389 279579
386 38659 823287
387 333435 895469
388 101429 796527
389 611334 195827
390 229555 248574
391 299764 894684
392 313929 871723
393 673881 109899
394 569545 126292
395 255334 291370
396 226929 741275
397 313324 900003
398 254050 256573
399 324854 837092
400 562602 629236
401 17356 845685
402 729173 104842
403 143688 79815
404 354393 764638
405 249693 885765
406 317569 897130
407 659297 136541
408 276140 261489
409 200096 707423
410 558786 239262
411 269528 800504
412 227068 692435
413 663139 693387
414 172617 697176
415 520930 218289
416 229680 287368
417 382314 556378
418 169482 21040
419 90715 866471
420 420654 566536
421 287415 907267
422 60135 846633
423 586754 209241
424 540506 136828
425 468362 248269
426 189956 700322
427 514965 129687
428 661954 644031
429 243346 814859
430 277774 206066
431 589337 92879
432 540128 206876
433 470966 249380
434 338051 872836
435 503733 520006
436 497610 261462
437 131938 77365
438 216104 690066
439 570397 231330
440 701787 692169
441 418070 550535
442 251330 237408
443 748958 80304
444 333991 893050
445 519926 184026
446 290602 239590
447 447844 163983
448 559367 127194
449 723522 144600
450 712662 96884
451 117157 72172
452 542861 253030
453 207336 724174
454 437903 190367
455 234810 719779
456 260666 874983
457 199463 700878
458 50932 846355
459 102324 863689
460 553263 146970
461 659156 70899
462 257007 266882
463 454407 604661
464 498741 270456
465 453490 533624
466 217503 702289
467 459802 550507
468 740664 147588
469 107997 114369
470 185116 653599
471 493668 142308
472 634042 649866
473 331119 863696
474 316497 907576
475 57525 819931
476 219762 666825
477 487782 223821
478 641450 710873
479 666192 106076
480 729186 168840
481 556411 227127
482 213289 286132
483 340346 891040
484 66053 870698
485 157646 720735
486 320384 760442
487 52103 800442
488 568277 113017
489 617203 668205
490 706867 180173
491 646404 81385
492 784700 127396
493 104373 810060
494 404087 201188
495 600177 166620
496 652462 651002
497 190986 676688
498 672624 93945
499 42530 861597
500 247245 205668
501 123290 86969
502 154629 104074
503 59139 79331
504 95021 23812
505 658962 144759
506 765403 72273
507 101969 80621
508 278599 240565
509 308097 849309
510 576876 146522
511 658862 139722
512 331720 882117
513 436767 557905
514 724748 173153
515 237387 220154
516 61704 835285
517 656084 638457
518 526052 181667
519 412398 551547
520 99304 778971
521 587262 212086
522 711695 116735
523 5356 830181
524 202359 246574
525 65850 120730
526 81651 823285
527 632458 632273
528 216907 255627
529 204717 749817
530 626993 701266
531 92439 37537
532 134680 840050
533 421842 551229
534 474230 221138
535 524955 226486
536 94656 41619
537 32959 829995
538 226628 724324
539 146911 69044
540 448486 571405
541 363059 840350
542 541033 207820
543 568898 108239
544 24300 851397
545 501461 181573
546 45906 838132
547 739064 104717
548 93095 849688
549 656757 102911
550 426719 602854
551 130440 108791
552 485300 211013
553 498319 587666
554 521399 228779
555 293641 859199
556 481949 214476
557 92670 80493
558 92023 60404
559 602853 171761
560 480538 181575
561 475878 288133
562 37651 866278
563 72686 800698
564 706387 148648
565 77968 819560
566 596238 138928
567 568772 193287
568 94099 806983
569 581651 629866
570 200315 664807
571 613935 178210
572 531421 202219
573 519422 263716
574 216550 743702
575 706130 107623
576 569873 131972
577 188161 740857
578 271605 883161
579 579216 187462
580 317670 843661
581 469966 519131
582 218483 743672
583 216839 229000
584 448901 581450
585 228800 297949
586 625054 630733
587 179399 227331
588 101255 31584
589 100646 850259
590 120151 91300
591 691970 111162
592 645127 695948
593 604194 651745
594 463375 564762
595 168055 52131
596 676123 112090
597 517388 199819
598 653022 94954
599 578635 155227
600 426069 562654
601 455361 544697
602 472475 575360
603 674145 714635
604 240915 701456
605 52096 63082
606 242075 301712
607 580332 192180
608 479063 520555
609 577112 651774
610 729406 75764
611 494605 599492
612 688637 138869
613 653234 577844
614 671644 669038
615 507297 201689
616 659136 693533
617 502867 162285
618 561721 168026
619 193215 741293
620 507999 143262
621 537334 205147
622 572101 132924
623 157615 56065
624 284290 855793
625 501382 162672
626 469402 530497
627 491536 180089
628 306109 248851
629 709921 128113
630 197866 741147
631 720681 122864
632 277289 849669
633 80468 11555
634 238325 675732
635 102649 23156
636 616635 710145
637 572854 206453
638 159870 721265
639 542922 144969
640 586840 137321
641 310978 849763
642 728494 75026
643 565903 155262
644 278181 855205
645 303055 256281
646 86087 16854
647 705828 110864
648 693082 672470
649 86040 56431
650 571483 145934
651 279534 806099
652 581063 145608
653 653888 104900
654 130973 14651
655 191454 255846
656 327613 835003
657 711828 92797
658 36697 859031
659 496834 215840
660 470252 182808
661 552052 143542
662 713374 84926
663 602712 685795
664 648520 117662
665 288247 829793
666 560667 154065
667 695825 84932
668 62471 61986
669 219082 742525
670 573083 191397
671 464809 190555
672 477796 487485
673 370381 855568
674 484421 249404
675 494509 610512
676 234795 248418
677 231997 864401
678 102084 833193
679 435560 523541
680 470248 202746
681 63827 840006
682 323840 834124
683 279362 878559
684 225790 722594
685 285105 248624
686 247352 239418
687 168857 744450
688 256679 666068
689 424238 510940
690 712440 120793
691 264649 242665
692 249361 244876
693 450910 599966
694 300685 868783
695 602043 696935
696 430325 593289
697 180686 705951
698 255094 896006
699 125524 63510
700 676675 118700
701 44165 905816
702 107188 802557
703 355576 843570
704 483260 547509
705 534598 674913
706 747583 167863
707 229795 278103
708 303822 286186
709 647742 593436
710 437064 542399
711 225091 270561
712 398550 493065
713 580816 185312
714 325973 857032
715 539616 208109
716 463809 175703
717 528678 110576
718 342460 205733
719 468262 201034
720 246573 250253
721 228899 697819
722 202302 246516
723 245708 854268
724 6477 819892
725 585825 163418
726 133352 52708
727 309692 821723
728 70915 41179
729 643958 680541
730 392661 532104
731 26804 851221
732 447827 551692
733 226760 223455
734 685973 638486
735 466861 240387
736 679044 162926
737 248394 224021
738 621361 669426
739 82537 822214
740 746904 121861
741 245323 664976
742 475243 563865
743 230069 874229
744 251102 218223
745 216552 714812
746 376572 611548
747 541858 163063
748 579946 137648
749 449838 543871
750 477919 224602
751 427175 601163
752 474002 535433
753 297193 281305
754 663930 143510
755 86195 105077
756 98047 10888
757 263062 852498
758 245843 242169
759 208563 722731
760 388087 599501
761 465680 552631
762 486038 221198
763 450291 505955
764 185752 665142
765 144794 103092
766 700640 720221
767 294445 826554
768 289367 852184
769 551779 169520
770 112590 28112
771 34600 824872
772 375479 853896
773 140001 -19432
774 136304 22977
775 76211 31571
776 487841 249461
777 346039 805908
778 250491 277960
779 117963 50582
780 292913 223755
781 4044 867324
782 459262 546515
783 563546 179868
784 462183 214887
785 174544 702806
786 684555 608021
787 724998 106727
788 642581 611205
789 612751 674042
790 146364 101776
791 595419 148953
792 -20145 824259
793 339740 899304
794 225482 663643
795 112163 -15460
796 304966 845814
797 427309 532217
798 286036 253777
799 311403 261490
800 592503 198852
801 316828 902678
802 505780 252320
803 241417 744450
804 677019 677292
805 466049 576343
806 221595 218700
807 337689 902332
808 597754 652757
809 244890 706281
810 114111 76362
811 516327 539444
812 263759 255638
813 301088 879042
814 325850 838606
815 715370 101303
816 243455 244363
817 521839 232731
818 441029 535813
819 -5817 856636
820 559035 157781
821 614094 131860
822 645536 686609
823 723143 96695
824 508784 260520
825 677253 89584
826 560959 197914
827 48722 815268
828 205017 731706
829 60029 882446
830 192551 713456
831 465650 177788
832 100954 835953
833 126938 34913
834 246962 735436
835 545705 190681
836 520318 133978
837 236432 683031
838 351036 852528
839 261412 844696
840 556399 131422
841 28132 859030
842 307393 888739
843 714273 603704
844 41660 859276
845 586935 175361
846 329384 868805
847 217963 286234
848 53376 873522
849 48316 868619
850 687835 693121
851 288113 865832
852 649775 718413
853 656192 651383
854 81986 23344
855 613802 648734
856 251621 263127
857 493499 191688
858 511111 210476
859 711625 71698
860 308974 277708
861 258439 756658
862 302054 856468
863 302452 861727
864 21363 805822
865 32350 901454
866 326100 876107
867 51638 845462
868 31919 850178
869 543330 255880
870 236433 212506
871 492256 261129
872 308166 839717
873 336998 878981
874 104004 49485
875 744488 86763
876 245350 708508
877 520497 191023
878 64549 115409
879 470457 608808
880 34777 877838
881 511696 264251
882 590221 234481
883 226801 267695
884 501448 252547
885 123675 94890
886 285990 815636
887 661270 695861
888 594790 616833
889 176892 679056
890 666969 600817
891 142536 43046
892 319105 831452
893 102065 -24707
894 543938 196048
895 696047 666495
896 287932 886583
897 635114 654977
898 160483 76629
899 104509 53013
900 207304 737959
901 150007 18290
902 534627 189313
903 538648 230438
904 401109 548441
905 23204 832050
906 80186 804956
907 650016 685140
908 669120 610841
909 337702 829030
910 694473 127916
911 165156 703237
912 221044 735321
913 120499 76989
914 291692 859216
915 245208 850301
916 140508 846868
917 563434 214081
918 427221 567794
919 549751 225902
920 81505 892659
921 267383 239901
922 531948 135998
923 268697 861829
924 642732 747030
925 700601 58950
926 301115 845854
927 447758 477189
928 553973 193165
929 655630 654218
930 338946 840069
931 47900 846661
932 664185 115772
933 336919 857166
934 359460 823301
935 98733 48991
936 308329 882344
937 109457 78045
938 643274 649560
939 455013 220403
940 717460 92223
941 675616 111090
942 608899 597817
943 220130 726998
944 512509 152051
945 505659 506708
946 285062 232093
947 53264 868100
948 287156 846956
949 739254 69078
950 482652 163738
951 186968 46017
952 672034 111727
953 469322 191086
954 431090 534727
955 164716 690479
956 171443 734728
957 474790 228909
958 235212 251685
959 99575 99601
960 179183 637846
961 209660 702372
962 495158 268926
963 360327 872165
964 551242 170712
965 314574 872785
966 600877 673529
967 328116 816950
968 206734 748150
969 567825 157278
970 615579 166061
971 226688 769142
972 35682 845174
973 658211 673817
974 221735 732954
975 87816 901187
976 78440 805864
977 138786 44324
978 299887 279905
979 285858 865035
980 723060 87337
981 582440 167783
982 542460 148426
983 600106 649835
984 85533 855870
985 265353 244031
986 213348 754669
987 473940 255798
988 206126 748485
989 633694 630281
990 489038 209647
991 508224 228378
992 12549 870704
993 457351 212890
994 195995 710089
995 690338 164160
996 554109 154647
997 254561 822241
998 256033 250896
999 259322 838468
1000 273919 815652
