NAME : portcgen-1300-1306
COMMENT : portcgen N=1300, seed=1306
TYPE : TSP
DIMENSION : 1300
EDGE_WEIGHT_TYPE : EUC_2D
NODE_COORD_SECTION
1 399409 973076
2 475185 568172
3 207254 325068
4 226261 701715
5 184601 282056
6 793026 477829
7 162927 240049
8 779384 236569
9 530648 617424
10 518074 628571
11 775780 198385
12 251263 954018
13 726532 504092
14 134560 870672
15 266477 653519
16 789785 508098
17 455938 544514
18 167669 240374
19 152689 733591
20 522007 597075
21 472082 572053
22 104160 840542
23 935365 246907
24 176464 238678
25 930635 226881
26 450719 979720
27 458838 586559
28 140423 890146
29 728460 248128
30 516665 575706
31 195664 263347
32 247395 327298
33 520580 606837
34 928630 234527
35 477483 518030
36 175598 901850
37 79575 872159
38 866648 266106
39 274469 743866
40 178096 933275
41 232940 326924
42 428806 953006
43 188754 817905
44 228595 946498
45 248252 939194
46 154318 831627
47 765208 210639
48 217470 775859
49 784113 487180
50 218575 922277
51 167093 814504
52 178375 807564
53 957911 191396
54 240927 906096
55 188748 862511
56 928403 163298
57 256409 954783
58 895118 210822
59 147081 866418
60 516609 541235
61 276547 959690
62 438974 536951
63 779951 451567
64 120589 882181
65 163953 215671
66 189850 210046
67 945762 214899
68 347339 1030283
69 945123 237624
70 191677 854383
71 273082 734388
72 869234 208460
73 814229 533115
74 214877 913533
75 472886 529805
76 221112 330515
77 279405 940327
78 189614 230935
79 278827 324762
80 799326 232604
81 738819 540146
82 478191 560750
83 247286 380980
84 199275 232254
85 95849 843994
86 475164 578696
87 188557 893530
88 199869 909715
89 272159 963506
90 264638 681552
91 274203 967262
92 234571 932229
93 283064 714722
94 224821 336238
95 487557 593313
96 791373 544052
97 807060 524985
98 164670 876379
99 189841 744388
100 928836 245270
101 913707 196697
102 410590 1003150
103 732853 509847
104 224025 187453
105 197039 252584
106 183618 924483
107 259077 918538
108 256668 387032
109 763194 488335
110 500351 520389
111 158552 234781
112 779072 544728
113 225726 768577
114 398756 956233
115 286979 695405
116 517170 590176
117 220586 845282
118 254168 704213
119 784714 487934
120 467842 627701
121 184872 797918
122 789809 240927
123 243632 939906
124 527567 643780
125 124120 858859
126 494907 567561
127 196556 251634
128 124580 888093
129 233981 337356
130 240804 909986
131 232189 240428
132 52379 894364
133 230729 358635
134 299839 680216
135 805001 218344
136 208453 237834
137 801536 252419
138 139083 861935
139 878410 255812
140 490902 537489
141 208685 244628
142 446636 568673
143 508769 568293
144 283467 960674
145 163509 235365
146 280751 713917
147 138685 894843
148 530492 582082
149 250151 967287
150 164950 251077
151 954619 241147
152 150269 248364
153 213098 806901
154 902988 242968
155 779895 238800
156 490677 574847
157 935702 256698
158 450462 1030205
159 91214 889464
160 739512 500669
161 477151 559855
162 812939 471033
163 308008 709254
164 179946 234528
165 139497 864757
166 909426 219013
167 766045 247614
168 165125 268633
169 742731 481803
170 452487 990383
171 489292 623114
172 497647 595411
173 516214 550077
174 764714 542587
175 772860 454345
176 176218 877269
177 471462 603809
178 773972 534356
179 213045 906581
180 506158 641555
181 468830 649758
182 144822 813394
183 276072 709590
184 900812 257182
185 247269 313699
186 190383 863167
187 110151 879868
188 82201 848490
189 297089 698900
190 294817 722713
191 197613 853528
192 290385 957914
193 71649 880917
194 468928 651088
195 241322 667797
196 210978 323440
197 198681 229352
198 226795 250751
199 997975 171471
200 234361 937334
201 482378 607705
202 290262 949469
203 244878 959426
204 224531 835207
205 504391 570192
206 450826 536473
207 887542 218406
208 163547 923288
209 899639 174242
210 399218 918908
211 290550 722307
212 507674 508206
213 805495 493455
214 172308 864947
215 268433 747852
216 239683 356344
217 429414 1006782
218 282028 686125
219 125977 930776
220 242624 356906
221 102180 889831
222 791549 258757
223 540989 577556
224 126066 785880
225 511740 593774
226 782244 502556
227 796516 244676
228 460189 1016339
229 805683 192422
230 218582 866620
231 751256 529044
232 881111 262489
233 785683 231155
234 474102 562411
235 471927 605378
236 219728 763693
237 451565 544117
238 793666 490496
239 462779 521932
240 781084 243716
241 457125 1009958
242 225143 800420
243 519457 641076
244 910964 215964
245 201454 903640
246 131375 917880
247 806614 244980
248 936850 254539
249 522897 557993
250 154410 814276
251 488782 549303
252 230847 918304
253 255904 963690
254 803081 495462
255 299951 717370
256 474792 623718
257 769227 495070
258 273687 927634
259 896989 257348
260 416237 982337
261 151454 838050
262 109584 883434
263 193734 802802
264 482324 564266
265 923687 229016
266 878840 191457
267 246373 759441
268 497302 602857
269 475584 575228
270 113306 842921
271 933297 220621
272 767154 223167
273 231309 354032
274 150736 777980
275 238037 897027
276 261904 370211
277 485958 558958
278 538935 575102
279 378409 1032068
280 399320 981450
281 244064 302190
282 137644 883452
283 272753 301349
284 532455 585996
285 275603 871064
286 533811 601518
287 489884 586012
288 219489 876799
289 144874 899622
290 799287 255393
291 920834 204436
292 183201 843064
293 96363 877478
294 230497 331336
295 924076 209018
296 768119 480414
297 239293 965524
298 247103 684618
299 290080 904958
300 512069 600047
301 474637 558800
302 117421 902141
303 462058 599331
304 199799 825417
305 208405 360738
306 250469 886562
307 913717 192193
308 929017 227905
309 261485 930892
310 204401 796660
311 172903 893258
312 378170 947022
313 231336 878934
314 486191 526838
315 753437 479984
316 374876 951122
317 158629 918939
318 505882 603765
319 392198 991829
320 244126 349545
321 212202 768878
322 386324 1012740
323 780701 234491
324 459079 508522
325 173915 797586
326 466513 607643
327 533304 579300
328 467545 596629
329 262230 716467
330 155973 862403
331 747884 245142
332 796178 224504
333 482281 585862
334 752646 464803
335 507810 549384
336 789961 244398
337 791735 447116
338 190479 893020
339 800694 222881
340 197695 778118
341 239246 965639
342 486671 574882
343 471445 541488
344 192430 895624
345 181830 814032
346 256638 850162
347 467249 586444
348 116037 873407
349 79037 906604
350 512511 618797
351 516594 593696
352 906242 217089
353 277330 707113
354 889088 211082
355 242926 376037
356 772144 220759
357 900747 217222
358 129510 876310
359 416418 929919
360 883487 223855
361 293649 1002595
362 157781 226594
363 480559 594483
364 802652 217095
365 179930 844050
366 790231 219582
367 494318 558047
368 131420 873822
369 189056 792712
370 275306 962300
371 835885 516675
372 219649 278558
373 764733 191879
374 920214 202561
375 394388 977676
376 907245 284717
377 432869 630416
378 201169 837666
379 164795 812252
380 815175 481065
381 261330 737778
382 812533 457140
383 279231 747666
384 510219 605139
385 236340 905579
386 224137 329978
387 246645 336584
388 207841 888096
389 425309 1020056
390 142504 242448
391 189393 858601
392 902288 222847
393 389656 996720
394 132983 854760
395 227538 293152
396 151850 218699
397 229074 332077
398 302424 371133
399 301575 982865
400 787979 204640
401 204595 899710
402 396462 998698
403 275921 681721
404 902295 209782
405 316131 749990
406 922373 235741
407 771904 483421
408 189555 333294
409 478111 588774
410 474685 623593
411 201121 918162
412 264890 937711
413 482793 562820
414 236456 710173
415 479374 580249
416 243312 387100
417 390071 967552
418 195739 930836
419 839914 189736
420 308332 927546
421 210879 250247
422 754424 462056
423 175837 240209
424 108418 849616
425 259277 341449
426 308988 671993
427 160483 849361
428 294858 712909
429 100850 844455
430 738001 481194
431 216434 334456
432 488239 545307
433 905952 232963
434 784527 261740
435 240943 795613
436 221343 823403
437 213081 837174
438 205210 364741
439 180453 841960
440 527132 544313
441 113865 894626
442 333954 688874
443 779827 236628
444 272595 967542
445 531310 606229
446 405665 998359
447 141995 222597
448 188104 263776
449 212564 980964
450 257065 688723
451 196004 211162
452 413628 1032879
453 483310 589107
454 222350 731911
455 198309 926168
456 455676 621212
457 257746 684408
458 918577 166170
459 279577 687572
460 230062 375177
461 458193 552942
462 892735 225374
463 185249 249320
464 235503 936493
465 281481 659062
466 499418 585466
467 915474 227592
468 446728 587400
469 158472 880051
470 119360 778105
471 209504 928197
472 132315 876301
473 204503 331271
474 195229 297593
475 740961 490996
476 264321 919070
477 201337 826231
478 425293 975055
479 202882 240423
480 505334 557420
481 288619 931970
482 919282 163994
483 205107 909127
484 440193 564568
485 492893 613695
486 193137 267062
487 519133 614976
488 736241 499362
489 854017 282976
490 171721 886407
491 767272 239498
492 738526 241749
493 309531 692143
494 273581 1015071
495 490320 551502
496 748853 498019
497 144399 914425
498 279309 326351
499 75867 881611
500 118830 872884
501 132199 865529
502 384355 1003349
503 164606 938725
504 499290 553332
505 278279 953266
506 217260 807718
507 948502 216953
508 253377 395313
509 795234 259214
510 450062 596509
511 213921 899889
512 265371 688522
513 526880 553193
514 266954 359988
515 193581 273117
516 248330 373105
517 147124 873217
518 774607 545477
519 524664 559613
520 211608 811969
521 182881 799847
522 433570 541728
523 439361 548077
524 784873 231498
525 177157 783922
526 175050 785524
527 782080 178170
528 258521 916594
529 290640 667409
530 424597 956987
531 156852 213307
532 195535 243859
533 146231 880904
534 782593 500517
535 466155 556513
536 212966 790060
537 207969 833195
538 504329 543515
539 745610 490441
540 790279 208768
541 225054 912705
542 253744 926600
543 491324 671716
544 168014 225025
545 389484 1009261
546 209710 753936
547 285156 690846
548 759063 542951
549 213313 900344
550 285806 721562
551 140438 802370
552 182119 275178
553 295457 724853
554 499307 636250
555 126840 957782
556 855073 217427
557 299328 697103
558 751561 487297
559 455281 996427
560 270607 970912
561 512385 594379
562 895276 235898
563 260088 707683
564 163922 918509
565 206518 843622
566 267495 329306
567 443495 1015636
568 749753 521612
569 165682 240429
570 231605 339829
571 247511 310265
572 208299 774369
573 117525 834923
574 407793 994597
575 116339 866544
576 150367 862453
577 915872 259981
578 530051 534937
579 187426 188730
580 731317 492463
581 781611 272902
582 801457 227057
583 155944 942340
584 780107 205985
585 473222 638797
586 770497 224214
587 235189 819380
588 267784 670391
589 184055 846021
590 187427 243647
591 962117 248481
592 512405 582989
593 185132 808108
594 210785 897743
595 270768 689172
596 755498 297889
597 253954 982701
598 242225 338859
599 526211 540251
600 766914 236255
601 170897 245582
602 237142 350934
603 755554 491454
604 350510 952546
605 505496 529309
606 246140 950242
607 186097 799845
608 186362 769935
609 250107 325987
610 191263 320800
611 991939 194804
612 884846 211423
613 243833 266636
614 947404 228471
615 465405 556054
616 194146 285222
617 192719 773658
618 269275 366295
619 351357 1011647
620 747161 246283
621 485546 521441
622 782379 208096
623 282194 334342
624 298416 694116
625 187648 893592
626 277464 304307
627 878690 240212
628 839996 201732
629 763821 478521
630 272187 726459
631 396737 1020337
632 800665 175235
633 780171 247410
634 766505 489527
635 729540 462983
636 950741 244071
637 174951 879299
638 941814 204031
639 402617 1026197
640 223899 341387
641 463788 547193
642 268795 959001
643 882523 228542
644 162109 795144
645 467548 574480
646 912594 171800
647 128152 892412
648 387701 1019652
649 516723 562833
650 241380 354282
651 482151 597343
652 739074 230400
653 509802 601370
654 123446 863614
655 459988 561304
656 186381 900396
657 290171 894459
658 270117 667012
659 786154 482227
660 282629 334543
661 140147 251122
662 479542 581278
663 221136 969347
664 469545 531916
665 298717 722796
666 420020 985570
667 470363 541259
668 291883 668534
669 919547 224789
670 759641 487140
671 224990 338052
672 706113 236172
673 244242 689453
674 260679 876923
675 893872 184464
676 241009 361941
677 402254 1004379
678 946300 204292
679 452945 599876
680 785517 235930
681 214317 795133
682 480065 604636
683 182314 876226
684 226250 953316
685 772224 503052
686 216808 961844
687 173379 224445
688 432945 1011382
689 249057 924249
690 812900 433053
691 113749 906911
692 142453 866675
693 926601 224112
694 943068 284447
695 172117 248479
696 513492 542377
697 757689 487501
698 121460 895496
699 201168 822053
700 966797 198952
701 228272 363354
702 250803 935172
703 210378 370976
704 804301 548141
705 303185 691878
706 732505 466996
707 170699 888589
708 188559 185722
709 327464 975486
710 369102 945190
711 270977 687304
712 487699 533813
713 765826 227403
714 749994 468726
715 941460 190897
716 440732 548050
717 123287 869098
718 180511 937911
719 928261 250733
720 801162 236881
721 314758 956455
722 218183 945415
723 483119 602257
724 205850 890678
725 190979 785136
726 259476 717812
727 808057 230887
728 211414 840846
729 947182 199381
730 182327 822431
731 904301 228562
732 105680 897055
733 325257 723584
734 932205 228975
735 119595 859303
736 235394 799839
737 215261 898617
738 238333 355909
739 255867 925547
740 447397 605183
741 317115 672749
742 304836 918309
743 754269 483542
744 241578 955875
745 155084 874883
746 314732 736192
747 770614 480870
748 83085 933543
749 507465 579821
750 773926 483453
751 150460 210044
752 901681 211130
753 451161 555669
754 136708 884269
755 101280 833285
756 180976 788192
757 235670 316296
758 191056 238795
759 141109 877449
760 805813 169508
761 209983 922796
762 309895 730382
763 929672 212827
764 761785 509401
765 123857 868154
766 939211 203208
767 206349 210046
768 401057 1032077
769 417103 976246
770 228113 322230
771 774564 197710
772 397147 1024035
773 214977 795819
774 268462 683337
775 233317 819652
776 279173 964805
777 762313 498716
778 233957 883688
779 733609 231461
780 792430 547724
781 454264 567504
782 796240 459367
783 230510 938774
784 181188 882396
785 442768 991354
786 488329 582922
787 98580 903652
788 483665 585423
789 77805 822975
790 499120 558187
791 760622 201549
792 229303 780624
793 808158 188223
794 287604 336649
795 764494 256115
796 285830 969026
797 417371 932879
798 147758 883375
799 195830 889532
800 763121 471798
801 247443 711573
802 886117 201404
803 216138 892760
804 769013 224085
805 99567 856771
806 469737 573601
807 802337 194417
808 207628 758152
809 269955 889842
810 482263 587993
811 292861 681001
812 742505 497877
813 440223 610071
814 291904 921636
815 202130 352401
816 90394 878046
817 167498 853683
818 162344 828193
819 480895 588829
820 113260 881214
821 369665 930520
822 121575 920734
823 450658 556902
824 476008 531515
825 469190 602312
826 436042 538105
827 213711 340040
828 166709 803758
829 419094 515763
830 202524 323413
831 157022 251286
832 798497 303587
833 494972 614781
834 102270 863479
835 523535 525216
836 271741 697949
837 484735 602341
838 104394 827950
839 182247 799166
840 931269 201578
841 287768 708169
842 252881 388928
843 737914 471396
844 480952 515847
845 445845 548914
846 899367 220013
847 406270 954505
848 453758 649283
849 248880 272031
850 245773 767301
851 142946 289127
852 256338 657660
853 228959 766471
854 203757 866967
855 736213 266192
856 201473 220043
857 429709 969495
858 184667 902955
859 250710 946899
860 214304 789512
861 759224 224455
862 508183 632344
863 508656 634888
864 127214 934500
865 827115 469713
866 226785 906179
867 148853 789972
868 261011 337567
869 406046 1044441
870 269255 376533
871 183395 242573
872 499978 594781
873 151766 861662
874 126494 247292
875 221672 398387
876 455903 637075
877 392246 984005
878 478702 595517
879 327956 702829
880 765371 464757
881 222208 695147
882 278117 716646
883 889996 187756
884 493095 555868
885 206062 250712
886 175021 291601
887 420396 961221
888 165680 778583
889 191011 249925
890 310315 748311
891 911532 191451
892 188105 782340
893 222279 733561
894 239503 335011
895 875858 183399
896 172171 897633
897 516733 542008
898 167346 866922
899 231852 288081
900 257993 780848
901 217725 836456
902 762612 196645
903 778917 231109
904 288561 704306
905 472383 523236
906 239135 663234
907 255254 1022496
908 525351 603027
909 200257 808887
910 460020 548739
911 759013 519673
912 132556 861771
913 216902 904946
914 504479 558925
915 221371 338211
916 493628 602304
917 198660 847206
918 307548 695023
919 913925 269364
920 432258 977748
921 805886 228173
922 786126 257765
923 433112 981992
924 774873 169775
925 806014 181258
926 456261 575531
927 785077 240470
928 219175 872167
929 193916 794613
930 250921 694243
931 395665 988684
932 215264 706438
933 454030 533240
934 763875 512872
935 238681 938335
936 190812 781460
937 486189 638302
938 394631 951199
939 115548 868271
940 531363 510959
941 452200 1036718
942 241419 887189
943 178056 253414
944 134751 863282
945 293441 325996
946 165341 197087
947 893412 207509
948 456902 584526
949 497054 559263
950 924638 263617
951 444371 593471
952 951372 269700
953 221079 909502
954 275016 362736
955 225650 941122
956 201673 800476
957 781321 272016
958 277085 967573
959 127254 842439
960 167329 804898
961 256556 328753
962 424756 938161
963 737363 508926
964 368431 976897
965 173260 918339
966 798320 253766
967 93267 813663
968 741059 208983
969 799410 500209
970 803613 222096
971 160457 817534
972 281228 721594
973 230611 353310
974 122256 882751
975 393392 526673
976 147749 871199
977 433034 979469
978 764726 199689
979 883334 247638
980 756190 537548
981 170463 248561
982 492760 632012
983 491139 528580
984 194307 774583
985 216337 353230
986 501283 582064
987 136818 872766
988 249200 697194
989 490538 638192
990 209536 837483
991 405424 980105
992 890703 189853
993 141919 839678
994 95038 847726
995 450617 493957
996 892744 210453
997 483534 525997
998 167593 205627
999 494515 652051
1000 516289 599425
1001 217140 826719
1002 826651 506425
1003 188790 891105
1004 754282 528349
1005 789067 255794
1006 773754 249363
1007 383944 975877
1008 280020 402344
1009 192048 198511
1010 242773 991390
1011 485222 640221
1012 766939 271654
1013 252127 380201
1014 772494 196911
1015 902642 249994
1016 903137 217492
1017 135806 931300
1018 206008 767800
1019 100499 886967
1020 476384 555066
1021 143253 869399
1022 155809 879698
1023 520116 527304
1024 210152 956865
1025 709328 491918
1026 180573 913132
1027 385695 982241
1028 271321 940730
1029 463386 596689
1030 795021 265703
1031 758621 490836
1032 250346 940749
1033 261665 958913
1034 729966 495722
1035 271118 655183
1036 776547 452783
1037 780241 274584
1038 426483 612898
1039 294668 936671
1040 138138 241962
1041 490132 533020
1042 233961 367885
1043 539332 602411
1044 483523 590592
1045 892175 239843
1046 414883 995854
1047 207783 951655
1048 329342 756964
1049 476127 569523
1050 884765 177694
1051 251576 788787
1052 226867 334341
1053 519243 541435
1054 729006 509140
1055 102542 839739
1056 141940 873787
1057 133032 880587
1058 761897 462634
1059 131696 220629
1060 254888 668322
1061 308417 940658
1062 229695 785327
1063 302648 673136
1064 282664 638174
1065 133270 784597
1066 513045 612960
1067 762907 249834
1068 92808 858099
1069 243990 883632
1070 507967 525223
1071 775053 475913
1072 801269 503795
1073 182658 840563
1074 113536 852368
1075 913599 197483
1076 215454 319709
1077 870719 188630
1078 195598 826235
1079 414426 992390
1080 788416 500443
1081 503013 579068
1082 191483 237295
1083 245815 280044
1084 764358 495859
1085 254410 941252
1086 920608 202501
1087 303439 715734
1088 196504 910049
1089 226985 869155
1090 265968 943133
1091 755117 241822
1092 156947 819282
1093 466872 574099
1094 279803 913812
1095 243476 345059
1096 479758 540538
1097 200861 233763
1098 442691 979163
1099 460894 571762
1100 204841 786469
1101 151700 871656
1102 137942 910252
1103 165647 269892
1104 492987 571567
1105 180716 898920
1106 478146 599292
1107 803953 225377
1108 940524 245796
1109 422243 996637
1110 350130 985908
1111 310316 680880
1112 145057 882659
1113 208210 914267
1114 507731 582990
1115 259604 893084
1116 535424 592411
1117 232572 312818
1118 511402 531345
1119 244131 908661
1120 445659 589661
1121 301972 292360
1122 169369 892575
1123 903049 252236
1124 877321 233351
1125 926241 232127
1126 429567 552422
1127 929753 153410
1128 263031 732413
1129 513690 573700
1130 240906 344923
1131 148143 948379
1132 427732 976778
1133 155334 909052
1134 221431 322836
1135 193450 878893
1136 762611 463392
1137 765275 456834
1138 241024 348635
1139 513115 597759
1140 272899 347221
1141 177150 787160
1142 503615 547136
1143 905311 221006
1144 227753 727280
1145 264094 876365
1146 494430 492546
1147 171906 300938
1148 455855 570470
1149 250125 879585
1150 249581 314349
1151 787445 203517
1152 249185 679811
1153 930217 175146
1154 279724 700594
1155 515358 570546
1156 489837 574775
1157 116234 840510
1158 411081 947672
1159 211604 318703
1160 274387 341872
1161 282845 325604
1162 243865 358175
1163 971017 160668
1164 468082 574335
1165 791052 467085
1166 176491 789196
1167 251654 719157
1168 500240 547388
1169 173529 258968
1170 921278 199369
1171 375395 988943
1172 781640 228699
1173 266916 343634
1174 207892 914898
1175 196295 241931
1176 148887 766406
1177 781980 223366
1178 465099 610467
1179 516185 549118
1180 249046 317901
1181 246688 928931
1182 146514 895941
1183 204720 316988
1184 180672 955786
1185 500827 631525
1186 369290 956888
1187 463477 541742
1188 292419 364326
1189 150307 931624
1190 792548 509141
1191 272167 719489
1192 99076 209596
1193 176624 234265
1194 778804 525595
1195 483706 598095
1196 256175 957596
1197 395592 990294
1198 460345 587781
1199 808166 502418
1200 258809 815315
1201 953191 188540
1202 192750 876905
1203 415806 988264
1204 786326 514231
1205 477181 612685
1206 486440 596429
1207 179197 794356
1208 379901 962123
1209 178465 259409
1210 786986 233249
1211 185936 900042
1212 216675 369486
1213 512555 560280
1214 212951 862502
1215 954307 199513
1216 443432 964468
1217 241747 358871
1218 507495 571848
1219 234605 1004555
1220 233721 299378
1221 164367 229360
1222 405496 1035277
1223 921626 195613
1224 208193 908765
1225 925042 189531
1226 247376 344892
1227 807545 523231
1228 163487 258232
1229 135313 800633
1230 287223 348713
1231 235568 869853
1232 233181 866455
1233 181796 274511
1234 39037 863820
1235 453088 984877
1236 180169 870558
1237 256812 382874
1238 265088 674981
1239 802986 262072
1240 796518 180305
1241 450824 656769
1242 736597 475061
1243 166144 785076
1244 493266 508187
1245 196488 804147
1246 249980 876172
1247 191003 231577
1248 227685 784660
1249 938359 177288
1250 507957 610197
1251 464570 622843
1252 280603 333512
1253 218890 345965
1254 91912 910886
1255 211113 306212
1256 179751 790896
1257 495696 543840
1258 247378 679832
1259 499335 649449
1260 534392 581169
1261 189176 338722
1262 910213 215099
1263 260281 937620
1264 191045 792617
1265 493541 548968
1266 807031 237428
1267 125834 874078
1268 906370 176634
1269 125141 891737
1270 230228 894354
1271 247794 347161
1272 129730 847995
1273 964123 213618
1274 889438 209144
1275 767747 507141
1276 406320 998893
1277 251740 361452
1278 140086 884555
1279 398766 1000225
1280 481681 635867
1281 284154 929098
1282 188785 812010
1283 737764 250536
1284 250575 720402
1285 421338 982028
1286 475644 562333
1287 461578 615250
1288 826933 235605
1289 875596 179040
1290 133925 878474
1291 178658 895348
1292 769072 505197
1293 794741 507834
1294 209649 927299
1295 78605 874639
1296 769437 251247
1297 754081 237693
1298 190777 881734
1299 262840 340516
1300 766617 488622
