NAME : portcgen-700-702
COMMENT : portcgen N=700, seed=702
TYPE : TSP
DIMENSION : 700
EDGE_WEIGHT_TYPE : EUC_2D
NODE_COORD_SECTION
1 166276 1017100
2 166320 972220
3 440188 383165
4 642635 708654
5 822002 268904
6 401227 699811
7 162989 350280
8 502714 766481
9 768551 116021
10 555458 41652
11 524360 101149
12 554297 643014
13 658111 85017
14 538436 740482
15 186077 375089
16 410818 427913
17 238999 422924
18 645683 621330
19 361172 713885
20 378182 649863
21 530373 757312
22 506366 705676
23 326132 615475
24 141434 973900
25 621788 86827
26 617916 96951
27 829970 156433
28 482688 516426
29 328013 637982
30 195440 407251
31 749824 226411
32 341346 622306
33 447489 418854
34 457184 465577
35 539144 714528
36 484419 476663
37 180919 937052
38 213051 444476
39 814372 177530
40 846139 188060
41 793470 231340
42 393375 435600
43 458932 375934
44 81642 1027438
45 176001 998566
46 457202 434251
47 563741 770428
48 835786 248454
49 773657 221358
50 495505 503172
51 341196 702655
52 562339 746069
53 601453 -23288
54 412106 449497
55 818011 178716
56 759566 206827
57 767022 198318
58 833181 192345
59 459188 437338
60 19976 1039351
61 480387 464465
62 120160 1006746
63 589361 689451
64 836728 214918
65 459386 444546
66 784016 273886
67 481248 674916
68 456058 436658
69 340222 529509
70 494479 381017
71 427428 446550
72 756699 204320
73 131730 351775
74 603957 37137
75 564909 645999
76 618809 72499
77 134579 1001585
78 657072 70872
79 580250 717269
80 467547 449588
81 736909 206738
82 549319 757614
83 580184 728494
84 436202 436704
85 181191 309483
86 198650 352177
87 352866 651722
88 354234 618673
89 163081 411827
90 661107 50751
91 336618 637166
92 590702 740637
93 159915 973399
94 198350 413597
95 239538 339057
96 549982 74022
97 91381 415736
98 243663 352994
99 809680 283442
100 750708 210216
101 190787 995395
102 531087 725929
103 156109 420030
104 132706 960471
105 591708 117639
106 479180 438775
107 149717 962764
108 810573 178347
109 459931 514923
110 764910 216466
111 797479 220789
112 220857 1018494
113 328582 644325
114 113912 1027007
115 117967 975954
116 190945 966049
117 588386 35780
118 801343 194204
119 628260 33503
120 795264 201754
121 632033 118105
122 633930 43605
123 570614 68588
124 380824 655035
125 349660 691923
126 540714 57097
127 536489 764037
128 783234 161920
129 752414 239729
130 372366 698644
131 574776 685652
132 86785 1017431
133 451266 434220
134 151473 956668
135 400055 440895
136 588951 64521
137 614487 756734
138 742063 188635
139 126310 936963
140 476547 379014
141 778802 199691
142 158055 1015344
143 197393 1028806
144 118263 954357
145 341713 616229
146 355524 680067
147 595623 694748
148 727773 162055
149 204579 372635
150 404452 691907
151 530102 44321
152 153339 1002743
153 421562 431506
154 122459 1083090
155 246310 426595
156 784712 259112
157 719226 207134
158 493430 475344
159 551179 97998
160 561978 119557
161 780419 259512
162 505142 693090
163 550827 696208
164 492441 721237
165 536160 762708
166 138690 349704
167 561342 707922
168 473279 444430
169 439459 373003
170 179308 1033858
171 562598 729701
172 764816 213441
173 410222 749087
174 531135 448230
175 177482 391555
176 189238 402187
177 546251 727635
178 773751 238641
179 340909 617016
180 188214 439659
181 767032 181580
182 344980 636033
183 126103 957450
184 520163 412099
185 191863 952724
186 448021 443554
187 240304 394539
188 73090 957964
189 595301 65087
190 578762 -20959
191 200988 392480
192 460389 428579
193 587188 82029
194 543972 66237
195 416091 436556
196 712776 197069
197 159333 1008146
198 346283 668169
199 828338 223262
200 746426 183930
201 733345 159320
202 614503 710973
203 105740 973300
204 462494 474625
205 443544 449279
206 277586 380630
207 149520 357212
208 115728 1000635
209 386083 419079
210 375519 649314
211 262073 346030
212 161323 358812
213 450002 452563
214 515887 420494
215 162893 958731
216 584657 69225
217 598764 720800
218 375539 654761
219 415604 483914
220 576458 58519
221 561678 780259
222 813312 177329
223 666577 90865
224 425168 668794
225 137730 1064586
226 476947 523028
227 132317 387596
228 603275 145697
229 533807 432276
230 450759 430316
231 159174 1007764
232 646848 105886
233 494836 435191
234 553697 67148
235 376730 667227
236 773033 81301
237 399659 672603
238 190488 407063
239 545298 725821
240 206410 367003
241 168849 909643
242 540692 780142
243 167928 1036063
244 113278 1031398
245 456685 389050
246 117867 941082
247 738681 214954
248 746508 224010
249 559579 723927
250 155494 987666
251 85453 982694
252 195080 386441
253 419456 663342
254 588833 77378
255 201040 351568
256 201047 415393
257 525803 692025
258 776176 207397
259 585633 49790
260 518351 720029
261 215415 400628
262 268874 390822
263 494633 742322
264 581565 42074
265 759769 189852
266 619988 79312
267 219118 348049
268 585904 706373
269 556307 704617
270 584042 684063
271 374532 646435
272 638899 4251
273 585217 717669
274 551101 778950
275 210590 378598
276 420946 500962
277 354270 614913
278 593695 765347
279 394098 580724
280 739914 187116
281 174160 394570
282 154645 393507
283 726427 225030
284 224054 357155
285 162517 410803
286 578876 696696
287 67909 1047695
288 799675 227836
289 251764 381526
290 807494 224577
291 144991 336453
292 570990 700131
293 598010 740057
294 540078 723071
295 572712 721957
296 349519 635480
297 393926 417110
298 588114 62223
299 821224 209354
300 329664 598840
301 213488 363616
302 335663 692209
303 429979 471144
304 464464 518880
305 124502 1070687
306 810481 227398
307 814676 230904
308 183367 364807
309 463775 474246
310 536219 739931
311 524852 457171
312 535971 761346
313 633313 789155
314 622334 67486
315 795536 186251
316 590230 729625
317 801377 210643
318 94884 955396
319 236440 371625
320 345009 671305
321 153831 982620
322 829920 219543
323 185161 409999
324 449961 382510
325 399291 618714
326 636374 45242
327 377659 631654
328 420074 593384
329 372141 677663
330 411310 673774
331 766959 143135
332 192205 335367
333 581458 28135
334 144796 898305
335 138168 986971
336 122057 1058521
337 583567 101171
338 789769 211034
339 208520 378431
340 177346 368732
341 442236 655774
342 391571 380102
343 663958 90820
344 815821 211467
345 435840 430791
346 432672 637447
347 182278 398558
348 536485 695682
349 445951 479938
350 567590 690625
351 463350 733971
352 549886 756360
353 376105 400191
354 580725 137921
355 467092 466723
356 93662 1006476
357 155261 396828
358 205499 358206
359 495425 388837
360 148551 367008
361 206948 351649
362 193114 393904
363 172525 950204
364 480807 488080
365 603950 44962
366 417723 627480
367 150717 331832
368 384542 641853
369 627234 111306
370 176461 359306
371 523530 648041
372 431546 452323
373 80279 1021492
374 590136 701276
375 835136 207605
376 531851 5041
377 143100 1043721
378 286759 657942
379 356139 730918
380 479933 363881
381 597020 85897
382 581508 712182
383 567876 749090
384 412797 610342
385 262219 348131
386 470055 518694
387 560460 82216
388 136571 975669
389 377164 636733
390 547434 727007
391 585055 57439
392 562722 783216
393 179634 987985
394 511550 379841
395 148247 355195
396 402931 469139
397 792487 253622
398 483701 777416
399 559824 36110
400 151025 401784
401 125896 1037367
402 47639 974853
403 841468 218278
404 558250 77013
405 603927 17478
406 371764 708459
407 887027 121354
408 139787 975336
409 360285 653098
410 797355 99209
411 582571 640345
412 569891 84201
413 94433 1005611
414 383295 599638
415 360013 657893
416 180207 362771
417 419895 666616
418 538503 623218
419 185671 939724
420 407903 493170
421 537830 741667
422 518581 409788
423 660233 164330
424 548101 715751
425 147582 980062
426 397113 443504
427 345276 591632
428 840441 180400
429 124910 421781
430 185979 969181
431 489035 633663
432 508977 410349
433 475755 421493
434 845577 192767
435 600004 -15020
436 65782 934353
437 476830 381259
438 849542 250200
439 443014 474966
440 89455 1037662
441 473063 457709
442 803445 193906
443 802848 206271
444 567919 36034
445 447066 438725
446 475875 411285
447 601254 129988
448 441308 476998
449 750970 155136
450 535955 688466
451 830722 176671
452 371111 579111
453 462307 486496
454 614832 57987
455 798012 205607
456 748105 249877
457 813203 227116
458 576694 678958
459 817315 221864
460 396681 668013
461 215505 356159
462 759786 221863
463 421294 467773
464 784221 161745
465 452123 464799
466 545569 45839
467 110224 1019968
468 208135 417327
469 202778 357609
470 76688 1008333
471 459993 448836
472 379775 584482
473 354421 682709
474 564278 689328
475 152971 1034090
476 221996 372576
477 801928 198440
478 479376 425257
479 585346 117929
480 488683 418256
481 201684 423807
482 611885 45417
483 323433 672947
484 784193 189507
485 772006 174213
486 595743 -13313
487 609355 77465
488 208545 299513
489 816112 181113
490 477640 423422
491 97619 995878
492 853223 190400
493 560522 669380
494 156213 1043476
495 116286 983875
496 269032 416989
497 470287 485202
498 446327 499421
499 527841 701136
500 116483 964002
501 603983 686610
502 752422 213584
503 544072 82984
504 771110 185902
505 386496 644629
506 112535 384329
507 360283 667803
508 200242 985210
509 335545 650744
510 842959 203794
511 222113 271999
512 748600 232196
513 94203 1001364
514 335467 655022
515 571469 70949
516 618982 62795
517 419698 483997
518 568978 727992
519 130637 985674
520 514075 676779
521 292036 368925
522 414294 460493
523 552972 690712
524 736678 169060
525 609295 70167
526 280220 634223
527 160118 943098
528 210135 462372
529 559443 715963
530 573265 722877
531 771235 244147
532 624425 116915
533 655990 72838
534 811399 232649
535 236305 340330
536 204095 409822
537 332766 649875
538 123092 994335
539 788518 138256
540 348775 703526
541 177627 327335
542 812960 181109
543 384733 403931
544 119791 1026611
545 485522 708506
546 457372 388042
547 422679 437027
548 579409 644551
549 154266 404277
550 503844 678404
551 554841 122425
552 183090 403404
553 580104 58836
554 320824 640744
555 228182 331576
556 573228 91211
557 735792 289071
558 177514 377494
559 307540 661994
560 672162 13708
561 429810 584490
562 488015 460071
563 596965 157970
564 123520 1034786
565 352750 569540
566 117846 1026774
567 784011 219602
568 358514 643909
569 152438 360610
570 359959 702707
571 398179 566224
572 448652 413114
573 431677 407921
574 351959 641161
575 372477 542598
576 455332 448468
577 236358 388155
578 141335 986270
579 605339 -11920
580 423233 447744
581 323414 652237
582 499168 665911
583 775625 187953
584 175694 1000050
585 766152 212408
586 378219 577077
587 188684 357038
588 151195 992029
589 132208 389917
590 385046 468537
591 615375 696076
592 136494 1004408
593 539842 715625
594 535685 656039
595 95086 1013558
596 515712 668908
597 813862 143652
598 334293 638706
599 199140 1011010
600 267115 347302
601 373210 615759
602 623111 48178
603 597336 42325
604 132434 997165
605 183295 324589
606 617887 741562
607 370758 679694
608 623894 100654
609 397580 684669
610 427122 462479
611 586047 -3300
612 376472 652617
613 535346 726562
614 611939 -23705
615 621973 91924
616 513749 726994
617 196350 399591
618 864244 156031
619 551274 738146
620 349263 644826
621 251043 380539
622 371671 678192
623 150314 392802
624 648956 100705
625 788958 187331
626 767962 162544
627 505465 70291
628 452914 680041
629 211473 414496
630 379962 371667
631 774906 160376
632 756062 289244
633 490434 430954
634 337375 540655
635 618460 95271
636 155261 419732
637 586633 807626
638 291173 634383
639 200809 431347
640 332928 649545
641 191289 410138
642 75754 326362
643 177105 1025897
644 578050 63702
645 115976 960666
646 193782 1012536
647 524598 779937
648 379876 666473
649 468486 463084
650 63865 974134
651 152840 1014668
652 822711 232137
653 756929 206799
654 810881 182772
655 600694 76311
656 762241 195200
657 450772 440166
658 325843 675376
659 760581 253766
660 399571 422554
661 598725 73279
662 524114 717469
663 647197 86786
664 479599 738711
665 421034 436489
666 595566 40478
667 609290 77532
668 348607 421044
669 583035 46865
670 286434 635572
671 774589 214700
672 553838 790399
673 377827 667839
674 801866 163103
675 177165 972071
676 432148 476437
677 213212 399423
678 156673 1056265
679 809659 191091
680 635701 43544
681 432047 467478
682 492116 408600
683 373600 659016
684 389807 596842
685 305757 607750
686 193682 967305
687 768239 165547
688 434089 503179
689 653480 62732
690 197386 414198
691 665372 54247
692 487603 411138
693 527420 715161
694 350054 718630
695 162226 356621
696 673542 109841
697 194857 944440
698 464752 468190
699 138289 943002
700 159183 1003007
