NAME : portcgen-500-501
COMMENT : portcgen N=500, seed=501
TYPE : TSP
DIMENSION : 500
EDGE_WEIGHT_TYPE : EUC_2D
NODE_COORD_SECTION
1 324780 473693
2 592355 657538
3 913624 471400
4 626304 731773
5 325145 428638
6 61088 864515
7 25633 871525
8 988581 522200
9 715826 843178
10 344943 475330
11 234217 376752
12 408954 438370
13 687097 935930
14 556587 717434
15 980036 435861
16 586359 674139
17 57621 916461
18 772928 835209
19 634821 700546
20 395054 529198
21 121332 809841
22 922529 463341
23 666082 807383
24 42262 847222
25 119290 851600
26 919718 482365
27 47331 740293
28 364763 492440
29 341547 424592
30 668598 851335
31 36357 854837
32 996465 445207
33 113760 820344
34 641902 954499
35 57938 943862
36 229099 451017
37 975389 450272
38 65559 788801
39 283639 368333
40 653004 926966
41 531399 658609
42 962414 453373
43 958492 474952
44 700927 797218
45 11731 806709
46 677373 894941
47 514496 683383
48 118929 854603
49 87360 770873
50 60818 859566
51 139133 911969
52 695298 848463
53 287166 420023
54 607368 735440
55 1037083 464617
56 324562 473200
57 87338 824221
58 791850 854831
59 642810 752036
60 693129 854346
61 674832 764380
62 637064 824165
63 276713 441611
64 -58024 857019
65 563501 713572
66 949109 446156
67 55583 822366
68 24872 868694
69 526665 638048
70 100634 800984
71 35820 832132
72 631292 686500
73 78737 843381
74 591421 803090
75 915947 521989
76 709775 814521
77 365794 488315
78 947299 507568
79 738337 909876
80 801769 826892
81 18526 846815
82 918615 488561
83 684509 879757
84 629310 840173
85 96255 793363
86 312458 421770
87 549687 749258
88 877738 565701
89 349466 423235
90 955440 508094
91 502141 671559
92 961558 551672
93 692243 853119
94 656160 777857
95 498746 631822
96 680815 861487
97 638734 932080
98 694772 873308
99 1011372 458976
100 575869 694720
101 1001727 500254
102 957901 488638
103 310761 464428
104 281823 415145
105 564704 648320
106 1003036 438711
107 306656 436760
108 991658 497233
109 560213 637915
110 249490 489643
111 175383 755226
112 1016301 427900
113 577144 657675
114 406880 428020
115 69390 879150
116 74615 857466
117 940626 426629
118 963598 560655
119 957758 446577
120 742886 979024
121 369636 403813
122 737031 917314
123 939202 434306
124 988805 506030
125 13973 837960
126 694213 866493
127 124125 877868
128 134232 890803
129 969738 481236
130 1033321 520984
131 706138 839797
132 754382 825518
133 1005792 566640
134 671715 756194
135 569873 700053
136 436090 553260
137 541687 657140
138 1033733 409056
139 27527 757563
140 578003 636203
141 548986 613164
142 923445 475327
143 19286 834898
144 983774 519211
145 690650 844201
146 313222 498437
147 640834 837097
148 291961 412758
149 684508 805060
150 583374 798038
151 596027 665978
152 59818 788814
153 618551 829789
154 497726 672339
155 606431 679310
156 35843 881111
157 722983 908804
158 627887 692825
159 310005 359463
160 1006414 453918
161 248448 452165
162 919334 502796
163 677263 878889
164 873337 457995
165 714784 901022
166 365800 462686
167 276037 465447
168 899855 488579
169 973337 400201
170 618282 738701
171 415741 421565
172 149427 820293
173 349073 417412
174 498709 673234
175 568597 665747
176 921387 531814
177 903001 424872
178 25355 821184
179 772418 864095
180 637753 839332
181 700447 847462
182 909210 491965
183 1424 884493
184 642639 886522
185 363154 494224
186 767471 955343
187 304588 480481
188 962964 425670
189 586943 673631
190 81892 801451
191 -12921 846746
192 328039 514468
193 586537 914223
194 316760 446555
195 16012 908457
196 876610 482065
197 272441 379688
198 257627 351575
199 29307 899427
200 925767 341342
201 618174 702985
202 40423 807133
203 944880 475556
204 77037 814301
205 2773 913847
206 646438 881490
207 543311 625151
208 605647 774831
209 1042463 472148
210 681955 794596
211 639595 862420
212 118947 822451
213 362865 382410
214 549263 668262
215 499605 582073
216 990820 416027
217 703493 693012
218 640700 671369
219 358439 384125
220 49849 804144
221 65248 822120
222 -8067 869176
223 914497 531244
224 1017445 471961
225 948908 421712
226 296799 419732
227 692037 829522
228 623463 660072
229 382791 386961
230 266721 391048
231 11093 819227
232 83818 858652
233 619223 673182
234 324628 546366
235 756784 723187
236 982540 514666
237 971349 453438
238 981464 473675
239 285425 427236
240 626325 609536
241 681927 843755
242 9144 849409
243 1056742 482296
244 302072 449298
245 380555 446266
246 912546 447425
247 123976 783080
248 523126 714701
249 578852 637167
250 574244 736125
251 116879 818193
252 529805 739748
253 1018698 439474
254 49351 810593
255 949141 424948
256 62977 869806
257 1025937 521225
258 670091 881726
259 619761 854489
260 239604 521057
261 550881 698975
262 53454 784039
263 87147 882419
264 997614 456701
265 308047 423644
266 275746 500587
267 583952 612726
268 987532 424472
269 18413 830746
270 950998 406145
271 482719 755708
272 737507 807097
273 586026 823819
274 340506 407189
275 598227 636509
276 -5271 815928
277 950209 422548
278 677450 902114
279 372724 404109
280 978915 478939
281 532877 744238
282 67621 803891
283 408666 441066
284 947468 507400
285 74319 770999
286 713622 880512
287 585237 674278
288 961987 412404
289 655186 882960
290 670558 868244
291 706091 885715
292 575367 703712
293 959642 560496
294 328546 445882
295 711573 886079
296 961582 466202
297 723561 885529
298 960315 487951
299 998377 453538
300 871903 496292
301 595584 666479
302 1047527 489485
303 141760 850872
304 17485 816779
305 928067 414714
306 572135 641040
307 48812 855852
308 326938 406869
309 544464 676785
310 975471 532428
311 809656 905226
312 315951 428489
313 646755 844066
314 55308 789756
315 972762 387544
316 378403 421734
317 337870 469913
318 576476 629780
319 731168 884779
320 504639 656005
321 539888 643671
322 388173 447030
323 18668 847817
324 953368 493890
325 310208 491721
326 933010 461866
327 945348 411170
328 51229 863799
329 253962 356647
330 348729 455903
331 700988 832441
332 570007 849585
333 715804 866428
334 71587 826146
335 318631 459158
336 595055 733914
337 336352 340004
338 958863 515057
339 542981 621133
340 562184 755094
341 262770 430787
342 586219 890222
343 680666 876319
344 751026 824071
345 867761 483303
346 534551 671466
347 548795 705366
348 623353 699395
349 719440 874155
350 45681 869604
351 65580 871904
352 1007338 457953
353 366149 473515
354 35054 780074
355 550855 724898
356 661706 876392
357 283073 468345
358 -10387 864158
359 59054 852939
360 700275 801820
361 329547 435512
362 358395 384194
363 987225 423844
364 256254 449135
365 711161 843380
366 632291 867349
367 334517 454216
368 912621 477965
369 278719 485924
370 576257 641838
371 987333 492533
372 931685 407347
373 62657 847445
374 54540 842664
375 509883 685154
376 20701 811024
377 347405 491757
378 1008860 474381
379 354484 487597
380 331600 512753
381 343328 453400
382 963252 442003
383 725221 795187
384 756086 889619
385 731992 771374
386 297242 411726
387 930587 418364
388 939071 513299
389 641773 712666
390 372647 533630
391 707522 788606
392 540555 668525
393 735420 903589
394 22233 811711
395 370377 456211
396 640100 935138
397 496025 714264
398 379511 429702
399 960671 457217
400 54953 814575
401 18883 839346
402 622285 661121
403 529527 646853
404 41765 879160
405 974123 531103
406 360678 402318
407 989860 409996
408 198021 524903
409 565985 653324
410 559011 733991
411 349487 470898
412 622999 637961
413 730577 858222
414 544156 604806
415 903886 501442
416 30093 808305
417 341070 426775
418 1019677 514879
419 156004 821371
420 636146 665938
421 404550 420993
422 973379 431372
423 897888 494922
424 -3457 855865
425 897862 527726
426 339240 383727
427 558090 650365
428 60709 815210
429 978778 482123
430 701427 828410
431 910359 423537
432 99061 897282
433 719082 857542
434 975177 485554
435 641739 855416
436 593044 637421
437 672247 862323
438 994621 529973
439 120318 831608
440 564963 681179
441 446514 409966
442 1016612 424969
443 294661 464001
444 971585 477717
445 750356 846881
446 -28287 854157
447 643944 877780
448 614189 651181
449 1005183 447017
450 545891 761874
451 562364 660034
452 269074 461586
453 77636 829977
454 291056 455086
455 303205 469057
456 558980 611646
457 776961 807282
458 -25264 854017
459 19365 852457
460 18279 818275
461 671251 611423
462 397404 415708
463 313074 455750
464 956545 554970
465 959297 484113
466 111197 794369
467 966889 500633
468 375500 482303
469 994672 473085
470 369999 417362
471 927546 395099
472 73878 900638
473 917759 522575
474 292137 503495
475 657492 870124
476 552705 654544
477 685583 767725
478 606163 619027
479 309641 394236
480 909163 483026
481 591248 689076
482 290464 399283
483 581587 615975
484 31237 819206
485 74015 856179
486 565240 677492
487 608985 701431
488 634192 743169
489 981934 492366
490 567505 692876
491 48671 852623
492 302350 474276
493 899856 507139
494 38257 824381
495 76569 857454
496 247505 367202
497 70830 861305
498 1035099 516293
499 362167 437565
500 747199 911068
