NAME : portcgen-400-405
COMMENT : portcgen N=400, seed=405
TYPE : TSP
DIMENSION : 400
EDGE_WEIGHT_TYPE : EUC_2D
NODE_COORD_SECTION
1 371613 412781
2 613490 497849
3 671493 446148
4 225782 437652
5 737519 440386
6 296580 273123
7 633562 352281
8 565675 437375
9 254621 497681
10 764141 607037
11 317283 343835
12 634058 379666
13 590848 409069
14 249654 480220
15 254302 493088
16 706072 598932
17 220958 546752
18 700153 486127
19 266072 478373
20 685845 478145
21 160459 474898
22 672469 399547
23 662413 592205
24 326931 384694
25 275705 411020
26 671965 638062
27 630529 539942
28 778488 530535
29 650706 513652
30 722037 383569
31 582873 403975
32 116962 527676
33 234561 344625
34 599411 391160
35 659721 436508
36 638338 387759
37 686419 548565
38 300881 538132
39 266426 379825
40 267616 584810
41 645541 361172
42 274914 375813
43 676849 411659
44 739212 613393
45 249411 344393
46 271332 355657
47 299771 377041
48 735352 537512
49 760229 471747
50 567761 340426
51 255220 332950
52 235962 429222
53 236764 517838
54 238317 312926
55 614500 625054
56 713257 388112
57 270963 442493
58 607664 412561
59 788557 507569
60 661706 582583
61 241748 447863
62 755685 508865
63 564766 374329
64 638778 560161
65 528067 438969
66 297810 539986
67 253703 330888
68 642303 395890
69 209831 464061
70 706186 423887
71 689372 549630
72 656451 411609
73 244454 488296
74 724523 567467
75 749335 614372
76 718292 534890
77 704040 470691
78 637501 352214
79 322365 388318
80 228648 454114
81 556726 531929
82 596714 522683
83 639434 492918
84 734266 541901
85 713721 579587
86 505501 380555
87 439590 335179
88 620270 490213
89 735405 641861
90 724889 529993
91 610164 426621
92 350598 329880
93 762407 449068
94 725575 553529
95 756812 569332
96 485487 493758
97 204345 532974
98 596253 373101
99 606791 502264
100 754639 532464
101 281089 587161
102 621288 421397
103 300034 295472
104 708565 519954
105 643503 433864
106 246795 569040
107 187122 317503
108 640935 419222
109 242645 393115
110 241218 467318
111 553300 530585
112 688034 492306
113 677134 564854
114 728675 579917
115 607555 500954
116 708006 503024
117 192244 515235
118 216436 467779
119 291825 555565
120 201509 517069
121 182000 501162
122 361887 377686
123 692082 505571
124 333244 344998
125 572458 433949
126 673501 535765
127 565420 467917
128 293908 544254
129 720746 410398
130 286957 345598
131 342367 273148
132 650473 404189
133 234658 525874
134 603067 371920
135 654469 410657
136 359461 422007
137 627050 434477
138 332884 396909
139 559105 406817
140 689523 533069
141 338288 401408
142 209197 495652
143 654498 516352
144 756342 607283
145 244973 434298
146 257665 488225
147 307406 414047
148 177955 396560
149 660348 388098
150 513906 473311
151 227180 493416
152 213836 497805
153 194983 562326
154 348367 349164
155 307105 309739
156 732098 678802
157 237128 478858
158 250024 591507
159 319843 349230
160 340465 334955
161 551530 421926
162 327221 276333
163 541541 446328
164 251276 376526
165 671961 342502
166 177886 518752
167 643853 415532
168 280269 559305
169 804451 608333
170 352349 346125
171 275632 385097
172 149301 460639
173 686453 544419
174 195579 291271
175 179423 602014
176 294894 343499
177 313875 282656
178 562057 404338
179 268807 328585
180 639370 410681
181 602019 377257
182 226446 305621
183 697730 469312
184 700629 571440
185 238378 489352
186 637929 344384
187 695096 614518
188 621606 440108
189 627709 488493
190 731681 501251
191 329809 483639
192 419751 315800
193 626268 419928
194 782067 513932
195 772843 499962
196 641826 488277
197 607073 371166
198 687787 583674
199 220237 497059
200 285929 295900
201 672798 536823
202 631847 556624
203 689831 464751
204 538233 346431
205 616139 492930
206 757811 653468
207 302616 333104
208 551324 535920
209 606591 412130
210 165925 482393
211 284877 338567
212 513538 435138
213 286729 365423
214 310472 382691
215 718169 551581
216 290498 374987
217 259933 494666
218 741233 411365
219 225396 388370
220 533456 297962
221 255616 385851
222 687325 505060
223 258847 301245
224 324260 331193
225 613035 452586
226 612855 385320
227 207511 369609
228 323467 366731
229 707550 634206
230 221715 369271
231 267618 363869
232 235961 571514
233 570889 522506
234 704303 540851
235 239733 503477
236 694215 424353
237 619240 523958
238 333256 342967
239 605605 399386
240 703876 433922
241 705121 409966
242 244396 345653
243 793422 585507
244 279175 364640
245 302347 382607
246 274843 282533
247 273963 523932
248 342652 280277
249 618652 412553
250 616610 447219
251 538237 400545
252 311222 391256
253 534579 413127
254 750586 614255
255 282623 546241
256 170574 520746
257 727154 488233
258 222880 501206
259 143708 488320
260 299609 475834
261 655572 459378
262 266466 527807
263 736973 555475
264 230483 462011
265 215676 516538
266 550672 401706
267 149079 459711
268 274126 585032
269 320599 386354
270 605891 488493
271 248585 465117
272 708090 516200
273 727274 516383
274 227596 360423
275 232462 345439
276 589170 453587
277 777769 582180
278 212866 520258
279 766410 610253
280 743606 565692
281 747688 490584
282 600855 351140
283 343846 500617
284 738560 533127
285 736296 516689
286 727009 538051
287 643439 391998
288 724879 444070
289 201244 450758
290 287896 366011
291 210762 534413
292 722179 445254
293 322665 416383
294 733475 587075
295 721569 505919
296 251867 606722
297 857313 541655
298 354376 440085
299 541815 392967
300 592466 410735
301 317731 435189
302 363324 304716
303 563217 366781
304 610147 535115
305 666315 410745
306 412548 366907
307 233242 307605
308 263801 374923
309 175104 503091
310 585859 423023
311 311927 531255
312 573720 437952
313 365466 436741
314 710482 500865
315 276451 380016
316 222999 453467
317 741111 619424
318 644998 418800
319 233428 340661
320 637710 497384
321 717995 507096
322 306152 280447
323 259063 335533
324 621842 441184
325 715099 623918
326 188841 490858
327 192573 485485
328 692176 600578
329 551174 447431
330 228245 535625
331 655873 404964
332 299349 257878
333 306845 608692
334 169236 556553
335 232589 500706
336 669325 535156
337 225901 457983
338 309495 307138
339 708780 537801
340 690894 462481
341 706589 575745
342 691799 411565
343 251379 501077
344 763598 579391
345 717858 559193
346 708377 453549
347 216985 528741
348 331924 411179
349 596760 439350
350 705587 524410
351 737818 463884
352 356639 345202
353 639563 394872
354 383257 336899
355 660384 600688
356 703471 578156
357 197763 568003
358 258034 543409
359 532387 447754
360 190360 557633
361 615953 376951
362 667813 532802
363 240247 354619
364 343026 391122
365 257541 337761
366 638799 395324
367 266234 323551
368 301330 331436
369 245916 323218
370 758791 570280
371 348135 297116
372 475176 423015
373 318571 323254
374 663631 430858
375 621658 392421
376 312539 482782
377 221754 446621
378 320307 558348
379 744236 509072
380 283696 463530
381 316496 360369
382 680145 410938
383 88586 447438
384 755497 575253
385 365027 530761
386 621036 475235
387 651013 428214
388 627127 384294
389 758405 530530
390 277497 444558
391 637403 427946
392 207176 458969
393 279767 423664
394 173980 439997
395 619339 417125
396 243670 434676
397 223580 433850
398 420655 355849
399 202307 548831
400 219495 564204
