NAME : portcgen-500-502
COMMENT : portcgen N=500, seed=502
TYPE : TSP
DIMENSION : 500
EDGE_WEIGHT_TYPE : EUC_2D
NODE_COORD_SECTION
1 96548 408048
2 335563 376706
3 315881 359787
4 644019 -9849
5 678911 42864
6 168203 442215
7 969497 720952
8 213049 406182
9 144935 397769
10 993061 722954
11 645677 28094
12 305559 397232
13 102153 341859
14 698966 -15407
15 121750 318783
16 312664 657749
17 190646 373329
18 434575 357456
19 334539 656891
20 90845 450646
21 70158 319661
22 380944 404015
23 341772 329468
24 355298 610271
25 382518 331172
26 313104 609264
27 269261 322445
28 421867 348727
29 644606 -26225
30 252046 366123
31 136000 302023
32 679509 -35763
33 142859 443376
34 94361 389532
35 727072 9891
36 357770 677329
37 1022821 660302
38 360067 656194
39 165912 464912
40 88671 441332
41 645800 51916
42 349756 302627
43 878914 628413
44 377544 628680
45 415676 291456
46 296211 699811
47 114876 309875
48 950822 662849
49 984712 709428
50 339805 423897
51 948906 574902
52 966411 634312
53 420054 315636
54 397343 399495
55 142641 360272
56 407964 369548
57 395165 382753
58 940585 689218
59 208793 334274
60 315187 599097
61 1020269 691019
62 360611 640625
63 337212 686504
64 704408 -48467
65 311033 579236
66 664686 -42804
67 967159 746537
68 732501 -33296
69 116702 392436
70 312787 396168
71 369829 586332
72 102387 351323
73 901476 689469
74 323339 629543
75 269511 669268
76 387747 353487
77 978454 667902
78 90012 407621
79 992825 747937
80 643934 47714
81 110151 361668
82 136905 350443
83 924303 595926
84 633737 -10211
85 956085 689256
86 402568 599777
87 354525 316808
88 299669 626583
89 983287 653597
90 986074 683085
91 92955 377956
92 606959 32574
93 648951 -4215
94 659717 15316
95 652513 41709
96 161901 336853
97 47275 376775
98 137737 354299
99 149051 404647
100 668715 45758
101 747769 -33349
102 142587 446190
103 945643 690566
104 375249 637493
105 711500 45281
106 52634 341652
107 700820 75858
108 90298 319185
109 991767 681744
110 179195 379727
111 610816 59031
112 195304 441817
113 699671 -20958
114 241155 539233
115 38346 448820
116 281258 354702
117 104644 389736
118 1003332 762266
119 341188 271627
120 346021 293958
121 753210 37739
122 140363 428775
123 294197 662037
124 369154 313621
125 333791 333305
126 301310 644796
127 319599 713808
128 280740 659931
129 366485 334843
130 408888 320344
131 303231 327973
132 383572 307530
133 901903 751914
134 380823 354512
135 736125 -82853
136 946930 674163
137 395485 258138
138 659235 -32154
139 385001 600761
140 357859 270501
141 319805 258275
142 932500 783359
143 710165 -97754
144 917354 695469
145 1053870 667419
146 996049 672996
147 931484 736414
148 9137 397160
149 410762 441144
150 703945 -1536
151 708180 -35198
152 141903 421733
153 1046068 639286
154 329900 604301
155 986373 656886
156 376800 387878
157 980639 576707
158 221616 390072
159 385419 381022
160 957887 599536
161 315014 627746
162 960569 634379
163 283987 670833
164 361356 611594
165 1012919 610482
166 422848 547761
167 397460 550069
168 652720 -81621
169 176454 421578
170 925192 660498
171 417930 413138
172 360439 328248
173 335497 299417
174 78701 371947
175 720891 -53667
176 341102 354176
177 992729 648960
178 977393 695563
179 591843 -20533
180 384321 678348
181 362629 297288
182 130762 439352
183 399585 570456
184 95090 354272
185 403672 634932
186 371453 378533
187 123323 446317
188 369361 514481
189 944150 634317
190 943956 680376
191 67247 391902
192 663994 15664
193 171639 337604
194 637060 -3803
195 377995 313951
196 686267 55023
197 142689 422480
198 387569 623562
199 963388 644726
200 755778 68615
201 543777 -100499
202 300133 549357
203 145998 375452
204 331526 609474
205 368710 631267
206 650277 78751
207 703801 62034
208 327547 598764
209 969548 609039
210 654487 3327
211 670025 66569
212 344939 559681
213 266000 318126
214 358255 605031
215 201356 364439
216 951168 599221
217 658272 31513
218 112388 473097
219 915634 644835
220 103966 369254
221 377942 567534
222 707827 37777
223 165433 355283
224 306629 686928
225 317833 355319
226 985213 717985
227 866943 669540
228 659842 61248
229 903600 632611
230 118993 509497
231 647213 6217
232 985840 604296
233 350009 557380
234 640329 119368
235 135696 411104
236 712715 86466
237 996162 638268
238 670117 -8172
239 389891 678226
240 454781 417309
241 724347 42574
242 321040 616812
243 382286 360331
244 230889 421251
245 308530 409045
246 377458 557494
247 366531 640686
248 359647 373302
249 323876 334627
250 176203 279325
251 951216 695611
252 397118 353677
253 269123 594210
254 679677 -62896
255 337437 344639
256 293498 359555
257 962170 594385
258 110508 398745
259 118682 380644
260 949372 642630
261 128293 432587
262 903847 696107
263 624118 63189
264 983575 695988
265 391156 615242
266 401837 317080
267 303406 517083
268 864885 745874
269 272571 643289
270 377487 350621
271 134143 410380
272 291691 622788
273 659538 -25508
274 76372 353885
275 697828 55702
276 375918 298555
277 1007327 678938
278 378961 646345
279 160833 395521
280 1062501 641674
281 663408 81235
282 172404 319427
283 306725 295891
284 762638 -78161
285 330131 453057
286 942900 700356
287 363920 527823
288 315833 666272
289 959625 618255
290 626425 -22044
291 358542 611351
292 320039 635465
293 688864 -6373
294 606547 18662
295 113990 356610
296 622327 5369
297 962106 694838
298 730616 65066
299 733565 6589
300 400483 398650
301 308479 295084
302 294858 634023
303 371014 331626
304 299218 333551
305 963935 715215
306 294203 355801
307 375217 325978
308 358002 607132
309 325695 664700
310 109454 420344
311 361915 330021
312 332961 343152
313 247564 613550
314 935209 682390
315 691791 -19169
316 626509 96685
317 130690 388319
318 651565 -27022
319 1054799 638218
320 990309 670229
321 947732 651919
322 276456 589792
323 113554 390407
324 1029625 645367
325 334677 634080
326 569623 55383
327 235769 545158
328 276576 608405
329 331218 603835
330 968570 647976
331 123606 352243
332 324285 521994
333 969118 643655
334 685571 121091
335 1020577 717914
336 143477 415248
337 974606 721750
338 390110 311923
339 703732 -3558
340 371006 547998
341 940539 587522
342 282221 596378
343 382271 379791
344 738263 24240
345 1058540 685895
346 156802 399858
347 701792 80615
348 76681 367776
349 294655 706833
350 671798 10115
351 343914 271036
352 929254 730950
353 682159 -60235
354 380573 664984
355 300250 685015
356 622402 35304
357 332828 300185
358 979267 591234
359 142520 395015
360 187404 401971
361 985848 677127
362 937765 698450
363 293687 663039
364 900179 595037
365 619304 23090
366 169054 373864
367 266730 600518
368 1036379 724446
369 976618 720079
370 590231 17547
371 995017 640254
372 274971 582118
373 353087 647662
374 660628 76277
375 139081 412719
376 783860 40108
377 284069 690407
378 353984 656170
379 689825 -30039
380 139390 383414
381 948853 708003
382 975785 643483
383 1021615 644648
384 651045 71655
385 140692 361360
386 1007771 615115
387 105418 287720
388 373578 363032
389 713266 25852
390 642197 -13563
391 370643 625783
392 1003177 653148
393 336205 681587
394 60284 403241
395 955316 652375
396 669409 22762
397 948851 619292
398 1008085 701603
399 680122 27551
400 333541 367648
401 729119 9459
402 647561 67125
403 159945 377611
404 406071 361472
405 958884 591390
406 982555 714455
407 682785 4992
408 622651 40993
409 294375 652784
410 672324 -26220
411 463777 395143
412 131330 411153
413 403494 339189
414 697050 -42665
415 1003041 627706
416 41993 331370
417 328806 331205
418 999203 753115
419 628875 15565
420 284312 609910
421 990627 683213
422 344606 678614
423 385390 613281
424 288788 298015
425 651786 20106
426 146126 291665
427 730352 -90550
428 632567 -100704
429 389478 279828
430 421510 329721
431 368747 654894
432 453143 314612
433 410644 396744
434 101390 418271
435 618834 67705
436 766855 36096
437 346507 338660
438 670942 61209
439 688906 -37383
440 1004890 582908
441 702189 71614
442 768396 788
443 686289 24423
444 603144 -16713
445 344078 330625
446 168892 444335
447 688815 48333
448 132490 351007
449 927544 601169
450 288196 614606
451 677851 10929
452 387347 344170
453 154281 377820
454 914039 642491
455 316157 343448
456 650337 -23696
457 325425 342992
458 80849 371935
459 252975 341556
460 983786 668638
461 421368 323804
462 939284 670615
463 981815 654536
464 369404 286916
465 174346 377207
466 396124 331647
467 305572 566456
468 313497 390601
469 360720 633210
470 354847 336688
471 128815 375713
472 111801 491286
473 755619 13575
474 965263 655546
475 119049 373054
476 85819 288972
477 130597 371284
478 219805 364752
479 911437 717465
480 303647 674019
481 974084 671266
482 657024 -18033
483 959487 650991
484 1020673 660582
485 42887 430812
486 417240 671882
487 280809 613001
488 202086 382795
489 124554 375271
490 355237 634375
491 274924 702137
492 359102 254535
493 454179 400358
494 960947 627160
495 283051 649131
496 302915 278931
497 355467 346988
498 681075 -28863
499 142412 325517
500 1008164 643158
