NAME : portcgen-1300-1302
COMMENT : portcgen N=1300, seed=1302
TYPE : TSP
DIMENSION : 1300
EDGE_WEIGHT_TYPE : EUC_2D
NODE_COORD_SECTION
1 582040 549201
2 628576 172812
3 589549 519251
4 143097 386205
5 880357 597888
6 321239 987039
7 1012926 130045
8 693567 506674
9 638710 774665
10 972417 136890
11 640287 128711
12 921108 538104
13 535511 236187
14 712226 547072
15 503868 542742
16 976878 128191
17 537320 224945
18 640962 765195
19 502783 603003
20 827285 877436
21 813415 899607
22 888938 874239
23 159460 351719
24 634740 516430
25 894681 588077
26 692138 797545
27 1006506 161805
28 591949 505508
29 187648 373236
30 192479 383570
31 594842 528402
32 475794 561627
33 438755 580401
34 625208 164271
35 451271 661956
36 704483 724990
37 553472 598463
38 390921 950501
39 529287 255584
40 647307 232467
41 302108 952969
42 849537 593859
43 711867 779938
44 292467 967980
45 505181 641485
46 692340 474741
47 870558 640876
48 687626 523126
49 335658 965070
50 1019552 117057
51 125240 352157
52 499965 573283
53 506562 935382
54 658775 196827
55 651624 802962
56 487404 564175
57 867189 645222
58 636169 146189
59 198595 371865
60 329814 958413
61 681615 798734
62 113066 328595
63 992993 145534
64 852110 606880
65 684023 471222
66 829388 835368
67 476707 585072
68 793810 934032
69 644394 178338
70 834934 903092
71 914133 162253
72 654420 201220
73 851726 925056
74 1000152 139202
75 661171 185481
76 536457 199502
77 146225 318372
78 825267 891810
79 659360 506891
80 841648 614316
81 650534 812816
82 860014 606295
83 855485 942062
84 190752 390357
85 1033504 81464
86 626752 183967
87 483441 875879
88 656234 197371
89 531015 568362
90 156570 314924
91 723785 455516
92 190098 361844
93 793947 903934
94 493523 894435
95 282611 992599
96 656404 831367
97 146553 308549
98 478373 549232
99 612896 497771
100 740806 520178
101 498829 223335
102 809248 849832
103 720250 495044
104 691948 449295
105 311898 952980
106 520905 196887
107 602897 221857
108 842971 886712
109 319297 972107
110 197735 381234
111 813491 888523
112 798003 457562
113 612482 553084
114 172039 389043
115 462757 627965
116 524219 204310
117 716124 468758
118 709902 486085
119 154475 296631
120 463333 546492
121 631945 172179
122 535232 249418
123 693767 176056
124 656158 165021
125 153619 338807
126 876390 597521
127 722295 517601
128 760760 403275
129 558358 247435
130 843646 619917
131 164402 364973
132 836077 623982
133 862634 606690
134 453659 562906
135 624996 184152
136 841668 625207
137 809332 895993
138 470159 561549
139 510174 182979
140 655217 187067
141 605638 230708
142 620831 506997
143 460701 555185
144 605621 522319
145 460960 569619
146 551340 184820
147 836853 627613
148 577297 892948
149 856721 633504
150 507603 555018
151 356887 981608
152 171525 321654
153 1021886 152872
154 533917 185470
155 517398 923872
156 819623 918664
157 640129 172125
158 533222 901987
159 177284 347970
160 524231 919781
161 1002686 113834
162 886714 874929
163 668418 809751
164 851551 876051
165 683917 768767
166 555976 216077
167 635429 558994
168 947645 132855
169 481002 559359
170 421230 569448
171 533129 253497
172 170962 360198
173 527222 858102
174 654128 139924
175 904435 624227
176 538105 936275
177 616922 479372
178 754871 543455
179 454909 592254
180 574739 509297
181 684873 174983
182 524498 941333
183 683011 474554
184 961730 158234
185 758325 166628
186 224547 366128
187 650338 249820
188 650588 786700
189 329889 921820
190 187288 409777
191 802636 904650
192 633616 489544
193 585187 299633
194 598492 195150
195 635058 764730
196 536312 561559
197 635971 222337
198 472314 548083
199 621252 159419
200 834643 608987
201 553723 219951
202 979784 153721
203 464054 532661
204 717806 458315
205 593295 475030
206 525123 932412
207 518288 541655
208 985327 130458
209 291130 950066
210 846738 889527
211 675656 829746
212 804657 890586
213 446592 576246
214 814277 891200
215 430248 530746
216 451654 592801
217 490337 903528
218 505731 924525
219 609322 498856
220 963668 150755
221 858603 589857
222 722448 483079
223 536648 854355
224 623436 499527
225 802625 921505
226 658809 792033
227 158663 318092
228 830808 566673
229 709817 512663
230 668677 772994
231 686788 811273
232 557475 190421
233 534647 891378
234 539639 913541
235 339716 940068
236 871236 589103
237 549377 230143
238 491372 573202
239 201408 316678
240 803079 841425
241 755129 433434
242 672884 425540
243 604156 562321
244 705499 799216
245 614433 470733
246 508695 577604
247 556418 239306
248 161577 300257
249 175604 323279
250 535895 241338
251 532420 210265
252 482363 921134
253 1009930 132306
254 681055 473081
255 678363 817269
256 885175 583169
257 501749 896629
258 724832 196703
259 545202 600744
260 687648 444279
261 616152 172758
262 692211 184542
263 564613 233675
264 545122 219112
265 627667 525627
266 843474 904806
267 514941 925441
268 521435 562887
269 678128 157387
270 323409 971779
271 844445 857467
272 487056 584137
273 430877 553349
274 1005495 93400
275 522092 221174
276 624755 191129
277 435340 571599
278 479094 581424
279 881712 608281
280 540849 909778
281 691078 421144
282 617975 476927
283 575507 184600
284 447762 523382
285 280903 999022
286 795104 878324
287 329469 914542
288 168642 318482
289 647283 178992
290 1002187 160642
291 619003 508372
292 162858 323603
293 292712 880645
294 457041 593650
295 617332 515668
296 715911 494976
297 977298 133777
298 444341 634298
299 1004039 126077
300 447982 586687
301 632519 532136
302 816429 890056
303 737138 460874
304 313513 1009505
305 168039 356127
306 318978 942268
307 971528 111129
308 542727 913344
309 532639 186986
310 686271 219960
311 595245 173401
312 629935 158917
313 324460 958643
314 464808 567886
315 827439 883053
316 688867 188937
317 683160 793714
318 690125 470589
319 167509 338066
320 694506 178100
321 866495 518540
322 555657 210336
323 954503 114431
324 483901 602220
325 848322 865789
326 873772 598424
327 614528 545101
328 537705 891749
329 557066 930787
330 844845 639043
331 669423 170409
332 895820 610479
333 484800 533898
334 514934 939162
335 603580 556453
336 712631 130603
337 697780 479999
338 1006321 205198
339 557027 893962
340 1013471 101891
341 521629 889044
342 792367 822485
343 512702 585717
344 853341 894911
345 512293 614677
346 572020 219859
347 434600 642586
348 687170 808722
349 471093 673506
350 677172 496700
351 635732 179254
352 688012 178646
353 596781 168940
354 983661 120333
355 502689 541420
356 308762 945736
357 652550 213909
358 200117 291700
359 609902 517591
360 790820 903195
361 497720 574014
362 538702 933040
363 902678 605923
364 676894 223136
365 714494 493422
366 680667 477462
367 479644 595702
368 333129 939536
369 513414 936126
370 308260 929414
371 160462 361030
372 844139 591591
373 546374 168094
374 635492 468286
375 666996 769247
376 685197 193517
377 467768 566055
378 992909 105570
379 1039953 145374
380 602567 490227
381 639105 172695
382 834473 939197
383 645460 491057
384 202239 425804
385 657708 797542
386 904802 589026
387 608350 504447
388 547882 880668
389 659910 200293
390 862432 592579
391 552498 481160
392 278919 982589
393 725554 491294
394 504401 539098
395 639312 161301
396 316465 942319
397 706004 193537
398 775372 895108
399 705309 499425
400 543763 274062
401 702304 192802
402 554026 912078
403 707271 515162
404 631876 556952
405 638777 554075
406 643695 212459
407 160444 373853
408 839773 925280
409 325519 965436
410 179500 332511
411 711640 516307
412 611114 503221
413 361088 1008453
414 504805 551481
415 192313 357451
416 874205 636579
417 951096 117345
418 615870 519214
419 478553 547781
420 634565 536544
421 475016 897447
422 192758 355304
423 754217 468105
424 707770 211164
425 796280 923233
426 978058 130256
427 687683 163771
428 676070 469570
429 674948 202294
430 736052 490514
431 737560 459086
432 522745 869897
433 537156 892023
434 788630 896502
435 635589 164795
436 604321 518476
437 353683 964477
438 671029 219354
439 992429 151604
440 856079 591893
441 1006637 137192
442 890887 646933
443 813599 911302
444 670914 786953
445 873355 615506
446 485011 952685
447 310004 947794
448 679365 456004
449 478278 552166
450 638782 163226
451 884798 637683
452 626929 159759
453 650551 210193
454 632670 820732
455 637367 147302
456 639911 194275
457 698203 165275
458 501390 914976
459 503821 911717
460 690937 470947
461 461629 643145
462 654453 175447
463 994485 113691
464 676197 807843
465 710807 788455
466 695867 209536
467 644268 479591
468 214808 359610
469 482953 595909
470 664607 462952
471 701223 193206
472 646036 245924
473 603909 549035
474 878196 591286
475 315948 933754
476 650012 828335
477 535031 849120
478 525204 938837
479 519875 899260
480 853411 901569
481 440433 617012
482 740304 435491
483 820120 845954
484 526901 230466
485 601822 180501
486 199732 316125
487 313294 965257
488 538037 222166
489 948691 543426
490 700557 801973
491 305033 1033208
492 673819 754130
493 292900 920662
494 956448 99918
495 484992 570906
496 871550 601609
497 620467 215564
498 330949 937933
499 742643 467727
500 530720 209193
501 534322 245381
502 545631 231674
503 168582 332392
504 605978 539063
505 479552 610861
506 561031 232110
507 798554 916507
508 566830 184826
509 531048 923651
510 730486 213025
511 687277 740969
512 174557 340104
513 529667 941110
514 580603 873904
515 243367 366902
516 623937 520196
517 235563 324637
518 681224 187911
519 812443 913007
520 504165 838758
521 527250 257304
522 538871 199211
523 464006 564422
524 845900 926406
525 879140 643141
526 857092 920840
527 782592 898930
528 694899 533318
529 713003 481065
530 573806 527659
531 646632 179750
532 468675 551630
533 461559 558498
534 707484 470515
535 629175 566674
536 702018 212791
537 336007 947445
538 622431 472817
539 632047 522203
540 551882 625647
541 698997 436464
542 720734 204424
543 108068 357738
544 616685 522151
545 866519 595241
546 490619 590592
547 789083 905514
548 906151 621542
549 699024 188454
550 945952 177867
551 622734 122937
552 725206 185580
553 556751 914571
554 675246 154098
555 620117 788895
556 901005 621686
557 541218 956005
558 672905 488606
559 806489 889085
560 589145 558170
561 825382 953668
562 616092 504123
563 592275 967428
564 763622 565915
565 842987 603606
566 823479 866176
567 991528 155510
568 675523 169042
569 603621 535903
570 443905 493870
571 878602 604164
572 735888 495080
573 612104 199244
574 514543 211881
575 549249 940826
576 762575 889690
577 647085 224861
578 674252 513829
579 599254 479998
580 649449 196582
581 316062 963034
582 160296 310977
583 315119 985697
584 435248 599320
585 152708 345851
586 606824 198897
587 742917 475712
588 978362 152425
589 542565 967019
590 511350 604939
591 988805 113035
592 612171 525606
593 739977 497604
594 538987 219992
595 467054 575949
596 592477 509593
597 624250 166262
598 646376 180102
599 668283 800322
600 932740 600284
601 629551 556243
602 662019 191159
603 1017735 151648
604 675355 232433
605 192619 371421
606 601845 526043
607 849081 826299
608 547399 240592
609 321746 963455
610 661018 504388
611 661719 847666
612 287081 989344
613 818208 858141
614 341709 912866
615 619190 545546
616 679675 180653
617 317891 924647
618 671488 199741
619 686843 419503
620 657458 253762
621 598244 489345
622 656249 509162
623 655894 748508
624 834149 598646
625 499371 934184
626 677009 777562
627 508297 931852
628 178943 309617
629 490588 574579
630 690054 824995
631 1012502 118621
632 290443 1001857
633 541289 232830
634 464636 577993
635 230949 341714
636 1034785 123597
637 486667 587015
638 201215 311417
639 504210 920859
640 957549 210776
641 540030 882856
642 557466 939439
643 314019 972579
644 437605 552325
645 812713 875981
646 634145 515568
647 672341 757305
648 582236 914058
649 949817 152116
650 559377 222266
651 718804 445034
652 558438 174009
653 616607 215222
654 893747 555041
655 657964 179803
656 466126 606350
657 920513 541389
658 584888 177277
659 936471 111144
660 481063 908920
661 511395 916734
662 166305 341450
663 725111 451167
664 733494 473437
665 438655 628972
666 346495 918761
667 862591 634872
668 882981 578023
669 569037 222807
670 620183 159474
671 863478 875785
672 485509 593895
673 662637 482001
674 643739 486485
675 471705 599885
676 734919 458158
677 592107 492911
678 966882 132524
679 232408 353593
680 360814 935567
681 638664 217747
682 621763 781105
683 721896 493305
684 531792 220464
685 861651 873767
686 580042 511037
687 562311 204532
688 984818 113689
689 524398 222191
690 199726 348497
691 523899 221644
692 567445 529126
693 649713 181474
694 572114 922186
695 557416 911029
696 689222 525415
697 542681 916824
698 596488 216428
699 632514 530006
700 585266 233028
701 298845 1046304
702 705125 160564
703 670369 585720
704 871045 564158
705 642517 180632
706 641248 175549
707 835269 909291
708 549736 881237
709 662172 184893
710 621717 169201
711 673693 797869
712 1008805 165788
713 190975 366881
714 726689 474475
715 270267 956056
716 523320 241444
717 563687 852268
718 989194 159262
719 829309 911192
720 672293 199403
721 513857 550699
722 465884 603153
723 675744 178656
724 586178 205450
725 548990 210690
726 293566 921908
727 654715 816339
728 678801 534353
729 678149 438483
730 869071 577215
731 515714 903333
732 670076 215429
733 235649 924455
734 497766 623301
735 591381 888730
736 638742 189272
737 530896 890780
738 870146 545382
739 815669 911611
740 713535 477285
741 661762 779162
742 150987 326999
743 881988 610768
744 530328 860640
745 829767 902403
746 349177 920848
747 499133 910596
748 217355 364885
749 468052 578195
750 604069 226807
751 789978 893029
752 539870 212262
753 166751 339334
754 514520 936466
755 298348 937977
756 698983 850288
757 637102 555973
758 575355 514332
759 531204 233035
760 676304 778717
761 946128 613253
762 759470 920179
763 496506 908799
764 607723 201554
765 662802 200062
766 630986 194873
767 649918 749492
768 551998 225256
769 555243 896861
770 679912 491694
771 649282 769314
772 843760 887541
773 645029 208257
774 879108 629341
775 729606 505092
776 707145 199834
777 798792 877251
778 290875 963729
779 686803 808886
780 670173 164575
781 829792 923923
782 689832 200399
783 704271 463018
784 673253 853508
785 953577 148882
786 222177 335030
787 171674 319705
788 568802 203649
789 567468 868344
790 566047 192632
791 709952 488038
792 181930 356509
793 823915 908625
794 883846 628521
795 658106 849563
796 886897 576648
797 837422 878601
798 281413 973456
799 870865 925002
800 508565 892660
801 361675 975878
802 645197 188546
803 673931 770495
804 820807 924943
805 562756 199231
806 827841 573919
807 823740 859217
808 635283 144353
809 693079 451434
810 877603 631859
811 283672 924135
812 238340 342323
813 603805 219655
814 585945 507244
815 218870 319716
816 955851 173111
817 1010166 114041
818 652800 749145
819 637699 178101
820 809229 855918
821 166179 385977
822 548025 928493
823 187758 325654
824 843129 877139
825 709820 505541
826 849381 915216
827 911640 575866
828 454675 570907
829 1003970 171973
830 661810 178817
831 985220 186106
832 719273 174686
833 837277 892687
834 660417 177469
835 715978 812471
836 682759 457440
837 538911 936319
838 642733 541769
839 923353 581378
840 725074 795529
841 575523 190849
842 704951 173692
843 926469 192663
844 883470 620720
845 615338 483384
846 676181 564684
847 312619 929970
848 557468 205883
849 654979 823215
850 731755 492401
851 450007 559825
852 200822 337065
853 956761 129080
854 888926 628084
855 835309 603787
856 498958 581625
857 704447 488995
858 826452 862715
859 904918 888081
860 861058 876038
861 477629 564379
862 651170 169785
863 537501 191749
864 704874 236158
865 989794 109527
866 644869 187542
867 702288 835002
868 706279 436815
869 508573 901432
870 570764 195720
871 584972 899840
872 544867 241987
873 455426 559115
874 541447 267042
875 643875 156612
876 650280 200595
877 938440 139817
878 1036831 129510
879 697047 793116
880 926430 556435
881 437936 580911
882 887167 594579
883 324673 963534
884 647210 768158
885 646921 220967
886 635732 218661
887 720237 486267
888 517682 175880
889 845603 878053
890 472368 926528
891 613841 146906
892 515921 584934
893 1041443 120039
894 718512 232089
895 949843 98557
896 992725 137922
897 885654 581584
898 468914 577119
899 639970 784918
900 737159 464026
901 707388 811006
902 694962 192205
903 974185 167889
904 139806 300276
905 874764 608947
906 863969 628233
907 183760 333353
908 486303 572747
909 506247 955151
910 322002 953539
911 903818 593903
912 616022 261959
913 862906 539734
914 669804 809985
915 463901 563069
916 990393 130064
917 834281 590433
918 931635 586672
919 465005 925233
920 661246 516060
921 879064 624754
922 695945 165703
923 501657 538665
924 664540 175358
925 584066 538921
926 623090 564332
927 837255 899426
928 585739 902207
929 622869 207402
930 537629 246162
931 629622 136886
932 923447 584712
933 502108 911014
934 596119 216595
935 638576 530358
936 882551 623819
937 688751 155681
938 183794 338844
939 327776 973426
940 832386 882756
941 524923 954087
942 670561 823514
943 993099 94528
944 655011 561619
945 877294 565371
946 474631 576140
947 658129 170476
948 507453 237293
949 240367 349922
950 514143 866305
951 854456 595870
952 818423 885815
953 651941 164285
954 654453 787141
955 531795 190040
956 661411 802158
957 670473 760159
958 523487 209451
959 667034 266747
960 665472 170392
961 341099 961521
962 321310 1007116
963 637666 569664
964 169825 324249
965 664510 784460
966 567563 915944
967 828286 871769
968 640414 771554
969 171810 407467
970 1028922 151464
971 670831 162218
972 683863 151530
973 640113 822484
974 839270 893681
975 833705 844116
976 679714 225438
977 166587 312908
978 635969 809616
979 987771 125714
980 898003 644800
981 457970 550654
982 289029 969949
983 660384 130647
984 774899 913704
985 653058 185553
986 875941 624385
987 552437 196226
988 967212 176943
989 849278 603449
990 652142 186748
991 879665 603259
992 604658 205968
993 484317 556662
994 738875 475487
995 827617 861571
996 673782 218752
997 303083 964452
998 212323 342005
999 690879 186747
1000 857467 624092
1001 717614 523973
1002 717829 204248
1003 677893 170559
1004 474464 625312
1005 912569 558000
1006 658076 785037
1007 570258 215283
1008 813820 882074
1009 677332 263278
1010 747273 491491
1011 839273 863395
1012 526994 213761
1013 862668 597189
1014 848765 914334
1015 161358 344879
1016 855776 923049
1017 511795 589401
1018 702271 451651
1019 501850 536049
1020 210861 345637
1021 504361 566136
1022 513916 254735
1023 663437 148370
1024 538120 879676
1025 664014 768889
1026 519575 883853
1027 556496 829100
1028 647328 783447
1029 674615 481329
1030 332445 992768
1031 692854 215029
1032 909509 623913
1033 642688 530094
1034 519524 184943
1035 672311 187469
1036 186962 388243
1037 656625 780486
1038 623878 188530
1039 518934 250344
1040 991481 145682
1041 596274 512211
1042 685961 802646
1043 745488 202199
1044 667702 230272
1045 977654 124710
1046 791818 915842
1047 540233 211281
1048 167537 312544
1049 543433 912198
1050 654107 165719
1051 641224 833321
1052 882081 619959
1053 849108 595013
1054 964152 180991
1055 513833 616876
1056 209725 361773
1057 181194 358216
1058 689224 465054
1059 504600 543944
1060 602546 506490
1061 718091 468214
1062 134397 343236
1063 781033 848889
1064 520802 949869
1065 630649 173687
1066 654940 512718
1067 685859 836413
1068 672812 474423
1069 555090 252802
1070 501911 592548
1071 678370 452836
1072 700545 805169
1073 940210 123437
1074 927852 625210
1075 574771 538045
1076 585418 141100
1077 654179 816377
1078 566390 189412
1079 694908 507778
1080 672125 521238
1081 695006 478756
1082 892845 548150
1083 474476 570549
1084 633631 530467
1085 606165 193806
1086 711919 502765
1087 685403 486182
1088 723988 497640
1089 527167 845844
1090 171842 376646
1091 226362 334487
1092 148802 354111
1093 648748 579855
1094 865113 571801
1095 471631 594324
1096 868133 573696
1097 990802 116297
1098 663289 189654
1099 847809 606651
1100 778857 877594
1101 572181 506367
1102 869105 871590
1103 549454 898313
1104 535154 207315
1105 733387 461452
1106 1019882 110048
1107 477974 905006
1108 660506 168337
1109 486982 601259
1110 524250 230935
1111 824290 883364
1112 292932 923002
1113 641743 839036
1114 323247 911934
1115 729549 542137
1116 855177 880025
1117 649588 769756
1118 495347 914453
1119 367300 973981
1120 657407 167251
1121 479480 555413
1122 640982 541297
1123 572872 544624
1124 624352 188037
1125 264884 959720
1126 691286 477151
1127 980300 128277
1128 453332 554445
1129 524772 578187
1130 724759 438840
1131 512280 202222
1132 796008 913826
1133 808469 894780
1134 815047 850662
1135 271351 952322
1136 729553 207846
1137 524375 868209
1138 696782 453943
1139 325407 939840
1140 530083 906644
1141 813070 913214
1142 725646 504187
1143 861419 584880
1144 507834 936327
1145 830916 573162
1146 674381 462049
1147 492383 951221
1148 529723 247074
1149 310320 931788
1150 603478 500886
1151 590879 495264
1152 538235 232058
1153 688767 474518
1154 696623 443488
1155 1019383 170992
1156 773430 452018
1157 650835 185447
1158 692860 508186
1159 964639 130429
1160 647863 181395
1161 777619 942467
1162 508151 179841
1163 799130 855889
1164 648695 518863
1165 684740 463537
1166 855803 866050
1167 581072 542369
1168 674831 193207
1169 973111 152056
1170 177328 380389
1171 700764 465234
1172 620180 529581
1173 777800 483122
1174 688384 162212
1175 190192 299249
1176 975325 65060
1177 469951 592736
1178 833254 919383
1179 626465 524102
1180 203168 298114
1181 472355 923550
1182 478845 627792
1183 540807 914487
1184 1012352 142855
1185 499834 938030
1186 505270 918007
1187 634828 548549
1188 889813 580553
1189 315014 938722
1190 632661 495588
1191 516383 937885
1192 627551 571548
1193 904096 625927
1194 504224 898386
1195 686965 148112
1196 687501 459324
1197 979310 155811
1198 626496 156448
1199 453389 580127
1200 851987 888390
1201 641264 155564
1202 456489 895562
1203 706544 191809
1204 569902 507218
1205 849959 646067
1206 854680 568700
1207 1004619 137612
1208 646846 523617
1209 823213 884121
1210 970490 162348
1211 596414 488663
1212 742559 518905
1213 856376 611230
1214 574247 890619
1215 450177 608670
1216 539521 199995
1217 635477 791334
1218 1011177 176238
1219 1054607 157853
1220 897773 614851
1221 684146 235378
1222 704044 762118
1223 656485 490314
1224 311444 992502
1225 642474 776723
1226 637289 841476
1227 679281 802139
1228 975503 115034
1229 696067 230595
1230 686532 834140
1231 640714 196068
1232 733475 206922
1233 660971 224252
1234 603768 168594
1235 660168 240291
1236 548143 520643
1237 566977 867198
1238 678780 459544
1239 688869 215953
1240 505023 594941
1241 676251 127002
1242 171080 337657
1243 520894 246747
1244 687477 188100
1245 626558 520823
1246 669714 150271
1247 846047 577130
1248 1008976 165001
1249 658130 476643
1250 580323 220579
1251 495862 581048
1252 917255 570117
1253 681516 766068
1254 698263 487699
1255 621730 186791
1256 516255 916813
1257 313618 987375
1258 617565 182622
1259 662453 847076
1260 532545 228791
1261 333040 990384
1262 681016 804871
1263 718989 762663
1264 1013082 132391
1265 470231 600997
1266 557724 232639
1267 690630 760672
1268 591702 473446
1269 823624 916299
1270 707718 231612
1271 653911 772365
1272 317944 973426
1273 642872 208749
1274 620139 516902
1275 651791 231721
1276 850613 651039
1277 717919 531184
1278 280628 953176
1279 423483 564433
1280 654350 756524
1281 505081 248570
1282 879882 620676
1283 688815 748039
1284 527153 536766
1285 464875 583170
1286 658718 189014
1287 679614 228485
1288 713941 742795
1289 334357 979633
1290 629924 520191
1291 512155 611983
1292 652293 174138
1293 862371 558319
1294 883160 568536
1295 671041 750966
1296 539022 553271
1297 722356 479223
1298 176706 397280
1299 356726 887398
1300 794353 945517
