NAME : portcgen-1400-1410
COMMENT : portcgen N=1400, seed=1410
TYPE : TSP
DIMENSION : 1400
EDGE_WEIGHT_TYPE : EUC_2D
NODE_COORD_SECTION
1 522027 562914
2 1016122 401083
3 972486 243630
4 542569 175409
5 722395 901175
6 763094 965172
7 993175 415390
8 627353 565705
9 95667 10913
10 16228 -1838
11 391620 622765
12 513326 547464
13 97060 490990
14 57478 -45605
15 740536 904344
16 645044 476567
17 945669 667816
18 649724 474877
19 549975 132193
20 615639 551338
21 33602 -20186
22 1030147 236964
23 492341 159594
24 977012 710525
25 603648 519052
26 745579 860876
27 569163 151153
28 595591 517492
29 1025580 423601
30 638875 517546
31 59038 30489
32 584788 840700
33 48770 486832
34 999490 664245
35 975412 504769
36 606759 494821
37 226501 952012
38 683607 893129
39 87598 447740
40 577858 868638
41 540622 480737
42 89435 467989
43 639543 535028
44 589458 520411
45 994700 267840
46 211301 944770
47 628321 491755
48 574740 122487
49 233116 977870
50 1002036 419478
51 103860 447521
52 627506 838569
53 685824 919352
54 1012582 250453
55 748832 903669
56 764739 914945
57 340969 589855
58 587049 513875
59 993506 396552
60 553348 504746
61 780312 893081
62 684328 480649
63 604479 516221
64 200107 982368
65 673779 565404
66 959415 624064
67 36259 -25246
68 666972 541414
69 105143 452359
70 71071 12471
71 508758 170724
72 995874 460350
73 953586 703594
74 84607 496190
75 679873 528684
76 635746 824594
77 1008045 248057
78 743862 921445
79 954289 720075
80 742708 918120
81 991371 402133
82 731796 852644
83 80692 442748
84 365483 617964
85 13032 -17389
86 341718 593726
87 64149 492133
88 952790 397942
89 220226 963768
90 38070 28600
91 964457 262614
92 1055665 408586
93 564207 527756
94 755411 892151
95 1006746 671892
96 375796 623960
97 494404 132173
98 566378 797146
99 961931 218791
100 264607 998306
101 698859 912493
102 238162 1014287
103 39507 493992
104 70834 444094
105 692551 920120
106 548190 144525
107 28950 -19006
108 943560 679068
109 740701 868927
110 89478 480705
111 616474 515626
112 647683 496536
113 997018 194909
114 641729 501743
115 31671 -11390
116 637496 529964
117 760341 952243
118 612524 510105
119 709918 887269
120 940074 235544
121 1012980 234821
122 577565 505816
123 944288 684557
124 3432 6846
125 228153 984330
126 979216 688175
127 743831 879357
128 634647 444010
129 366148 574503
130 578552 505168
131 978850 421729
132 1024223 419253
133 215740 956152
134 744363 891346
135 124917 483873
136 987087 254162
137 741121 877365
138 636821 835564
139 928667 663404
140 594180 840154
141 253250 981427
142 490682 107899
143 591842 501931
144 943458 423567
145 533988 192284
146 98624 483254
147 765321 948441
148 37106 15544
149 525106 170585
150 210096 1003172
151 1038708 257085
152 56241 -48698
153 375207 636818
154 518836 138306
155 743463 872061
156 986630 422526
157 980627 692500
158 617289 501810
159 556009 500549
160 60326 -24058
161 581743 895216
162 986516 382614
163 505338 163461
164 500989 126518
165 558352 495461
166 997269 458570
167 89148 447098
168 724342 891974
169 623133 523093
170 526846 118009
171 1017166 269370
172 590795 875180
173 525531 148641
174 1015152 494335
175 530772 172629
176 615240 512842
177 960620 281340
178 86131 474579
179 -15656 -14680
180 547743 487823
181 227466 989407
182 1010022 249846
183 -13039 34020
184 957418 626452
185 989576 266664
186 751140 916671
187 653411 467498
188 313852 564960
189 18289 -32311
190 989228 658686
191 553348 496458
192 539544 178254
193 583625 865308
194 628370 845052
195 705317 855744
196 640475 439032
197 1032239 200987
198 561291 149800
199 245384 1010197
200 643925 481402
201 960229 263310
202 766497 911655
203 1018238 445024
204 671346 570322
205 80197 454589
206 650928 538986
207 221765 1041263
208 591177 513222
209 689046 912066
210 995172 429467
211 49433 -21587
212 490076 139325
213 653930 901986
214 605866 859365
215 536980 523655
216 612375 506549
217 962094 189339
218 986054 386031
219 580109 864743
220 916007 663653
221 985842 423183
222 742750 944480
223 594504 843939
224 733092 913348
225 556827 503857
226 659059 571105
227 555659 833141
228 678314 488544
229 575130 837905
230 972364 600196
231 513892 151762
232 655884 511015
233 944495 422461
234 1015131 241965
235 522011 166043
236 -19867 32148
237 84951 485652
238 44667 -16915
239 979376 645341
240 605361 521383
241 999997 439055
242 634494 541657
243 906195 657031
244 905646 428082
245 649555 474425
246 755003 904345
247 29286 7588
248 550936 519354
249 998472 432734
250 572911 814953
251 85985 551739
252 645327 548207
253 726689 986347
254 55534 461713
255 612345 838402
256 57631 453636
257 577225 837384
258 729161 902151
259 636688 483579
260 18954 -39498
261 2699 10207
262 539776 526204
263 346600 627115
264 986167 199371
265 119485 538387
266 574334 480808
267 638315 481409
268 247922 1020729
269 959207 443191
270 108035 473847
271 662700 521712
272 280149 996373
273 57097 430990
274 715441 932752
275 740226 925366
276 999302 397662
277 245861 935326
278 537259 470590
279 985597 719926
280 995862 398046
281 697293 909601
282 713689 522796
283 1018401 453775
284 676813 888601
285 33710 473193
286 244597 961548
287 963593 445964
288 721785 898381
289 693838 901714
290 748918 930983
291 358858 579469
292 584198 464979
293 64733 511603
294 628019 573294
295 728922 871946
296 973937 690054
297 349563 597278
298 539563 484895
299 63853 461376
300 654954 534473
301 698326 851901
302 766525 906726
303 520066 172046
304 592914 827921
305 547322 160629
306 979492 260974
307 1011318 262919
308 331580 571535
309 967391 423748
310 86299 468254
311 501361 508750
312 956224 698405
313 36999 449329
314 82248 423030
315 62425 422222
316 981405 244445
317 1016021 178546
318 255677 977690
319 527776 181709
320 1002929 267232
321 963783 413219
322 965673 627021
323 667001 483862
324 83100 480719
325 893518 653775
326 742905 927139
327 740403 873778
328 590680 807115
329 535571 477171
330 654910 545791
331 719298 899210
332 565525 832015
333 603679 873222
334 635608 509710
335 563884 483396
336 1034421 201678
337 707376 932805
338 611714 795889
339 515669 838717
340 596127 842727
341 734528 904948
342 995472 680725
343 564197 480838
344 382381 589347
345 585388 486412
346 995123 447575
347 76803 480793
348 603868 487267
349 657234 504149
350 981413 251471
351 283215 953550
352 220883 988160
353 731182 922366
354 699520 913424
355 513670 156867
356 974317 734707
357 270283 972288
358 956500 616873
359 66859 -307
360 550391 144382
361 353870 630038
362 552918 161782
363 676521 485400
364 240867 948065
365 1024461 234389
366 362038 546482
367 980335 464380
368 263885 988736
369 541593 186694
370 956208 608241
371 980423 391186
372 231113 908964
373 244707 959659
374 1010617 450608
375 245923 982889
376 618752 502570
377 638004 475265
378 692620 539569
379 489028 481179
380 716826 934976
381 600805 484122
382 985163 506003
383 1001210 234036
384 973960 290929
385 322546 611583
386 7952 186
387 651672 492555
388 943538 415394
389 769723 848209
390 639720 476140
391 607358 517331
392 377654 614254
393 572597 783157
394 28309 -3050
395 41809 452898
396 638419 806565
397 627515 553924
398 537944 483509
399 978524 424713
400 747273 943133
401 984223 630237
402 1013544 181865
403 232600 967515
404 978005 397646
405 590927 840725
406 274852 1021319
407 729860 914941
408 664481 541736
409 1014513 243108
410 593863 837063
411 977690 217517
412 618195 883321
413 68858 2029
414 598978 818833
415 663750 577584
416 588483 833548
417 1029246 279040
418 702808 907215
419 98966 493038
420 237685 1014194
421 1016430 258003
422 620113 575974
423 328211 618256
424 648691 544935
425 744805 921826
426 662455 494312
427 772187 915817
428 738649 907510
429 712707 885873
430 717351 927644
431 962954 243705
432 983962 700289
433 691745 507987
434 499851 177815
435 745351 884726
436 576186 140117
437 689664 568983
438 563257 478558
439 485594 137527
440 974833 626068
441 733084 901978
442 740273 901978
443 571176 504226
444 526414 523213
445 602427 537303
446 972557 471788
447 645257 556867
448 717335 956444
449 511605 489056
450 602947 514625
451 540526 135950
452 194716 937644
453 217227 962320
454 591949 465467
455 601968 803634
456 501746 138301
457 38792 7602
458 241734 983202
459 224833 1039033
460 707348 943533
461 1001240 277545
462 535330 125374
463 682444 538301
464 596765 503285
465 745375 940119
466 518550 134280
467 728848 903686
468 752126 932222
469 969231 207183
470 615595 506805
471 597662 881630
472 531034 144438
473 688419 495574
474 635692 477282
475 960854 633971
476 419218 551405
477 758532 902891
478 939640 643469
479 598135 494451
480 986821 641250
481 993593 422170
482 504898 168914
483 577475 468296
484 725301 926683
485 609863 859532
486 140179 1026940
487 605384 829127
488 991352 645332
489 555880 841510
490 733057 894248
491 720495 924886
492 574823 122176
493 253717 973035
494 391604 603395
495 675060 529234
496 643459 464831
497 265052 943371
498 644595 564862
499 226383 976133
500 92016 409210
501 609688 850873
502 47470 537773
503 618345 442676
504 664685 501689
505 103540 466383
506 1013537 191713
507 719274 856045
508 250946 952526
509 516666 131590
510 510087 168625
511 741521 948740
512 625811 505380
513 1004745 254263
514 384428 551157
515 961215 406306
516 781569 878597
517 716671 887086
518 614793 520608
519 55548 -41056
520 15012 -8844
521 725984 907247
522 745259 864415
523 511207 164005
524 281993 1003249
525 193859 987269
526 995729 219999
527 13485 -14945
528 549655 177389
529 103042 494065
530 985129 711633
531 555678 471569
532 647613 465867
533 693234 952161
534 738897 884745
535 230254 997806
536 609728 829474
537 731707 927779
538 113913 453818
539 639592 501540
540 205071 995668
541 936607 657395
542 944298 398500
543 615922 814181
544 626424 494601
545 999436 227535
546 270851 1004013
547 659612 519610
548 642381 475482
549 531727 507656
550 254788 1002780
551 639182 574502
552 350311 565077
553 945934 631680
554 715465 908426
555 656961 516805
556 231002 997184
557 926276 446379
558 488811 191409
559 53871 4823
560 986847 433930
561 525589 496698
562 724147 892025
563 574066 874585
564 959653 613638
565 62411 -3219
566 1004673 405076
567 643785 530521
568 739191 878842
569 350668 609879
570 290809 978517
571 760237 946107
572 220253 979323
573 350573 563915
574 61431 -43664
575 601220 483421
576 522562 478085
577 554632 832879
578 980503 410131
579 348955 573562
580 260779 1020334
581 725805 927080
582 995115 440526
583 981446 431460
584 370089 577720
585 1009302 261053
586 743705 908170
587 502492 182908
588 949769 461751
589 983731 448066
590 589098 845679
591 976015 207466
592 572346 809428
593 738630 881445
594 958874 595242
595 574204 864720
596 923237 663581
597 -11432 -23256
598 647742 474039
599 635743 560667
600 174324 990097
601 1039603 241559
602 730732 972252
603 543114 146083
604 755118 895888
605 617288 518649
606 956593 397279
607 105362 423877
608 553988 483415
609 600161 848319
610 1024127 351312
611 650945 537239
612 524566 172978
613 634310 486735
614 539529 130916
615 57236 502941
616 597812 836486
617 941299 664000
618 92290 441926
619 976205 404435
620 956230 192146
621 628380 844004
622 605174 878102
623 302082 1016992
624 247458 1000110
625 557135 525328
626 661264 548029
627 710821 895507
628 984125 713322
629 685955 541048
630 541963 468297
631 544097 178284
632 325064 597495
633 667021 492622
634 639603 566725
635 537971 462411
636 51202 40346
637 968142 276722
638 652010 560701
639 683663 507308
640 607450 850766
641 701543 914473
642 1003352 161296
643 639584 477019
644 724744 897766
645 240742 972482
646 981067 647687
647 585056 850667
648 1029035 404417
649 24697 1242
650 1013700 654876
651 526731 463520
652 1030114 204037
653 63542 -730
654 585 20852
655 63944 498591
656 231387 972119
657 601019 489346
658 215676 998775
659 44788 475235
660 745304 877335
661 745651 920922
662 637715 852007
663 589687 506657
664 1004479 486566
665 930601 671332
666 214977 958636
667 668983 550612
668 596800 806953
669 1003158 679567
670 955029 254305
671 494766 166209
672 347759 590106
673 659608 498095
674 998195 687465
675 1026157 409316
676 965141 444265
677 538151 134498
678 85664 496674
679 952987 432439
680 988655 453840
681 734237 901830
682 482558 150144
683 577133 805158
684 73557 959
685 726595 847270
686 1000997 392352
687 524195 528783
688 736384 871261
689 529279 858734
690 16787 -6919
691 514509 146361
692 643841 830799
693 759206 862196
694 927163 670307
695 930624 482179
696 988296 478706
697 620829 829568
698 990252 416668
699 582111 844405
700 559107 844930
701 524072 205626
702 780231 897594
703 671978 524768
704 782532 885725
705 1010740 243010
706 568014 501944
707 70442 494352
708 603566 837506
709 720847 922120
710 224762 1010446
711 958625 421818
712 650514 535174
713 994469 464338
714 983311 422711
715 724790 935722
716 86752 485948
717 512840 165273
718 574079 845339
719 751484 833063
720 529534 477276
721 596171 836669
722 377927 601582
723 1055602 211669
724 27793 -19615
725 560038 153158
726 929412 640347
727 969561 633894
728 7062 -7763
729 962584 677058
730 531155 133199
731 86989 507188
732 75972 516491
733 82913 -32943
734 542447 533697
735 359491 628081
736 564801 504515
737 129313 498084
738 539823 146352
739 530486 476258
740 18075 443590
741 729376 897521
742 234378 1010305
743 706540 845898
744 351810 528072
745 330702 572983
746 701961 891668
747 405238 588933
748 595372 867521
749 666984 531974
750 284358 1072604
751 754819 880670
752 947471 659216
753 652633 549901
754 547545 827524
755 545113 177258
756 939616 456020
757 562358 503190
758 50480 -24452
759 391100 590645
760 58008 484581
761 720854 939505
762 524319 183137
763 971373 674985
764 550707 165259
765 -20577 -6758
766 34391 20469
767 1013901 230171
768 584554 491597
769 536791 506996
770 548086 812196
771 506554 178782
772 126149 495141
773 951344 271522
774 596988 800880
775 641630 469643
776 345670 616227
777 1011984 678328
778 987795 394512
779 548837 485681
780 658561 892075
781 994130 658400
782 351261 563428
783 676729 832493
784 599212 493606
785 774394 947903
786 953111 648913
787 526250 160499
788 546814 140032
789 991273 220295
790 47775 16884
791 998736 240761
792 641589 572855
793 740793 902683
794 717759 921554
795 761147 883251
796 1053848 261118
797 643866 550601
798 119721 453001
799 741136 891252
800 333381 658065
801 972117 437116
802 723739 905613
803 719738 938043
804 545948 185032
805 761586 886336
806 660348 821673
807 381499 585345
808 967700 667930
809 42580 -30356
810 23849 32538
811 725277 894059
812 757615 869708
813 935719 657751
814 104703 476331
815 962342 469987
816 996594 441337
817 113242 509738
818 742091 881776
819 648238 514295
820 656290 559143
821 959960 659307
822 983609 424166
823 251907 933705
824 711654 902184
825 605937 483521
826 1023443 251021
827 989048 226335
828 281733 988513
829 748282 952171
830 70049 450002
831 627787 779868
832 406112 618719
833 99713 423751
834 600273 487790
835 991260 230296
836 89931 15638
837 573985 493913
838 531924 170512
839 783165 912036
840 241054 985133
841 594107 851467
842 72667 482102
843 738009 927635
844 535787 493931
845 53292 -4713
846 746442 926376
847 201978 1007654
848 996044 190419
849 959629 429452
850 286890 944771
851 253312 972933
852 1010852 441413
853 551827 176880
854 625782 497413
855 622120 490745
856 591121 815963
857 975108 411934
858 371869 639303
859 559170 451855
860 642154 512846
861 668342 554425
862 773747 926295
863 353742 546690
864 746165 919962
865 609041 507310
866 373514 603152
867 567453 872054
868 669755 500657
869 739178 905634
870 348662 597551
871 729805 864634
872 381083 615777
873 982069 471129
874 627928 491996
875 633801 479012
876 587838 806781
877 698427 922978
878 592496 842550
879 633972 475504
880 104402 480227
881 357299 580614
882 236470 967836
883 540457 843638
884 636809 591761
885 760601 920572
886 779129 899070
887 712303 888486
888 787323 890638
889 975264 241009
890 579516 126518
891 101468 476609
892 741238 839447
893 667231 501874
894 955879 651796
895 505761 173764
896 549383 150993
897 700394 523360
898 589611 820928
899 554094 475025
900 700999 886796
901 373737 600219
902 713916 926764
903 561979 859006
904 588728 144453
905 654674 552860
906 646113 821207
907 967066 425119
908 600762 814960
909 1009755 651443
910 231283 892779
911 742731 891211
912 625172 496090
913 494298 123582
914 186351 977974
915 238174 929865
916 964680 466595
917 720962 942123
918 762412 904220
919 606544 850754
920 330448 566404
921 323451 563540
922 661003 532772
923 370151 572327
924 81165 463276
925 967439 426225
926 573505 842014
927 774089 871598
928 611269 480477
929 928158 423238
930 76522 433360
931 643326 843889
932 627537 511065
933 665073 519345
934 615223 487906
935 367157 608410
936 968143 219954
937 1032521 222703
938 584267 112313
939 140017 437431
940 189255 980842
941 46229 438688
942 669759 504190
943 594621 833164
944 747705 921401
945 597330 843000
946 59469 474842
947 185695 975561
948 14814 22221
949 616566 508635
950 651199 506539
951 684310 933814
952 759535 867789
953 1005533 677210
954 965860 460081
955 1001864 189561
956 994216 272944
957 976854 686747
958 969674 413127
959 974882 694725
960 956806 716511
961 365828 582990
962 961048 690384
963 609141 450835
964 984820 684282
965 249013 986313
966 981776 625626
967 741031 950370
968 642741 497768
969 737096 927857
970 409396 600842
971 990531 368909
972 674997 545581
973 522927 495890
974 575138 540536
975 1024437 229674
976 24726 5099
977 671899 550319
978 597842 876976
979 987295 265182
980 175867 985157
981 390266 625049
982 943768 389562
983 713384 912813
984 771881 897933
985 215320 1005014
986 958179 438381
987 356895 596245
988 569634 815904
989 20996 25721
990 662620 490775
991 488865 155411
992 74416 459017
993 419263 596363
994 943445 675759
995 409045 660768
996 699212 901585
997 999512 306916
998 636199 542479
999 926622 699666
1000 996153 433064
1001 66658 481631
1002 82838 21252
1003 729296 918971
1004 746894 905030
1005 1005971 406828
1006 17358 30398
1007 715287 890397
1008 32165 -12491
1009 254740 1001199
1010 954199 480751
1011 350307 598890
1012 572821 467166
1013 367538 616584
1014 983107 461747
1015 646938 515611
1016 634481 472045
1017 540950 551279
1018 962505 500095
1019 116403 457362
1020 535543 180267
1021 70519 463609
1022 582706 449257
1023 680467 946688
1024 986313 216374
1025 115865 446497
1026 588155 872597
1027 997125 225819
1028 605932 531834
1029 546368 207939
1030 607347 495455
1031 651936 508881
1032 608326 828796
1033 972456 680909
1034 744238 948656
1035 771840 912216
1036 708009 934143
1037 988028 237205
1038 354999 586757
1039 990414 397413
1040 958237 429802
1041 1026250 206817
1042 983071 603366
1043 1020347 237474
1044 952128 436240
1045 288615 961129
1046 635299 505998
1047 544644 106992
1048 975623 655178
1049 341320 535315
1050 700693 870202
1051 756503 960995
1052 979478 743436
1053 57983 -38775
1054 1003802 229731
1055 592471 832657
1056 641585 505478
1057 773519 865913
1058 704537 913507
1059 669642 553547
1060 377540 600444
1061 1009294 229172
1062 399082 583035
1063 966564 426674
1064 985247 205830
1065 91684 497169
1066 44551 18126
1067 773182 888781
1068 644505 539269
1069 220160 963683
1070 691673 464377
1071 964973 405853
1072 613027 838859
1073 130900 474858
1074 978344 258122
1075 963917 306997
1076 32651 16179
1077 237838 988490
1078 503202 117145
1079 620425 824956
1080 760179 939384
1081 721275 882179
1082 391664 595763
1083 740127 872616
1084 498484 223355
1085 24578 -14330
1086 791177 885790
1087 976974 442573
1088 943749 664899
1089 985894 212909
1090 246642 1014782
1091 235747 996470
1092 612733 495860
1093 618711 817158
1094 678511 496766
1095 267710 981102
1096 985833 439417
1097 101065 461018
1098 565694 858440
1099 659162 464163
1100 736294 937562
1101 656708 544857
1102 41608 21973
1103 69523 440767
1104 529978 166192
1105 45733 457202
1106 239790 994101
1107 640551 556692
1108 530587 166849
1109 736357 944360
1110 564005 516515
1111 946525 706948
1112 357998 588045
1113 81443 11654
1114 218422 966042
1115 987159 184193
1116 971570 410058
1117 340299 600431
1118 226869 986801
1119 526212 145936
1120 194870 989793
1121 639334 816841
1122 1014473 418408
1123 599736 515498
1124 1015052 282170
1125 530720 156517
1126 950917 662255
1127 654950 472087
1128 232896 924062
1129 979437 196546
1130 89337 445540
1131 43015 12520
1132 206145 1014252
1133 1003520 230710
1134 993307 461609
1135 551792 554705
1136 925955 677862
1137 77087 493203
1138 587042 544822
1139 610513 467577
1140 352793 577933
1141 993269 673613
1142 586789 496493
1143 365568 606839
1144 197031 999867
1145 649716 500563
1146 114450 463578
1147 548726 822704
1148 632913 485982
1149 584713 843579
1150 404551 540549
1151 703856 961672
1152 996318 448006
1153 511389 134671
1154 520687 146254
1155 767156 928248
1156 586269 483413
1157 519907 189410
1158 702035 903048
1159 673268 536624
1160 990222 709330
1161 638875 509147
1162 728852 888217
1163 994817 373933
1164 961500 656816
1165 635979 498697
1166 574061 511748
1167 208222 986393
1168 534329 495508
1169 231117 1033956
1170 764679 876338
1171 663893 525645
1172 496630 137534
1173 978083 245559
1174 755977 906135
1175 -11690 50663
1176 644192 516017
1177 544323 152524
1178 390078 623083
1179 670664 524156
1180 338715 565080
1181 89145 414353
1182 208878 1021964
1183 37264 -1963
1184 231122 961336
1185 667788 556865
1186 48692 15141
1187 347088 586845
1188 377761 604549
1189 591473 824741
1190 648735 538611
1191 604256 866567
1192 682936 524700
1193 538781 516423
1194 750519 908347
1195 738861 875319
1196 764182 864055
1197 232199 986204
1198 510133 103304
1199 993895 267123
1200 549022 818904
1201 27298 -14938
1202 167657 1000631
1203 252468 1014214
1204 8745 -912
1205 599092 911802
1206 965460 643453
1207 770175 923874
1208 65508 429196
1209 320022 570211
1210 219732 978409
1211 656448 470829
1212 966439 416640
1213 756740 865282
1214 252143 1007091
1215 938007 691538
1216 488458 178944
1217 720495 892496
1218 238818 981409
1219 944271 673924
1220 608052 818526
1221 574359 511184
1222 126422 474037
1223 51605 -6160
1224 75888 497450
1225 692980 878561
1226 976103 415041
1227 94427 479215
1228 381471 571945
1229 901230 662308
1230 375774 602792
1231 264377 986731
1232 959155 431177
1233 586822 475815
1234 1021777 280681
1235 703631 926240
1236 69028 518367
1237 249041 997347
1238 570066 523655
1239 96784 462404
1240 526649 233758
1241 980584 390054
1242 992108 270749
1243 609536 803361
1244 91903 510489
1245 599650 807579
1246 635560 485455
1247 539504 525479
1248 57922 -17120
1249 56274 505696
1250 722591 901722
1251 26115 -12105
1252 958864 420721
1253 640910 545417
1254 980589 660058
1255 111399 521431
1256 101316 489989
1257 215834 1017087
1258 653578 587788
1259 34503 -23659
1260 123794 489564
1261 259260 967431
1262 693448 899954
1263 757741 886843
1264 566688 862210
1265 753685 884048
1266 958016 665037
1267 983870 410446
1268 568827 483329
1269 74499 471388
1270 245252 985147
1271 620830 796853
1272 993444 399390
1273 715533 867183
1274 570171 849961
1275 973263 634605
1276 746463 888451
1277 740771 871130
1278 616102 470237
1279 1024416 234282
1280 990362 424847
1281 643797 830044
1282 990906 659124
1283 206458 974337
1284 23567 -17801
1285 493850 117040
1286 385096 611129
1287 680287 946271
1288 711634 891953
1289 71202 42658
1290 28068 30599
1291 45289 -1819
1292 324826 613057
1293 628794 514753
1294 985600 488856
1295 246230 1001216
1296 494107 137905
1297 730495 876103
1298 352618 589009
1299 658406 541862
1300 256000 1000111
1301 1003263 276803
1302 254030 1019821
1303 78130 487405
1304 532476 501937
1305 740486 932850
1306 731707 912679
1307 930353 694297
1308 73104 490141
1309 112754 464791
1310 665296 540757
1311 562944 115241
1312 972689 414983
1313 741776 877934
1314 956810 646347
1315 756801 846527
1316 667995 506945
1317 356696 597832
1318 575324 820247
1319 1001835 428447
1320 672788 518949
1321 610301 447496
1322 117159 443699
1323 68208 -6351
1324 754258 853371
1325 721958 879076
1326 989150 407924
1327 1004320 237106
1328 269217 974096
1329 549774 142746
1330 255641 954686
1331 1004556 259235
1332 773312 907076
1333 568981 521164
1334 35523 -26864
1335 103174 513514
1336 587410 817080
1337 623746 834387
1338 343820 628108
1339 381493 573374
1340 636712 475134
1341 962409 688219
1342 780741 888716
1343 557020 186913
1344 977827 687737
1345 697593 486795
1346 957430 432079
1347 293332 1002172
1348 398352 532196
1349 523964 500098
1350 951508 622317
1351 583609 499338
1352 1048504 283898
1353 383594 570814
1354 632776 547781
1355 660100 505846
1356 71268 490289
1357 231471 994810
1358 653564 565015
1359 384932 581146
1360 699969 858152
1361 772611 905884
1362 625725 811901
1363 971647 689607
1364 518020 515995
1365 985471 435722
1366 622966 902073
1367 965899 429160
1368 961650 452110
1369 622303 513037
1370 999258 418362
1371 1050802 664202
1372 774471 917268
1373 27744 -14479
1374 257108 981653
1375 986715 185002
1376 300671 980857
1377 958568 429953
1378 607147 823002
1379 600279 510261
1380 547442 523704
1381 55826 12265
1382 528558 808624
1383 635667 477566
1384 627305 467455
1385 990977 625813
1386 586860 832555
1387 37531 25688
1388 99057 440358
1389 30821 -32458
1390 993443 262239
1391 652689 525792
1392 550132 844379
1393 185872 975073
1394 727597 929400
1395 406056 581535
1396 580937 488836
1397 1007246 641644
1398 9700 -1099
1399 974508 459032
1400 71639 461155
