NAME : portcgen-1000-1008
COMMENT : portcgen N=1000, seed=1008
TYPE : TSP
DIMENSION : 1000
EDGE_WEIGHT_TYPE : EUC_2D
NODE_COORD_SECTION
1 313241 131654
2 134885 85931
3 147135 -25867
4 974101 418720
5 118602 241119
6 375874 63140
7 977686 681073
8 793093 667127
9 793915 714952
10 116853 231370
11 392312 100920
12 317709 94553
13 366608 186117
14 195975 511
15 1028487 690427
16 438377 143579
17 95381 256391
18 163031 27220
19 437941 52003
20 308528 114469
21 929039 405476
22 438691 250345
23 273680 81736
24 27271 300226
25 737773 271770
26 293443 141173
27 931783 402143
28 922414 659959
29 425478 47655
30 133368 164221
31 684377 341159
32 413599 47245
33 122140 250186
34 -21336 311985
35 743037 743185
36 5346 304634
37 910997 381965
38 1467 309554
39 107518 -24273
40 92164 253442
41 23990 311504
42 100890 252971
43 379218 31806
44 807795 703997
45 696631 342561
46 930162 286324
47 699793 320064
48 35710 322742
49 397806 77793
50 388826 216410
51 435844 283925
52 372951 76011
53 58338 280592
54 646579 356223
55 732556 671965
56 321097 244966
57 905643 422043
58 79031 219475
59 365396 98947
60 969981 342703
61 705156 327887
62 955289 698227
63 178541 43749
64 931727 698754
65 974157 714629
66 672750 353549
67 96698 -14400
68 912393 393898
69 908897 332574
70 774557 721847
71 334570 94200
72 71927 217679
73 -27509 266164
74 1399 331796
75 711184 317656
76 931925 397351
77 36520 308943
78 731065 649662
79 190640 36743
80 618662 354692
81 890214 694495
82 1014230 702772
83 933432 655922
84 269425 126196
85 406056 185085
86 -17009 324948
87 765857 729122
88 127568 81146
89 45646 279912
90 923948 391977
91 637844 324948
92 987211 629014
93 998222 704346
94 763467 727001
95 420657 218035
96 -2256 294203
97 936632 743042
98 953344 665225
99 383027 123779
100 754208 697224
101 103456 231553
102 411816 235940
103 354380 244312
104 109517 24492
105 118582 223250
106 762972 699415
107 82430 264422
108 868795 377545
109 54069 370765
110 915725 449799
111 115784 30451
112 944976 451347
113 916966 408764
114 408891 227206
115 31989 307895
116 436927 75583
117 11929 287957
118 783414 696007
119 376430 206108
120 4694 277652
121 142988 217062
122 120964 -9950
123 265780 108665
124 351144 76672
125 662031 354179
126 653966 368694
127 89060 18930
128 168124 -3934
129 172309 18957
130 80583 269651
131 433283 236228
132 456420 249036
133 281602 120273
134 844160 409908
135 699089 294688
136 135042 35243
137 116249 207296
138 457574 217011
139 382326 192499
140 241132 156937
141 73756 237149
142 763107 697744
143 979437 629282
144 367852 117216
145 1017258 698822
146 902399 440428
147 145281 45207
148 736952 680026
149 305330 100828
150 39160 280929
151 440933 226097
152 901627 405728
153 24463 293237
154 321929 86771
155 897454 626763
156 999170 669816
157 106176 50316
158 412748 242707
159 -77341 383380
160 396354 227746
161 416817 245020
162 -21421 319915
163 922950 377716
164 53991 287953
165 435359 217291
166 116541 238973
167 712320 327737
168 17799 319347
169 658109 352515
170 36409 374162
171 127458 11989
172 971595 704691
173 771674 721990
174 904443 433614
175 400828 213038
176 278609 112824
177 382571 68186
178 392617 177485
179 424211 52857
180 386542 35003
181 19259 374468
182 17055 340134
183 -11895 326622
184 404383 270181
185 610224 351384
186 312270 151486
187 88156 218048
188 297520 120987
189 724612 695653
190 941523 417524
191 146305 223660
192 -9565 285840
193 322660 139198
194 23921 270433
195 986827 666049
196 174487 69875
197 113009 233079
198 968535 652036
199 764746 733686
200 100865 61978
201 -30727 300915
202 385220 210571
203 131131 241311
204 423309 221429
205 155353 -5249
206 137371 242794
207 424171 213077
208 712534 295368
209 949790 340873
210 263301 94409
211 389505 225107
212 407363 230639
213 796545 730950
214 755724 721045
215 320067 103458
216 712708 345829
217 270336 103890
218 73900 9396
219 -11440 285175
220 973420 679592
221 411627 242519
222 158829 199520
223 692275 327285
224 78456 254597
225 949946 436062
226 140353 20227
227 755402 741051
228 1004549 732163
229 683450 395399
230 382870 42562
231 951560 750308
232 743618 676151
233 260861 128035
234 -35805 291763
235 275209 119881
236 928241 674426
237 394305 86871
238 142066 31166
239 928411 716818
240 413563 72745
241 992701 629583
242 656252 269910
243 430909 103492
244 981756 646583
245 428366 31236
246 1010295 693206
247 403415 91359
248 81841 228195
249 1011923 703061
250 375154 22420
251 912370 438234
252 109614 -8571
253 286 353908
254 100710 223849
255 412311 214964
256 98071 240240
257 241305 144962
258 837973 755774
259 878629 439149
260 76282 191255
261 81932 204351
262 26963 380982
263 376335 52461
264 975977 675331
265 947892 417690
266 427300 148467
267 926205 451654
268 927248 700202
269 366373 93250
270 277591 84915
271 62451 288109
272 128594 75053
273 637873 351630
274 404093 191548
275 665936 347258
276 922340 365137
277 692639 353121
278 60887 257077
279 897162 410054
280 77152 252636
281 48468 271342
282 1020742 741841
283 319224 130922
284 279327 70074
285 25965 326474
286 413559 219807
287 703963 373528
288 70124 219140
289 62950 280632
290 618958 379690
291 154764 253025
292 45370 231372
293 -9859 331122
294 806017 717809
295 1010347 682353
296 149030 24168
297 771514 748447
298 983204 689041
299 343932 145033
300 872223 388914
301 941067 669071
302 935071 657026
303 696535 772750
304 55824 320552
305 425779 244758
306 -24663 303789
307 991741 640631
308 458327 285630
309 778445 782515
310 -42136 260570
311 861994 396596
312 267936 136184
313 323748 60138
314 972964 629372
315 361536 210466
316 305991 96149
317 982351 674235
318 792676 802221
319 955926 641417
320 662969 343712
321 770122 744929
322 382118 50572
323 147581 242349
324 350976 253316
325 950922 332806
326 32009 298818
327 -1874 250750
328 742414 757082
329 148683 249431
330 95413 239766
331 58450 328573
332 424965 51863
333 763496 705916
334 275797 111111
335 374508 74695
336 277773 83942
337 403768 88346
338 349035 256021
339 110646 234397
340 727262 732074
341 350779 35970
342 166579 68213
343 121430 107611
344 380944 267724
345 342834 15715
346 394968 55075
347 -32637 339300
348 313646 125574
349 65609 273768
350 291921 109737
351 15718 253066
352 814367 725013
353 920192 390133
354 699488 773547
355 92428 239315
356 150047 20419
357 431881 240444
358 404783 192730
359 344443 53098
360 240553 113274
361 622574 327092
362 421678 217994
363 426666 47541
364 951674 654306
365 148024 31642
366 141236 224562
367 408036 27236
368 431961 218966
369 439669 230592
370 647482 379512
371 677838 362926
372 438399 253587
373 407407 251832
374 316072 67401
375 106988 329633
376 634699 350823
377 147845 46526
378 309150 117471
379 87375 251475
380 164059 23907
381 912649 454234
382 909918 402419
383 705693 726850
384 100151 53227
385 466058 247411
386 291370 172844
387 834452 674435
388 741972 349834
389 403640 211415
390 438205 226547
391 69302 241071
392 33068 288339
393 180730 257211
394 414191 5388
395 420657 261083
396 413050 23356
397 751546 671431
398 401497 249207
399 145335 34722
400 105282 226591
401 110673 192768
402 765457 750863
403 363360 7452
404 405938 227241
405 269098 107829
406 67969 342376
407 -12247 356567
408 944464 683953
409 410356 258384
410 446183 208679
411 251770 187455
412 623470 375904
413 973020 736443
414 309242 107365
415 378463 46457
416 1615 258401
417 129831 275128
418 419475 45390
419 381129 44290
420 398088 199959
421 121935 -12595
422 293022 119418
423 931060 689887
424 960223 714544
425 110609 213588
426 798197 760126
427 16520 338679
428 126262 199222
429 803587 631783
430 205403 25247
431 79946 234143
432 117920 16557
433 288706 125156
434 267329 170896
435 125958 220775
436 977126 672951
437 793382 741259
438 941203 426682
439 431812 226593
440 754002 766917
441 406815 46358
442 799015 736965
443 159068 29137
444 884432 294408
445 283444 160722
446 76433 190564
447 376029 68373
448 864790 424473
449 210680 96290
450 725005 733337
451 65148 306534
452 960280 688360
453 635712 329816
454 425436 239428
455 706574 409965
456 109801 222757
457 37967 170144
458 -36024 342757
459 117925 233014
460 1036639 740079
461 15601 280275
462 54719 304078
463 164078 255224
464 404672 33367
465 938595 464389
466 127593 190950
467 396551 195696
468 928160 693184
469 474463 213728
470 908600 347084
471 370747 82711
472 989753 410069
473 679482 355509
474 89557 -19302
475 966137 406953
476 750521 722039
477 109400 -3541
478 658815 292139
479 695220 286946
480 324778 142210
481 968023 674565
482 673856 324599
483 389538 11277
484 263056 107448
485 -58061 339263
486 971612 703624
487 941984 436595
488 970592 700960
489 209951 33721
490 103755 31430
491 366002 107951
492 100443 220363
493 402566 242657
494 953747 444671
495 165267 51321
496 110558 245517
497 271197 149089
498 113727 238011
499 251798 133567
500 274383 63301
501 121666 25313
502 41949 351132
503 168721 71203
504 90070 267567
505 -23568 306155
506 440907 217888
507 131031 226516
508 918623 707465
509 318306 155343
510 103955 244241
511 55019 300086
512 358158 7342
513 914203 425113
514 51655 281792
515 682322 343733
516 699443 342539
517 597759 326277
518 843789 376866
519 434543 282694
520 82603 172846
521 987259 696728
522 692755 353708
523 676883 287517
524 88382 219801
525 -20461 309167
526 390553 89697
527 171790 98158
528 75135 271564
529 739492 371649
530 96376 256596
531 80450 195450
532 262219 120112
533 18045 336426
534 92970 209015
535 739640 368767
536 99970 267060
537 978098 420388
538 887671 652593
539 801092 705268
540 110537 62115
541 956869 657303
542 722083 730239
543 381324 189638
544 66038 164493
545 295305 64333
546 610158 337974
547 687917 315977
548 405690 109618
549 253575 79942
550 46447 296947
551 938586 384611
552 400476 204526
553 309688 125945
554 680224 334183
555 942043 392456
556 -22892 340619
557 789859 711239
558 105364 285568
559 745838 718860
560 984996 653121
561 43570 322399
562 327413 97219
563 34463 295951
564 80071 243427
565 308882 77736
566 99208 274188
567 74182 270771
568 926352 723615
569 126623 24755
570 908735 431735
571 142288 258739
572 156642 650
573 894839 647213
574 -2825 295774
575 453506 212233
576 752443 713504
577 128273 78848
578 698216 678522
579 707269 399470
580 -5965 340501
581 349155 246875
582 371650 129546
583 127280 222319
584 113731 26574
585 728490 342356
586 681675 325213
587 894950 394295
588 78753 227086
589 922689 409419
590 769966 724596
591 84427 289302
592 -47367 284373
593 429052 252423
594 353389 15803
595 -41577 305656
596 100047 47428
597 872706 425483
598 12766 351269
599 136867 12444
600 420453 191875
601 239598 111906
602 961200 674130
603 164585 51540
604 750633 719821
605 127972 43505
606 9534 255666
607 97883 245266
608 669938 353574
609 -6803 336583
610 401505 25069
611 993953 684388
612 156653 36233
613 712838 717239
614 997653 744455
615 923516 630759
616 -34019 347378
617 73674 268994
618 689518 360987
619 97128 173787
620 44383 305070
621 392873 85782
622 376667 51909
623 294964 174718
624 69989 273377
625 969204 427775
626 413824 63421
627 990119 414037
628 798267 741168
629 -322 325412
630 114540 231062
631 768397 706356
632 25039 341804
633 645219 376734
634 412078 227073
635 107326 244926
636 437846 24056
637 710746 406875
638 780152 719486
639 322737 124089
640 131529 -15894
641 268177 91252
642 961395 695328
643 912801 427051
644 49721 327397
645 436414 249524
646 140119 13717
647 933253 361407
648 399437 77293
649 945719 721695
650 931816 714703
651 958583 693528
652 37549 237846
653 116715 50411
654 429652 169353
655 951292 393182
656 799771 753890
657 114003 194097
658 47051 269834
659 350529 57412
660 413320 1044
661 950810 395610
662 119871 417
663 343892 104862
664 929729 423802
665 415036 185767
666 377527 29552
667 376940 175679
668 656919 361671
669 438044 261805
670 725720 693156
671 50026 333169
672 661875 295529
673 417797 256163
674 924295 377087
675 956416 669001
676 68465 374528
677 399731 217677
678 1042318 731160
679 726925 374911
680 424649 61650
681 693616 287360
682 36360 289158
683 702810 377632
684 638623 387905
685 109342 240225
686 799210 715194
687 340455 144119
688 728085 710340
689 137918 78140
690 1009603 697471
691 -6616 278406
692 237488 70567
693 255762 175673
694 951634 695188
695 122276 78022
696 445872 56096
697 106937 47268
698 830289 761356
699 340606 62467
700 18338 333211
701 121015 28890
702 74806 382148
703 703446 322704
704 971496 427401
705 663639 312621
706 373224 208354
707 367357 204871
708 727858 680952
709 401955 104179
710 913011 378662
711 -31554 370417
712 782862 686894
713 119499 -10981
714 173356 11770
715 274086 90172
716 65713 84396
717 778405 709359
718 27114 300465
719 994131 659461
720 158186 68036
721 165598 31300
722 683491 396408
723 -25384 300399
724 107512 40393
725 162619 21942
726 88640 244518
727 157785 37920
728 680599 375232
729 34639 356333
730 864908 424780
731 -7053 341510
732 944310 439029
733 341278 19995
734 967213 684261
735 420226 232781
736 917243 417659
737 267918 256074
738 445455 216890
739 291199 142551
740 369355 5160
741 280367 147413
742 274055 95656
743 177067 84688
744 245653 128026
745 659481 364021
746 399676 47039
747 281293 54907
748 883165 723147
749 83360 253407
750 711340 343819
751 281513 80578
752 135760 201468
753 46386 331805
754 692286 353469
755 407807 58790
756 703409 297459
757 131877 82936
758 698472 379625
759 6539 334428
760 402281 256751
761 943303 410425
762 410702 84982
763 451845 259653
764 88388 287602
765 730569 716072
766 105264 285907
767 392429 75131
768 267869 129386
769 1009885 664510
770 364671 41258
771 409877 43081
772 909497 435950
773 914012 421361
774 124080 2268
775 52026 219249
776 955697 665632
777 85536 267996
778 694667 363063
779 329958 156864
780 912655 381187
781 963145 671748
782 137306 21508
783 73869 211837
784 688839 325468
785 279551 131024
786 276091 113461
787 403794 271707
788 54802 34936
789 373101 218167
790 787611 725265
791 108754 46954
792 84972 230594
793 134494 206988
794 786850 690396
795 933691 694723
796 375424 172223
797 872500 382222
798 430592 218254
799 114058 238698
800 93336 250489
801 33083 340552
802 689427 328586
803 376745 240138
804 170637 263130
805 749821 748221
806 103467 225067
807 274988 106527
808 927801 424753
809 882312 365360
810 953214 689775
811 929004 623055
812 456869 200723
813 984988 693934
814 896138 422858
815 963000 464828
816 964594 688526
817 360760 10258
818 53419 296594
819 125009 226672
820 724458 721781
821 124944 260373
822 957479 637869
823 372569 229994
824 483320 264362
825 123879 242436
826 648801 292796
827 304714 77113
828 688543 391474
829 169742 21430
830 114661 92268
831 14125 314787
832 383686 29493
833 684842 345304
834 991225 671805
835 642016 393964
836 762431 733997
837 131757 -13241
838 784553 733900
839 900601 301033
840 812053 679504
841 886949 356546
842 317239 183313
843 282151 139894
844 950278 393398
845 715968 349636
846 408888 200777
847 90937 230501
848 793742 757547
849 239539 75006
850 927797 413123
851 405453 46294
852 705914 360708
853 421994 92497
854 941535 682523
855 712225 293194
856 765667 694288
857 748844 362859
858 338173 50715
859 292759 128501
860 990079 671579
861 786071 698250
862 122268 234488
863 937440 703577
864 47518 292711
865 737426 716602
866 12910 267310
867 97447 191408
868 760542 334344
869 757597 752371
870 790350 687914
871 350052 19647
872 754600 709102
873 111777 181404
874 273564 60915
875 430164 244547
876 689705 294844
877 998697 682652
878 788158 776635
879 386644 14855
880 787884 671925
881 -16643 298445
882 924026 654387
883 451307 222022
884 108861 247017
885 246689 145554
886 650243 344854
887 147095 239684
888 688737 355107
889 968291 686849
890 910101 417231
891 898107 704416
892 391874 246658
893 918600 452012
894 299304 127449
895 881084 420467
896 127296 16080
897 250938 57113
898 139691 42059
899 155788 176098
900 446664 266024
901 266722 99316
902 411171 244791
903 647525 298831
904 756672 286758
905 774890 688391
906 275131 122232
907 391293 81313
908 942116 414427
909 411 309604
910 -18204 332621
911 154059 16370
912 263482 32817
913 131603 22474
914 395701 225842
915 358651 223645
916 396091 272500
917 923804 398448
918 400078 219903
919 96610 243197
920 383180 39664
921 993769 664812
922 904477 659189
923 418171 282747
924 90931 215186
925 347521 83509
926 927825 432471
927 113633 324486
928 289449 102197
929 406383 66441
930 -13263 348798
931 926462 423655
932 401127 192905
933 712684 350055
934 431010 220515
935 788331 742478
936 348864 55138
937 241948 82377
938 742421 691192
939 887469 612574
940 312557 266177
941 408515 24646
942 417118 268227
943 147666 18996
944 379096 223140
945 790006 765691
946 139744 30023
947 152345 48251
948 602899 339626
949 110424 184385
950 945287 415943
951 65555 158334
952 969099 660447
953 24913 361730
954 39340 301720
955 130044 4526
956 940721 706579
957 85669 196489
958 399708 104712
959 909530 350870
960 221706 98836
961 962110 699658
962 295336 128096
963 4540 333174
964 419854 220522
965 83976 309428
966 13650 313298
967 413708 -1304
968 -1047 290172
969 953496 385883
970 101216 193326
971 344369 88496
972 645599 373134
973 981821 695538
974 270632 115293
975 371243 164209
976 725542 691824
977 283041 70327
978 747379 737044
979 38694 200922
980 76900 307614
981 105116 11685
982 399436 266934
983 674684 330320
984 276671 119157
985 947698 687573
986 114503 302157
987 -747 286602
988 768959 700235
989 304356 117340
990 813796 719716
991 85753 229715
992 804620 770220
993 417431 220930
994 386708 116227
995 367743 78133
996 399480 235737
997 224903 102458
998 762317 732567
999 294881 70987
1000 288692 147587
