NAME : portcgen-600-608
COMMENT : portcgen N=600, seed=608
TYPE : TSP
DIMENSION : 600
EDGE_WEIGHT_TYPE : EUC_2D
NODE_COORD_SECTION
1 569766 106258
2 184456 804940
3 977418 441262
4 614923 80852
5 215308 832084
6 798833 714439
7 615426 65166
8 976667 392689
9 727844 713207
10 1053767 403077
11 866966 467827
12 122283 884377
13 987504 423821
14 658933 104728
15 635365 93737
16 1003081 420084
17 149291 835192
18 1040656 404479
19 96067 837690
20 622780 28699
21 638167 64609
22 694358 104450
23 944799 434424
24 950542 416162
25 973363 344908
26 139946 832177
27 110234 856531
28 777734 588540
29 623050 121576
30 930689 437575
31 742870 698645
32 609255 96646
33 794012 661913
34 655738 127604
35 557706 68798
36 974874 471778
37 774802 638371
38 664916 137827
39 750107 646074
40 591415 16241
41 153311 873083
42 136485 826818
43 206496 810551
44 986509 420719
45 171572 834406
46 998400 421804
47 187089 886350
48 655873 159408
49 925987 379768
50 1047806 378173
51 165948 836534
52 1052253 455464
53 665531 148584
54 750059 675958
55 971117 479936
56 679202 712175
57 136257 916636
58 648420 100472
59 988260 403789
60 725844 736396
61 1019379 425895
62 972140 407738
63 667474 38263
64 1026260 481739
65 603679 98061
66 983890 427771
67 560657 107620
68 940405 489260
69 883054 433454
70 974502 494629
71 153754 855073
72 1050257 351359
73 619594 17810
74 153912 801650
75 932807 415660
76 865189 387496
77 595578 59889
78 1028273 404055
79 161585 921575
80 765336 762352
81 963607 415479
82 639100 75202
83 211502 872744
84 190511 788459
85 980873 435166
86 999648 401767
87 814320 634515
88 1053770 389274
89 984204 514553
90 604167 159165
91 211307 966255
92 767528 617138
93 973902 359744
94 641736 7750
95 965048 472456
96 802300 650946
97 625818 108886
98 987007 471042
99 945077 439597
100 214170 839459
101 138043 862836
102 710337 664709
103 796487 666812
104 215278 825015
105 617138 101057
106 804303 673594
107 921751 525799
108 1048727 411476
109 1038660 518828
110 654885 42223
111 956304 358308
112 148612 784346
113 610521 26767
114 962619 504621
115 1003776 446947
116 654325 87790
117 1026113 413338
118 576872 76299
119 946416 444450
120 618143 128033
121 567907 29279
122 957118 521179
123 968613 465417
124 668340 -2417
125 970676 409125
126 952410 447150
127 601122 26122
128 581107 26217
129 210620 894844
130 159457 825337
131 213137 888586
132 980280 439311
133 770596 629516
134 764413 723171
135 985744 469412
136 613167 -9272
137 780752 689961
138 171993 847087
139 940826 357649
140 773293 663506
141 551960 67336
142 643396 80935
143 580451 162802
144 176133 856950
145 801698 710150
146 177383 853376
147 645169 51920
148 101017 809660
149 186866 863155
150 548883 58452
151 798715 733434
152 586765 151909
153 646490 88100
154 164433 820643
155 531975 38100
156 1011533 413852
157 609291 55432
158 601181 52292
159 1047546 357065
160 757536 695901
161 625409 42760
162 668098 -30433
163 133917 920389
164 162360 906238
165 709744 680095
166 853246 400923
167 952554 513265
168 174886 844911
169 986436 419644
170 650098 -5752
171 797070 698250
172 1000216 398645
173 990957 408520
174 990902 463973
175 999170 396972
176 200084 848127
177 935745 413591
178 611750 41109
179 654442 93874
180 720702 729613
181 736734 752145
182 596375 50107
183 188351 825676
184 919712 400116
185 198617 840388
186 194614 859245
187 1049474 422852
188 557709 39908
189 148075 856324
190 968772 400304
191 990093 471777
192 669457 106268
193 636464 83212
194 961154 442085
195 1020875 449740
196 625640 675612
197 679444 708085
198 183691 886928
199 972447 382838
200 583317 107076
201 1036168 433618
202 728684 633317
203 651032 44518
204 650755 55894
205 644174 53979
206 991445 416567
207 737857 695875
208 903307 422688
209 668642 58738
210 910121 436360
211 912985 462807
212 134769 809591
213 82844 865863
214 737105 89551
215 607467 63464
216 995038 470958
217 186024 901989
218 153483 814525
219 1042261 411105
220 571758 46954
221 563072 -28462
222 976695 444655
223 528590 48971
224 946407 482750
225 922167 401552
226 797424 702789
227 645858 172105
228 968895 450740
229 585423 -35389
230 606675 44036
231 740569 642932
232 996734 431215
233 159563 869836
234 594612 141387
235 739998 605603
236 154310 817803
237 669431 126330
238 946088 476525
239 732733 756888
240 994237 479721
241 983287 450588
242 1029468 426302
243 620298 118484
244 128705 924837
245 1008893 479606
246 598141 86526
247 144362 882300
248 109055 889543
249 699611 161642
250 622553 78262
251 574100 90413
252 95710 858950
253 759235 707294
254 713384 96218
255 764146 714548
256 1085238 466296
257 668689 102266
258 591174 74088
259 178868 833168
260 622233 134876
261 631172 69219
262 130122 855170
263 149996 902317
264 655126 69252
265 230816 850105
266 865618 436446
267 643414 168244
268 1010058 440432
269 972214 412325
270 594849 115921
271 937470 493761
272 997990 412348
273 779027 666876
274 974746 412494
275 183965 839869
276 202029 911948
277 544786 125278
278 874207 412821
279 625429 66507
280 654759 81146
281 622712 105010
282 102190 761850
283 619476 104234
284 140045 813842
285 249794 898070
286 914294 429368
287 731915 698640
288 695031 22329
289 748973 669484
290 909295 420722
291 965184 428966
292 963919 460551
293 644210 105917
294 658710 148874
295 928876 441645
296 936542 346213
297 619481 109783
298 724343 687899
299 1030831 425814
300 738502 706341
301 140564 902026
302 638053 128223
303 144928 877586
304 651749 106168
305 584055 85128
306 1029107 445354
307 758271 699721
308 611423 125593
309 697302 657729
310 947324 450527
311 639097 8834
312 209869 841726
313 189268 896668
314 652136 47356
315 605627 23481
316 684313 28286
317 186509 890419
318 572311 72975
319 204600 845477
320 184892 852639
321 213770 769472
322 728544 645769
323 634407 127712
324 783409 668576
325 774964 730879
326 569680 79752
327 622993 131636
328 596334 4408
329 851488 733419
330 176316 761139
331 214299 877048
332 724837 730365
333 578551 27156
334 710085 48449
335 708723 77894
336 227124 865100
337 974883 448343
338 579360 212655
339 820105 617547
340 994236 436074
341 177137 883869
342 561808 93112
343 608796 68430
344 630041 84707
345 976467 428507
346 950385 445457
347 804955 654622
348 838063 411271
349 944691 453810
350 1026738 444218
351 179922 858247
352 980948 438153
353 982806 491451
354 575795 98005
355 967512 495889
356 873214 470833
357 964317 337063
358 153466 834511
359 620354 70913
360 807972 644961
361 636123 77832
362 1033522 457491
363 612314 99750
364 618750 71611
365 605451 65064
366 171225 879765
367 954116 428199
368 156072 865219
369 978452 463829
370 741645 691866
371 797255 715433
372 1039932 517091
373 905939 424480
374 923554 448448
375 910727 354774
376 917223 356741
377 942450 384693
378 783806 699150
379 605735 28717
380 960434 423435
381 214109 854312
382 1050825 453490
383 627425 100222
384 129664 852962
385 659015 149187
386 917485 427340
387 580902 138105
388 566443 66756
389 965742 462610
390 582454 101289
391 1001161 531083
392 123481 875111
393 957605 451932
394 791254 709526
395 930559 464367
396 695240 115897
397 199736 815889
398 218941 907720
399 940699 431237
400 206873 886307
401 910214 383403
402 935222 367996
403 638929 69344
404 613733 74564
405 219806 850027
406 587821 20153
407 779560 648864
408 659526 83312
409 612542 36941
410 628501 47388
411 235894 864947
412 942398 337172
413 511296 -46288
414 704591 684365
415 666516 30136
416 945892 478802
417 963474 409110
418 843654 677084
419 994539 480013
420 223802 847395
421 1030410 428644
422 630263 14851
423 205730 894584
424 991573 459690
425 949639 415711
426 40549 850314
427 632353 20762
428 1024654 483538
429 943943 428569
430 616566 25376
431 971334 477249
432 1042862 544064
433 608265 38316
434 937724 367624
435 799356 696275
436 176705 902748
437 581542 23695
438 1045793 461959
439 598259 144932
440 994453 360681
441 650190 154628
442 917039 384651
443 1052232 501564
444 893537 415075
445 167071 856051
446 790480 728358
447 563511 61170
448 591263 -57698
449 764839 701912
450 1018749 453902
451 650393 14137
452 994575 498309
453 533929 56672
454 187516 944360
455 584141 91748
456 630996 7114
457 581280 160191
458 181327 873424
459 564643 123551
460 650007 92769
461 692288 89170
462 193324 851373
463 272682 863568
464 618839 79706
465 971369 486587
466 717570 729979
467 694035 102858
468 597280 76316
469 593732 153236
470 620398 12255
471 849243 701404
472 949046 395157
473 162402 854217
474 983344 445095
475 175835 852659
476 196976 903977
477 712988 729909
478 594899 56099
479 668720 58513
480 1003765 409098
481 607984 63575
482 753872 696723
483 638314 23326
484 567188 39938
485 1001838 453200
486 638347 128277
487 1012464 385011
488 777911 702409
489 779827 662784
490 203900 833474
491 621414 23314
492 621971 71889
493 207366 807889
494 616308 59671
495 176515 888979
496 975613 511480
497 938381 366369
498 949027 430320
499 883526 434287
500 202306 899493
501 990054 398609
502 930829 439774
503 183282 885877
504 673258 85570
505 113195 869266
506 840282 625070
507 747056 686885
508 145891 871377
509 644727 105351
510 787144 644361
511 801379 606211
512 760454 629277
513 631462 33480
514 742559 660569
515 972710 515676
516 981346 411779
517 584343 35575
518 639863 106005
519 121879 819475
520 139328 871365
521 741558 706068
522 951301 419383
523 731525 639430
524 1004249 423831
525 196066 876162
526 932900 435783
527 704621 84543
528 997225 466643
529 135503 912711
530 1003172 398937
531 660892 33058
532 593745 48759
533 198209 844771
534 772874 645468
535 988879 419515
536 940942 428836
537 654593 4778
538 997573 434741
539 138208 779997
540 226244 817967
541 244727 825880
542 737197 718048
543 623730 18664
544 992330 394594
545 946507 451958
546 199778 816587
547 792913 748063
548 194229 801168
549 799925 656449
550 670283 76688
551 964095 380434
552 1066356 383023
553 931597 407422
554 627097 37614
555 819592 706768
556 278085 870125
557 947693 492705
558 1008055 426694
559 157716 926202
560 226303 876838
561 940470 425804
562 809581 690794
563 994158 407181
564 572438 67887
565 666658 80653
566 799989 620689
567 616640 75417
568 667281 669725
569 218609 871918
570 640357 64454
571 660136 97557
572 590350 54974
573 557893 151489
574 676565 98768
575 741370 721938
576 159914 777969
577 635532 113543
578 208287 872361
579 993944 392740
580 958217 386908
581 642955 29176
582 633707 117685
583 642099 121326
584 987904 363314
585 830925 718639
586 944202 407467
587 612554 -29748
588 1039408 413798
589 1006582 435344
590 985280 362710
591 982152 440947
592 697740 -22397
593 959876 414822
594 835672 709684
595 150836 820756
596 606729 77658
597 612849 102465
598 612301 49087
599 1008439 466193
600 794378 672834
