NAME : portcgen-300-303
COMMENT : portcgen N=300, seed=303
TYPE : TSP
DIMENSION : 300
EDGE_WEIGHT_TYPE : EUC_2D
NODE_COORD_SECTION
1 489811 781740
2 886845 210141
3 878766 212254
4 304457 471262
5 917907 81424
6 858367 105973
7 356362 454079
8 536814 572974
9 981581 171727
10 256200 293776
11 523706 552591
12 593691 655194
13 489777 551187
14 422971 605547
15 362704 438350
16 860257 155756
17 580764 706868
18 893849 228211
19 916010 138018
20 941390 193424
21 431854 681568
22 285423 336151
23 251601 444190
24 213023 381787
25 435578 740095
26 344576 341993
27 437868 593412
28 342343 318832
29 945314 209278
30 501000 577627
31 984640 208935
32 322280 608100
33 203479 291860
34 529801 671388
35 955838 230039
36 497167 572494
37 978822 115220
38 797736 177521
39 756265 157544
40 357895 271727
41 246337 333094
42 323833 732477
43 327902 285543
44 422713 473200
45 384428 374155
46 905799 115695
47 961789 243522
48 910475 204724
49 472347 679024
50 251711 333347
51 893177 159672
52 969496 181671
53 523805 711609
54 357128 356680
55 919716 209317
56 820400 93289
57 338004 287781
58 922376 103167
59 957997 182426
60 464686 566031
61 788834 155482
62 366375 362269
63 836385 234188
64 903320 201031
65 546342 614100
66 502559 638142
67 444287 309369
68 888641 268504
69 336248 333481
70 218721 247106
71 895305 242346
72 480211 579191
73 943282 219661
74 321761 414839
75 335392 389064
76 353149 317189
77 476202 639683
78 467074 615687
79 373139 362197
80 461167 531463
81 467755 669558
82 909486 199429
83 637220 625911
84 433686 635256
85 850184 121258
86 951634 295673
87 378516 622517
88 340060 552857
89 419528 571451
90 913170 164579
91 358008 422223
92 329604 424748
93 1017519 159098
94 779540 122247
95 904381 126142
96 510577 751144
97 898276 136505
98 853422 218142
99 576069 573582
100 464169 595555
101 533757 608845
102 476067 581559
103 386625 360975
104 335531 353679
105 440917 765987
106 536925 643799
107 452441 640258
108 954085 220975
109 177103 362820
110 497378 625373
111 993577 141691
112 839465 113358
113 464014 695786
114 250031 331446
115 260839 278614
116 807504 250876
117 447663 673006
118 493079 705003
119 461906 587086
120 299352 297046
121 970548 185883
122 214050 350555
123 307703 472892
124 348769 588356
125 455437 640036
126 1000338 326027
127 908141 279686
128 329322 413782
129 290308 448923
130 835704 147542
131 550400 688436
132 342887 393245
133 223921 425592
134 467237 576370
135 347517 397944
136 211114 425508
137 915417 216873
138 482411 690371
139 793032 55534
140 969404 162812
141 843505 220665
142 968712 265267
143 358179 415084
144 897450 138008
145 448298 657436
146 483825 723866
147 343474 407595
148 273784 393826
149 292982 481679
150 917675 143588
151 475742 644508
152 280771 464053
153 274745 385970
154 891010 183170
155 523598 565512
156 350421 317446
157 990280 242114
158 465644 621064
159 959971 129036
160 358961 388015
161 194592 344631
162 1001582 147999
163 911531 113557
164 941913 266574
165 864844 221532
166 904402 212810
167 984683 218494
168 261965 397854
169 369119 426829
170 263189 377127
171 555943 649605
172 535095 624126
173 926055 154377
174 825567 78348
175 920323 150442
176 458832 495838
177 307480 367795
178 482151 739247
179 824736 218666
180 427946 716335
181 870606 142002
182 276377 331900
183 463591 568720
184 856832 124711
185 341306 321125
186 288680 426115
187 343871 436823
188 840316 211634
189 292158 368882
190 445902 590362
191 474427 634964
192 863203 218582
193 330151 344818
194 388098 297350
195 399438 631418
196 433884 585790
197 459436 577954
198 382470 365313
199 506440 672080
200 431348 595456
201 828276 95624
202 503934 620015
203 916828 145685
204 999837 119960
205 285861 337348
206 923663 130560
207 891496 55614
208 385139 667741
209 471878 537492
210 365024 392388
211 1033120 229194
212 408348 419845
213 373143 567754
214 884469 218518
215 972873 92377
216 918721 176565
217 299428 301425
218 945499 166886
219 812114 279540
220 959884 231581
221 496205 654440
222 971460 208305
223 915742 168843
224 880734 309902
225 484058 521409
226 197527 372555
227 444569 577873
228 438826 647069
229 898015 184894
230 226312 334188
231 556767 565140
232 190139 357762
233 458153 518919
234 243751 307794
235 383005 345824
236 446176 678988
237 476705 656992
238 997067 79311
239 867649 150490
240 961842 101363
241 316109 362561
242 920182 107844
243 299349 312157
244 424941 461141
245 824664 105882
246 851588 165145
247 964837 98091
248 916933 186672
249 234376 276546
250 325173 347120
251 512827 743041
252 484667 655824
253 268686 313300
254 467452 688696
255 316742 390149
256 802170 193101
257 467919 580134
258 783622 185413
259 887189 167884
260 275168 483725
261 325449 287404
262 521794 643587
263 334863 439078
264 371195 243753
265 224249 392193
266 530447 564174
267 439415 646300
268 539835 691930
269 244112 356470
270 484956 606303
271 478095 706106
272 527944 637471
273 383016 395296
274 375716 375162
275 517190 534240
276 551466 602332
277 715079 250079
278 184282 443199
279 326090 382459
280 581064 667523
281 565150 620785
282 265656 279298
283 266114 347070
284 301645 329598
285 222053 399489
286 940463 173350
287 871812 190342
288 261392 281432
289 476442 626195
290 385562 523327
291 346932 311230
292 171992 448356
293 305045 396279
294 259704 362204
295 529609 637130
296 460213 530110
297 324910 327525
298 314545 361278
299 387487 670683
300 218681 326092
