NAME : portcgen-200-201
COMMENT : portcgen N=200, seed=201
TYPE : TSP
DIMENSION : 200
EDGE_WEIGHT_TYPE : EUC_2D
NODE_COORD_SECTION
1 213149 1093422
2 449902 207333
3 333328 253532
4 168593 964801
5 101702 883333
6 337517 1016600
7 389688 200397
8 167989 996907
9 224873 897479
10 173196 863860
11 508236 161310
12 256459 322361
13 412364 261194
14 204057 942014
15 276066 260184
16 288173 207927
17 393494 131112
18 383712 220975
19 420613 306892
20 391437 198429
21 234422 858695
22 407277 358280
23 157735 942760
24 207247 1016714
25 348180 167986
26 286964 908795
27 219149 945193
28 444717 158040
29 183509 978350
30 475397 215901
31 168564 1014155
32 372958 283696
33 226311 773013
34 273507 937314
35 349610 154662
36 464413 273013
37 376703 209638
38 201246 836064
39 143945 1044483
40 377331 250653
41 376276 219902
42 459242 168546
43 401844 278050
44 355705 72091
45 409134 313063
46 279239 266693
47 130594 1018534
48 276047 85147
49 202705 872476
50 236967 933171
51 471878 323479
52 359594 223560
53 357360 135754
54 304817 177300
55 422000 190061
56 163395 978034
57 322304 307951
58 231265 892077
59 83889 859887
60 146522 947578
61 294291 897247
62 245087 985517
63 363364 310390
64 284239 983664
65 266069 234026
66 384721 125105
67 298902 238448
68 241513 1013025
69 181945 717637
70 443472 188002
71 164412 790664
72 286805 299984
73 334436 127889
74 111487 947754
75 53854 928865
76 316761 792456
77 292268 905016
78 409162 214098
79 220398 907003
80 207100 928593
81 219153 874429
82 293181 989380
83 296773 179358
84 446289 295038
85 377066 214392
86 180160 931435
87 335545 864866
88 340502 850132
89 233003 892780
90 405462 298319
91 193782 795832
92 340167 168000
93 180992 935807
94 327731 962120
95 140093 966068
96 134474 871835
97 133440 919984
98 191129 895670
99 301065 1089515
100 259225 1019515
101 243779 297634
102 423398 251039
103 196820 940272
104 485628 224399
105 288501 923840
106 437231 220200
107 172676 911111
108 222851 960242
109 265462 895124
110 289361 295720
111 309190 886035
112 134634 794986
113 360875 206779
114 265473 945031
115 489381 223356
116 369183 268255
117 209149 874010
118 193009 1057753
119 420716 234339
120 317177 262598
121 451674 232905
122 347555 227615
123 321448 984244
124 175156 969585
125 487374 232554
126 326538 169342
127 412130 275689
128 30428 1025951
129 79440 897494
130 171849 903682
131 433916 151008
132 101087 1042699
133 307318 934016
134 473102 220948
135 329207 885435
136 213491 884434
137 245179 840397
138 306909 848422
139 207234 974815
140 439085 330073
141 319912 857519
142 253221 853242
143 256274 999764
144 419723 277579
145 320399 248749
146 346322 242263
147 240651 902997
148 335534 328719
149 144505 818045
150 415499 328647
151 287433 934074
152 533710 94964
153 542110 140935
154 291594 895976
155 235063 977996
156 117173 996132
157 186565 973638
158 174370 997069
159 166331 968487
160 157787 875403
161 399816 179515
162 421058 228966
163 392713 309748
164 157659 893880
165 263983 915608
166 100230 1075618
167 309396 252662
168 297238 159875
169 429160 290241
170 414752 180925
171 394871 317554
172 292769 159163
173 65580 843566
174 291340 905592
175 88104 951012
176 311555 239066
177 444603 291135
178 194075 934033
179 309037 935034
180 238287 944914
181 336183 796406
182 296787 262091
183 356116 210622
184 239432 906091
185 405065 196606
186 152648 1074508
187 353635 251967
188 198203 880403
189 245545 282049
190 219370 940371
191 220106 836398
192 330146 263611
193 397660 152189
194 245266 1009727
195 288756 847154
196 221624 160496
197 396624 287101
198 319335 185389
199 313972 114638
200 286670 921812
