NAME : portcgen-500-504
COMMENT : portcgen N=500, seed=504
TYPE : TSP
DIMENSION : 500
EDGE_WEIGHT_TYPE : EUC_2D
NODE_COORD_SECTION
1 133809 44269
2 858599 354830
3 717762 236703
4 888294 601739
5 823908 684744
6 945630 558185
7 778913 322724
8 832910 711560
9 804346 278014
10 153303 108161
11 209564 142240
12 691879 182690
13 751917 351550
14 761919 371379
15 600052 176836
16 647540 266637
17 180191 108812
18 895937 635097
19 755559 309177
20 741651 178510
21 124009 125553
22 712140 299222
23 120492 54315
24 163444 99620
25 834241 379700
26 801456 236799
27 183808 62147
28 573127 99805
29 800279 352990
30 617187 131001
31 631268 136059
32 788863 397344
33 621969 152164
34 680349 146874
35 638329 214421
36 684021 306648
37 665396 218806
38 692698 211632
39 725167 315836
40 123172 76685
41 909009 628100
42 645825 84456
43 894924 696765
44 730130 280616
45 721118 240775
46 568650 237055
47 794184 494588
48 773009 230121
49 757821 304469
50 797440 327620
51 752671 361363
52 687867 206856
53 920796 642962
54 963981 697529
55 770706 373877
56 834273 603835
57 562976 209671
58 795451 284147
59 73595 133924
60 561757 183359
61 806462 651671
62 809936 302186
63 727719 235407
64 116268 28915
65 103155 158356
66 129444 46955
67 886771 632019
68 891115 710145
69 831255 343186
70 596227 177899
71 183881 26669
72 846567 614502
73 84540 87571
74 169382 94374
75 744397 253321
76 868713 688112
77 868224 761435
78 706473 280032
79 619070 246771
80 711912 317803
81 811606 297434
82 191740 52313
83 738139 231861
84 101652 86967
85 900740 673662
86 556712 189533
87 196112 169379
88 738348 319245
89 824689 336849
90 847417 305838
91 136272 121467
92 669008 190949
93 810153 240124
94 567790 167324
95 600162 207382
96 161368 3922
97 762296 343370
98 752366 194395
99 117817 130385
100 842932 337511
101 872056 626072
102 126128 57106
103 49667 91618
104 833162 341129
105 658614 261493
106 662147 135105
107 800808 729908
108 654675 127755
109 639161 160860
110 644182 210008
111 777347 287118
112 821678 633636
113 128441 12907
114 804157 192236
115 914104 743632
116 617618 112430
117 734156 297469
118 636974 168375
119 869491 660935
120 796316 315075
121 671110 232703
122 118320 72042
123 818205 366515
124 638452 179814
125 643858 195992
126 644566 132211
127 737245 296843
128 924248 289353
129 821998 310335
130 106050 139221
131 841881 630705
132 847847 580232
133 166313 61276
134 102328 9718
135 817130 237986
136 765418 244029
137 170825 6786
138 677685 147570
139 910693 611124
140 791247 312057
141 721323 251087
142 922896 619888
143 802818 332656
144 558996 182544
145 761997 348592
146 789408 233662
147 636788 147119
148 837882 275707
149 842553 645309
150 763724 249817
151 665811 194210
152 160836 74081
153 239956 32749
154 810650 440700
155 976403 772040
156 142483 28075
157 786163 270760
158 692798 275952
159 928621 727915
160 785334 307296
161 160777 89846
162 718667 335089
163 865315 641597
164 158395 -2806
165 643545 119207
166 907496 601329
167 907741 772180
168 662846 220893
169 620127 136528
170 880247 719138
171 795370 356803
172 745055 268338
173 798142 336467
174 870172 651876
175 846904 656208
176 66319 82598
177 180852 80637
178 753301 322917
179 759284 205666
180 77160 83699
181 868223 661963
182 839377 325380
183 847767 651032
184 881230 281764
185 833082 716183
186 142745 110413
187 161536 88702
188 881983 652215
189 723566 219249
190 789037 304539
191 758906 305134
192 107092 9986
193 753056 215162
194 661474 89295
195 599314 204342
196 726512 310516
197 758282 275299
198 831355 356139
199 823472 709413
200 132414 56472
201 721623 276403
202 929961 663652
203 152334 47380
204 808705 349235
205 828495 306005
206 188974 14027
207 662348 168725
208 683437 133975
209 800947 199396
210 729410 315853
211 812712 325855
212 669784 223141
213 761218 328307
214 925414 661707
215 829841 295231
216 835484 633648
217 632139 204932
218 145567 106453
219 662566 280898
220 800899 269733
221 151038 49957
222 705764 137225
223 105824 9754
224 757325 276702
225 93117 72931
226 696736 169852
227 105328 43622
228 801977 318974
229 823202 706333
230 769441 260301
231 629475 225905
232 788941 609635
233 146832 65893
234 816403 233921
235 802376 327970
236 618422 172120
237 607506 194421
238 682770 207434
239 652985 156870
240 628304 243897
241 769585 358228
242 729513 224150
243 70062 81584
244 737913 332518
245 862401 666439
246 607964 294059
247 124836 71269
248 132451 110816
249 681245 108095
250 719082 269533
251 764579 177719
252 743593 350282
253 130590 74333
254 843586 705027
255 581144 170275
256 748054 242967
257 909986 654864
258 135132 63672
259 789363 293658
260 646394 136452
261 730862 243799
262 801877 329605
263 122339 35422
264 881531 305535
265 856874 737619
266 142696 87386
267 743749 324318
268 690766 132283
269 859511 294223
270 649976 180250
271 791887 200512
272 785586 265531
273 747200 222416
274 767096 292024
275 795351 671509
276 710332 232644
277 712528 228784
278 773414 236507
279 730710 322487
280 601168 140577
281 751209 308482
282 97362 102930
283 812127 196776
284 750457 199160
285 893647 724834
286 931639 714866
287 866653 665246
288 113784 23908
289 829862 705145
290 148833 59435
291 94119 203850
292 911451 715393
293 902171 655553
294 139272 122447
295 850908 676098
296 819032 309388
297 598785 145477
298 708168 294244
299 878654 659303
300 770938 319707
301 868718 617962
302 815716 296739
303 803647 207402
304 663399 221508
305 797720 361386
306 905294 640717
307 673196 127136
308 841369 675049
309 878476 630595
310 904980 611717
311 617218 116946
312 802138 680829
313 229653 61265
314 828587 310021
315 200126 24515
316 816784 304079
317 196726 69587
318 670647 218339
319 759239 309096
320 883296 623608
321 799264 277029
322 753313 325253
323 909900 598189
324 761164 290374
325 602151 191496
326 826170 670018
327 121381 63520
328 774085 302572
329 78511 27268
330 132137 1564
331 721084 312045
332 700947 286593
333 743883 263721
334 178695 8833
335 661997 211371
336 741715 273818
337 800801 305675
338 710573 168889
339 852956 645469
340 628363 261637
341 194842 68367
342 718686 295844
343 643503 151396
344 780341 243907
345 591488 197122
346 750762 304193
347 128826 56343
348 189488 -12297
349 157624 129122
350 90358 49359
351 862839 735979
352 920795 657662
353 827349 699204
354 561314 229307
355 164572 119539
356 159630 62618
357 751221 194243
358 818084 199350
359 140022 74350
360 655563 161643
361 776411 354654
362 856196 156264
363 784127 337826
364 549094 132826
365 834633 293592
366 738709 295658
367 644913 131548
368 817389 237897
369 846281 621108
370 748136 643315
371 604817 237668
372 585147 169152
373 631393 156375
374 716387 319394
375 115818 49140
376 731071 375785
377 624423 208585
378 839189 300484
379 194920 34487
380 807793 302365
381 113921 58553
382 808176 298440
383 911772 641548
384 761014 282816
385 559519 269397
386 718821 205780
387 836396 693660
388 710027 281928
389 720595 256450
390 762139 378514
391 642927 44329
392 730586 257973
393 868861 706293
394 894636 726680
395 643269 250680
396 782281 197827
397 594153 157165
398 693868 178754
399 82658 95770
400 656877 165051
401 115999 78279
402 742652 272452
403 113593 72029
404 750008 301096
405 685404 150727
406 180971 73919
407 770755 332565
408 810540 314771
409 921534 592223
410 720718 289074
411 688874 315618
412 742227 307338
413 735414 166955
414 636681 133690
415 628858 268466
416 152632 62736
417 654472 219006
418 613256 190788
419 179848 88081
420 717044 145738
421 912169 650515
422 750996 209061
423 867796 683533
424 162844 25725
425 869839 739915
426 186530 66094
427 94279 139099
428 736852 329555
429 738266 245506
430 798636 259162
431 193195 86309
432 803279 285198
433 59414 51777
434 798967 664082
435 816132 700688
436 736128 230191
437 724128 248583
438 692023 100560
439 596224 236419
440 847646 700237
441 99847 43033
442 680527 193172
443 604573 204834
444 142507 62211
445 651552 163516
446 117817 39088
447 860545 670966
448 621106 175563
449 -6807 74148
450 873117 657299
451 835410 393944
452 702816 290418
453 156865 146094
454 858284 663778
455 743169 302853
456 650586 106968
457 73378 80458
458 872689 667868
459 827414 640808
460 802814 284296
461 158937 92439
462 837451 708403
463 169977 -77799
464 659208 224490
465 77166 53621
466 770732 261746
467 702762 200673
468 117856 72394
469 844859 317587
470 704778 244549
471 699711 235577
472 828589 297554
473 723707 204866
474 792325 295873
475 804594 328737
476 629574 143376
477 696013 288452
478 723952 264550
479 930626 714316
480 103428 131982
481 545433 179446
482 759723 310947
483 823700 604001
484 724475 390940
485 153195 157188
486 790616 304933
487 743451 293970
488 768773 258690
489 879353 633973
490 897542 598831
491 863670 668598
492 129137 65997
493 915934 319567
494 896138 606408
495 793456 283545
496 839083 690243
497 768101 239139
498 603456 158934
499 875044 385745
500 789539 277086
