NAME : portcgen-600-605
COMMENT : portcgen N=600, seed=605
TYPE : TSP
DIMENSION : 600
EDGE_WEIGHT_TYPE : EUC_2D
NODE_COORD_SECTION
1 889298 640251
2 824652 739464
3 687623 459752
4 780861 352574
5 -49393 432097
6 807296 -10563
7 893496 604320
8 384533 442741
9 711933 515732
10 748808 32753
11 408238 401250
12 760595 45784
13 877648 624960
14 894668 418324
15 454848 493754
16 680634 511062
17 76232 428387
18 472209 493111
19 -44749 399627
20 893348 336955
21 -16294 506069
22 835047 617072
23 756467 6139
24 924735 593608
25 961745 677172
26 718215 464428
27 939409 645377
28 817221 360688
29 877122 653441
30 792354 -20115
31 895300 666821
32 490763 480886
33 748060 46829
34 410004 430561
35 695736 470876
36 -953 498114
37 933863 722441
38 825322 25154
39 760003 482962
40 805346 436475
41 513063 496723
42 750626 -45675
43 665580 456100
44 808518 52989
45 18376 441907
46 676787 464570
47 465888 428865
48 900466 360573
49 693786 485626
50 933858 615628
51 796355 -22609
52 832235 14737
53 740004 79431
54 466657 499393
55 691472 498307
56 740751 14358
57 927501 614015
58 939696 703299
59 889306 669918
60 17853 427369
61 925371 645682
62 798365 431622
63 67543 449310
64 796622 63647
65 653356 482974
66 823596 306832
67 726970 60835
68 810740 89053
69 11955 481079
70 474090 493311
71 598762 485247
72 899761 648894
73 901101 568283
74 446048 438930
75 891040 659377
76 815281 383246
77 696326 401235
78 841353 604549
79 716719 517310
80 740187 468033
81 1551 484406
82 435530 460673
83 770143 78442
84 777119 381441
85 822914 385124
86 793741 64994
87 823412 341799
88 431877 430136
89 61163 395082
90 718874 76555
91 648080 472333
92 780422 409374
93 828822 645571
94 862047 328978
95 911566 616765
96 798137 301317
97 790621 41848
98 8811 508910
99 699278 450372
100 670390 562855
101 955658 654226
102 749487 457544
103 703570 40682
104 903806 639707
105 72780 425973
106 634934 478039
107 495671 476653
108 719124 505805
109 787752 60477
110 824288 308375
111 452691 522399
112 75092 406291
113 728952 513754
114 53224 424673
115 7265 412825
116 24456 421799
117 846336 621645
118 849247 368857
119 914931 593894
120 27607 408690
121 419297 531958
122 830615 65021
123 918765 696109
124 679750 458568
125 433787 481010
126 805083 123609
127 895028 610868
128 847277 676560
129 892353 442835
130 423551 442683
131 680769 63718
132 735538 484308
133 710041 483128
134 709175 446989
135 886395 654491
136 909339 662687
137 787915 10900
138 707938 470075
139 664916 537920
140 935350 644463
141 805949 375766
142 708580 455232
143 409843 451854
144 -16414 467943
145 793756 363547
146 946422 628280
147 -28146 552941
148 839117 393396
149 80453 451410
150 823628 94786
151 899326 623990
152 27630 419612
153 65665 492550
154 455057 412210
155 459338 412404
156 829633 345716
157 872303 602649
158 -25668 453463
159 863200 421427
160 756991 -12950
161 783295 454316
162 -18402 479605
163 776323 75442
164 894314 611845
165 899932 602974
166 3790 470103
167 834304 309265
168 351152 444149
169 425054 397494
170 450065 476801
171 678289 27174
172 853131 314217
173 825952 395833
174 959501 551478
175 410633 460715
176 693109 424857
177 23993 473265
178 793069 328994
179 946137 613730
180 948571 645517
181 788248 357465
182 644360 477994
183 702931 487209
184 544774 511462
185 828464 635111
186 768414 47675
187 712842 470475
188 -49283 491697
189 694982 437763
190 988429 630793
191 792019 349833
192 56503 423356
193 386411 426142
194 755184 78825
195 645980 503350
196 717252 477578
197 711176 401715
198 85093 480097
199 5933 454233
200 658230 425997
201 819667 385914
202 801025 23470
203 60936 424739
204 498843 420278
205 475958 489972
206 734587 106547
207 671781 509964
208 810921 40522
209 401941 403153
210 65674 461959
211 912203 555763
212 679287 447789
213 823499 325873
214 873917 638344
215 60821 463246
216 656628 493052
217 808809 329413
218 781080 6572
219 881998 592963
220 727754 530363
221 777667 32017
222 732704 349420
223 452347 430100
224 484342 517144
225 715839 478926
226 855000 421483
227 -66520 474850
228 826309 424300
229 426069 481172
230 460885 472856
231 790249 43767
232 726302 436987
233 983560 640484
234 433065 377783
235 808455 55800
236 771185 110936
237 948368 659265
238 -40757 453779
239 744757 55582
240 838022 389108
241 712257 40568
242 692516 547052
243 912198 652162
244 660639 516813
245 455794 432974
246 858143 572144
247 703203 551931
248 805890 381281
249 833079 19407
250 449339 489619
251 731954 524815
252 897312 579604
253 32667 424840
254 688166 496382
255 808151 18775
256 481534 460578
257 881026 594555
258 721254 437750
259 702756 531928
260 838651 408020
261 823592 398003
262 902618 654796
263 806691 56042
264 793647 6129
265 688724 413592
266 474254 474568
267 398229 432320
268 906762 353707
269 890994 611136
270 -12361 427485
271 943411 614915
272 1019006 561434
273 18073 419599
274 906202 641338
275 411977 469128
276 696170 51183
277 711307 497048
278 754357 65832
279 891454 659008
280 735705 384014
281 690307 3001
282 428211 406739
283 -25474 427181
284 770897 -23297
285 645310 495138
286 957898 668193
287 -61728 405508
288 720363 437713
289 465206 406012
290 848231 375407
291 736178 58814
292 677370 451235
293 889614 616001
294 674898 423939
295 71429 434434
296 931586 672038
297 816468 9836
298 50566 537557
299 882691 611171
300 870269 643271
301 435164 440662
302 908536 700489
303 691643 497396
304 816820 434931
305 803812 53602
306 694462 410935
307 434897 365861
308 692316 543151
309 442558 457932
310 881712 599188
311 769924 454231
312 746674 26827
313 879624 620160
314 484317 537860
315 846562 13129
316 91664 419906
317 814785 77485
318 776230 121354
319 650091 438511
320 -49057 378411
321 12488 469951
322 697507 9849
323 776001 550601
324 783772 22621
325 896655 612431
326 358969 501923
327 67485 429035
328 920906 671128
329 915344 635659
330 934038 671638
331 742110 502002
332 968958 634403
333 869349 655178
334 855692 330941
335 87949 387662
336 801164 678602
337 854712 392522
338 25149 470824
339 2374 412094
340 816480 300201
341 871640 619857
342 820438 746538
343 888206 614583
344 843945 622934
345 451874 471863
346 800669 54875
347 747451 441952
348 740820 341682
349 48187 401367
350 59048 358707
351 695074 442884
352 817465 -5930
353 467409 427079
354 865059 607494
355 790002 39251
356 762415 373630
357 404138 526215
358 910115 656069
359 750084 73126
360 625688 464140
361 780331 41332
362 484234 431877
363 1429 410391
364 99513 556678
365 381338 393705
366 800928 385753
367 476219 480401
368 874909 599751
369 719493 437394
370 44210 499770
371 858169 698290
372 777247 115065
373 392174 429143
374 430534 464136
375 876227 610571
376 492262 434767
377 857999 534930
378 882016 270957
379 805163 87431
380 773383 348164
381 400721 472133
382 723151 516038
383 772350 22408
384 787483 338123
385 727698 500970
386 749227 55437
387 753154 27647
388 651124 452163
389 768428 430353
390 921409 678090
391 47645 447763
392 768920 449101
393 737847 -8700
394 734230 370382
395 752476 -13031
396 752415 -52243
397 832392 333232
398 832583 410638
399 730599 435758
400 813276 55749
401 629925 476289
402 771593 21740
403 906147 613462
404 716655 42512
405 774517 388687
406 -16587 480332
407 701737 501083
408 18865 509295
409 902328 660943
410 427937 479401
411 810055 373430
412 887426 329222
413 739163 -19886
414 -38104 435540
415 782710 373785
416 523989 538543
417 836453 307575
418 880041 677905
419 485020 441516
420 -11471 361352
421 891937 361733
422 726100 15571
423 -11040 538981
424 34015 465557
425 764437 2657
426 508460 464658
427 807015 643472
428 63953 457941
429 727508 485521
430 432187 452090
431 664412 443560
432 52316 414096
433 624304 446277
434 852870 616797
435 669158 61980
436 -4951 500458
437 373591 506958
438 820101 323800
439 698669 424333
440 653551 485744
441 418705 412154
442 848174 430847
443 766578 -10351
444 706490 59553
445 899720 604011
446 877606 467468
447 451207 402653
448 679526 484505
449 897320 641841
450 866865 388673
451 799871 -2000
452 37099 423577
453 70147 501010
454 755790 46900
455 889940 650433
456 812316 639529
457 797982 472388
458 941191 603104
459 13385 404440
460 36046 508989
461 17634 390856
462 865455 323472
463 748748 8160
464 844360 341708
465 919000 592059
466 902684 380696
467 701407 -32353
468 37209 449539
469 847189 365070
470 628674 479179
471 651224 494022
472 869462 675260
473 730573 493269
474 972216 668297
475 818465 53836
476 955941 654349
477 857890 690713
478 64068 462616
479 11390 392933
480 -27517 431602
481 642551 458280
482 685230 484161
483 887039 599135
484 840300 339112
485 917525 696089
486 930516 593836
487 933912 666677
488 837452 365419
489 843568 418933
490 813777 360926
491 1811 501239
492 100119 469525
493 19308 428310
494 54275 458676
495 16699 455647
496 877071 617877
497 805614 416847
498 735201 331
499 715098 409847
500 731855 427902
501 61526 432749
502 474386 482158
503 929413 687729
504 848087 22472
505 779111 421665
506 407111 501019
507 761360 482168
508 434514 429439
509 25229 436137
510 772943 316300
511 804579 19135
512 75350 482201
513 490360 405114
514 40441 447227
515 749763 -6417
516 435153 516669
517 -49761 428624
518 851708 591026
519 934175 642824
520 981831 572511
521 15803 445838
522 750514 150323
523 612993 386317
524 721409 110561
525 -8449 452036
526 852714 331938
527 809928 105499
528 835113 402876
529 767810 96836
530 50932 399452
531 -37543 493592
532 869386 448214
533 44700 505570
534 685989 546677
535 438012 508247
536 690024 553045
537 684626 449099
538 985358 514219
539 799973 286674
540 650853 481056
541 698428 547121
542 801247 362903
543 787415 489932
544 7810 450402
545 704253 421933
546 633149 506263
547 866532 605231
548 816623 413081
549 351218 438989
550 799378 352091
551 845560 406539
552 484987 507037
553 58344 374006
554 830426 380782
555 711416 481180
556 668627 465689
557 857986 630232
558 869801 330577
559 684750 16677
560 782266 44327
561 709897 484021
562 686214 528365
563 682343 461772
564 775297 25553
565 406666 467923
566 46296 460039
567 771022 539796
568 742091 463009
569 935460 683154
570 896863 628955
571 860899 439451
572 892187 544704
573 854260 328855
574 707191 474318
575 691608 10062
576 433564 534506
577 60647 369837
578 944844 621749
579 -437 412966
580 752730 463072
581 729715 75203
582 769378 34941
583 904835 711764
584 898504 620489
585 656966 502023
586 820665 89542
587 910199 545777
588 472946 413115
589 -17757 474910
590 819565 403275
591 875108 671877
592 712582 547689
593 951758 598775
594 772692 350566
595 789365 423922
596 913331 687791
597 775822 419190
598 785005 69575
599 813701 46912
600 64747 448312
