NAME : portcgen-1300-1310
COMMENT : portcgen N=1300, seed=1310
TYPE : TSP
DIMENSION : 1300
EDGE_WEIGHT_TYPE : EUC_2D
NODE_COORD_SECTION
1 26344 637167
2 770251 730398
3 759257 140065
4 378654 639743
5 884329 615921
6 901044 572786
7 935789 139311
8 827709 238232
9 798345 411601
10 347527 962746
11 285684 486193
12 383751 993389
13 758089 157983
14 958747 62182
15 52132 604466
16 852332 172785
17 84261 655168
18 383405 649034
19 811810 261262
20 866748 634037
21 1024466 60669
22 897526 642392
23 800841 200796
24 882147 630973
25 904592 500714
26 392940 666851
27 838560 467441
28 970636 66577
29 777649 332188
30 819265 749948
31 758612 407992
32 57104 632500
33 767604 742731
34 797965 254152
35 243593 580693
36 833548 425638
37 1002030 120650
38 788848 461202
39 817720 816154
40 819269 387685
41 931259 480624
42 1012534 105155
43 918895 519430
44 841427 469377
45 815832 239605
46 837430 261208
47 799152 145607
48 319689 534258
49 763987 138725
50 894103 592642
51 101584 617799
52 746156 174595
53 368874 595161
54 94028 614107
55 704625 869796
56 786076 459271
57 939081 140399
58 985746 80546
59 330596 508567
60 754862 139639
61 982976 98725
62 355371 978202
63 779270 789734
64 800241 596263
65 94014 626291
66 825907 269298
67 982875 71847
68 104315 627256
69 307413 505146
70 804039 287892
71 640097 871429
72 875564 642431
73 919354 640575
74 662453 821667
75 802140 734708
76 839613 392005
77 295001 1058966
78 126690 634128
79 878697 560752
80 406531 676192
81 717729 126376
82 809312 287199
83 775933 481063
84 965110 437699
85 759075 129796
86 831233 372830
87 867309 629358
88 751660 194548
89 325056 995970
90 312463 1013178
91 347892 990103
92 800628 407978
93 791248 536592
94 950784 438575
95 821508 452762
96 972197 29405
97 770924 491320
98 903258 448688
99 1004793 69117
100 62652 666149
101 278493 988270
102 846222 238402
103 88087 593982
104 317085 990753
105 758720 187081
106 308512 514602
107 810525 423282
108 803287 507854
109 921125 463178
110 989560 52067
111 668448 832142
112 925737 448596
113 966567 114543
114 761529 240594
115 964077 110766
116 882117 564023
117 769189 421987
118 63756 616057
119 688973 844769
120 896596 644442
121 788650 192520
122 1003933 31824
123 916966 620526
124 739528 245422
125 828380 203542
126 768659 170073
127 325367 1034961
128 768455 246059
129 77569 615210
130 995211 482623
131 978240 100676
132 445912 569326
133 787907 439830
134 401126 669059
135 941770 508960
136 92959 582151
137 405601 635435
138 784280 481385
139 723357 749047
140 769403 163610
141 909897 625810
142 311616 1037326
143 111221 585898
144 780069 194444
145 306519 526327
146 61111 648535
147 810879 755438
148 787186 417351
149 810812 769406
150 807777 200635
151 345551 1053925
152 445242 662870
153 985189 491308
154 380220 628427
155 908928 602432
156 316693 556841
157 41593 624357
158 743043 755020
159 116502 617639
160 790092 161518
161 626483 859126
162 476318 679550
163 848832 300714
164 87515 570711
165 309033 520334
166 976437 123740
167 883877 554970
168 806489 422840
169 400723 618059
170 887815 629700
171 364449 616028
172 117855 552006
173 103438 622364
174 274917 983405
175 782583 800436
176 708154 852462
177 819849 627481
178 38164 609351
179 974086 118154
180 101142 662199
181 777300 137021
182 394530 605392
183 902873 420282
184 774222 166314
185 907583 452079
186 796766 394896
187 761498 759690
188 784037 372340
189 408634 691511
190 914411 474985
191 759186 291448
192 454690 622492
193 788726 144344
194 803308 481425
195 71375 640915
196 791215 395939
197 931101 658180
198 858962 504201
199 844259 288917
200 880877 586610
201 947857 508280
202 295916 1032705
203 753695 825384
204 77204 677980
205 828579 394759
206 812471 219748
207 356860 1012122
208 123032 630659
209 842382 653764
210 803614 415710
211 861980 540485
212 671152 878580
213 810250 253130
214 783664 248558
215 842473 397832
216 306938 983432
217 851573 601789
218 793081 369030
219 805151 266906
220 264076 498271
221 53658 660988
222 675857 867475
223 825474 411624
224 771239 540272
225 26954 667579
226 321304 511539
227 783206 397257
228 752289 182240
229 755565 738593
230 763839 500100
231 422100 628316
232 691209 858177
233 910602 609543
234 793697 813525
235 823003 826362
236 791935 439956
237 350995 972890
238 332121 498149
239 755328 235202
240 768244 223439
241 696419 840784
242 382463 653027
243 882344 652653
244 289802 1029991
245 886981 647725
246 763422 750947
247 817094 506601
248 837191 213355
249 769097 728833
250 741203 717157
251 744227 742643
252 67283 631514
253 904085 636872
254 433966 611066
255 1046773 67098
256 310697 509605
257 787719 779065
258 912045 486249
259 829660 359116
260 934986 429601
261 72236 661675
262 895692 481718
263 867241 591523
264 401452 642327
265 403397 615443
266 979989 490871
267 937077 508851
268 815709 419655
269 345937 592683
270 725309 809934
271 443781 694746
272 799639 727602
273 987426 90381
274 393746 644568
275 311098 498272
276 759206 750674
277 870958 619932
278 808341 169148
279 810646 497942
280 817635 286468
281 773714 749386
282 342191 1005719
283 824343 673671
284 654084 886440
285 931648 508121
286 897251 484916
287 996506 75617
288 848569 481796
289 911908 444216
290 754517 155860
291 845168 392301
292 1011524 114631
293 441484 630770
294 109498 650206
295 396268 977352
296 889851 596489
297 663165 830100
298 1014323 43786
299 323588 444939
300 313543 537181
301 692569 865498
302 465045 659738
303 875182 580812
304 756546 527696
305 796110 367588
306 896437 602705
307 69431 662730
308 821125 474827
309 894373 654083
310 662713 857489
311 791887 801256
312 1001472 43088
313 410607 659925
314 974513 107090
315 308777 494106
316 310871 977375
317 731034 880869
318 721353 864403
319 91014 648202
320 401803 636928
321 59654 645663
322 37023 675827
323 822594 643179
324 100589 652537
325 428623 672829
326 990091 67810
327 764321 782795
328 751222 229107
329 928282 482759
330 674492 911656
331 828567 290939
332 902142 586074
333 279606 983960
334 251585 531350
335 923790 638036
336 337271 980682
337 382360 647363
338 440579 650386
339 930494 475303
340 746697 166966
341 124681 600525
342 700815 875952
343 391423 618679
344 839720 489246
345 899596 485199
346 336261 456658
347 926311 429712
348 693111 865526
349 385805 663124
350 667163 844418
351 698300 846821
352 799051 490355
353 341403 697652
354 803990 391226
355 497698 689801
356 806283 519761
357 379683 629205
358 853725 298712
359 800457 771316
360 1008919 76316
361 629603 892215
362 309485 544623
363 694416 887500
364 907966 466264
365 461180 655630
366 876995 569754
367 166053 614434
368 781262 789689
369 910233 463835
370 1006141 56350
371 841283 464896
372 805608 497821
373 1031461 69076
374 720560 883519
375 949881 453515
376 318632 529519
377 854304 620920
378 821202 274965
379 296012 536137
380 73501 585091
381 304145 534710
382 796057 530488
383 937104 439405
384 294305 528814
385 929349 469999
386 741552 829386
387 885207 558611
388 112444 646514
389 461792 633011
390 892200 650262
391 74186 668285
392 885410 611334
393 838282 461148
394 792006 247636
395 961661 119589
396 806862 464700
397 1039190 140045
398 816919 487161
399 932821 528839
400 790118 251128
401 361796 532221
402 808132 515601
403 988381 88601
404 330764 526364
405 820968 356219
406 662924 868576
407 818985 363982
408 820905 185760
409 976273 47836
410 389373 669382
411 801748 738926
412 977428 82307
413 257008 575201
414 849049 626071
415 635577 864477
416 331605 532752
417 961498 418283
418 762874 288955
419 744870 779785
420 810858 234650
421 973695 469763
422 876687 644589
423 873752 642493
424 859448 501803
425 757150 264735
426 998697 76556
427 981352 71923
428 752925 161258
429 804480 267029
430 814281 473115
431 785582 482814
432 394678 630606
433 912250 624791
434 947917 467204
435 693822 865464
436 745972 741554
437 829761 457431
438 64886 639838
439 819561 414009
440 267528 974617
441 348312 974159
442 404478 658905
443 410647 633073
444 758438 139140
445 923085 492666
446 853125 641306
447 907830 521957
448 815829 516650
449 136348 636267
450 807566 416343
451 1033212 82957
452 884894 351975
453 91888 557359
454 799874 214977
455 285436 535439
456 775097 197007
457 926403 450649
458 281608 520423
459 836310 631473
460 371810 965099
461 991979 117998
462 937707 458461
463 746766 778676
464 845673 640280
465 118503 683817
466 314081 1011541
467 781907 754448
468 371014 1011400
469 757942 188743
470 390200 578834
471 763529 186272
472 804833 363455
473 819592 304782
474 896462 584692
475 699220 873501
476 876292 665612
477 928357 446153
478 387364 646870
479 722315 819660
480 116078 628270
481 343289 1011416
482 427867 641609
483 677836 880670
484 715390 153995
485 360477 650117
486 851218 399506
487 786328 209319
488 1057977 110884
489 852264 607681
490 755484 786991
491 761770 801346
492 1012742 86100
493 867630 619753
494 289126 999596
495 805901 294050
496 328256 478616
497 319566 503044
498 310190 653454
499 245789 531935
500 840036 456443
501 950503 95526
502 1041053 61267
503 791404 126621
504 752134 726125
505 949181 467903
506 802264 272174
507 270867 959583
508 81127 643441
509 814294 259447
510 860312 569881
511 799316 518440
512 885972 585280
513 906627 497503
514 712251 885685
515 835338 496722
516 861895 416650
517 789795 169749
518 631092 865666
519 799339 395995
520 751186 189033
521 775326 367158
522 90152 646246
523 685030 832527
524 985926 31353
525 813553 259102
526 378302 686269
527 722609 182271
528 82404 627987
529 673619 794749
530 814670 495141
531 762395 172031
532 838359 313646
533 349604 505705
534 961895 474921
535 813740 764210
536 936907 491808
537 780413 177107
538 44197 650192
539 854036 434909
540 889689 464843
541 670497 840860
542 815976 528616
543 854020 624337
544 969095 482627
545 779724 173833
546 834324 405271
547 937885 509331
548 817715 444188
549 328291 994071
550 59637 646843
551 770989 743535
552 100221 628070
553 928076 519514
554 776119 161150
555 770488 769893
556 706564 857594
557 842325 476024
558 308776 961661
559 1016377 123144
560 904785 617490
561 746592 171213
562 884923 503697
563 804182 216222
564 939679 519399
565 1003653 134226
566 796380 242926
567 662615 882190
568 833545 627273
569 903329 464491
570 402460 643303
571 312511 979756
572 821240 234703
573 333278 1040085
574 814712 358233
575 784787 498004
576 846559 268720
577 775854 705574
578 808397 179039
579 908680 635617
580 347424 957519
581 752283 203881
582 831549 500437
583 781260 366613
584 827932 389944
585 972430 484637
586 320973 1010050
587 336414 463738
588 312173 498010
589 725246 146925
590 692357 825855
591 301715 519832
592 748977 156904
593 337974 973620
594 780390 121408
595 726291 857805
596 814110 780010
597 807166 142741
598 840219 343170
599 869648 601545
600 426475 653772
601 868665 607141
602 937079 92797
603 287112 473148
604 678758 892802
605 1000890 126981
606 351877 1001333
607 120286 585633
608 890017 473394
609 845014 389097
610 85518 608432
611 310805 1006436
612 61345 652729
613 950667 69616
614 341813 972927
615 900643 517284
616 809920 355327
617 801786 172180
618 400203 595975
619 805512 726420
620 421347 658080
621 997320 99268
622 971514 95085
623 896640 610118
624 802896 241147
625 800047 803881
626 882441 624913
627 337516 952757
628 57980 593883
629 874979 248451
630 900559 642920
631 813529 553344
632 769639 497485
633 1007456 32744
634 893844 501697
635 328295 524606
636 968376 95879
637 756959 163062
638 888158 631200
639 749991 892611
640 943156 512622
641 820228 364097
642 412633 696145
643 768749 478787
644 289942 518227
645 666242 892139
646 312757 505042
647 81182 598319
648 932801 385209
649 80558 595234
650 813486 264831
651 961095 136786
652 795351 179986
653 440774 634294
654 739440 783183
655 292099 537730
656 1008033 92070
657 856898 637039
658 752830 852371
659 799759 211128
660 826674 498064
661 968597 125949
662 365128 458700
663 815052 369308
664 897678 586470
665 1042738 66809
666 335728 999862
667 811003 535207
668 818468 733717
669 785862 761166
670 339325 1030303
671 129540 586945
672 907694 591504
673 760511 737828
674 686944 886917
675 985576 96929
676 393759 1004768
677 296492 528012
678 835311 507097
679 894296 629986
680 917391 475337
681 691687 897987
682 837146 383247
683 806461 745261
684 797599 339729
685 996067 67995
686 305979 513773
687 888874 479182
688 389830 660849
689 786302 410805
690 336050 517444
691 820931 350308
692 327997 508988
693 769242 179920
694 393939 656156
695 844572 298782
696 932993 484637
697 882234 255603
698 87920 641580
699 805562 359835
700 285487 523818
701 681169 840625
702 751121 803276
703 895177 567218
704 987833 77211
705 880165 621415
706 850912 578153
707 690830 809423
708 834955 415602
709 706750 846820
710 917978 455194
711 881125 465540
712 817072 276786
713 705972 875765
714 845437 397444
715 398500 671774
716 317800 1007908
717 669091 847028
718 374428 928670
719 673380 870608
720 805272 514821
721 853210 756138
722 668861 910886
723 316884 559629
724 413677 601143
725 764141 667383
726 625403 859912
727 313578 518856
728 291081 541198
729 893143 627103
730 816914 203301
731 756676 757785
732 690635 852556
733 904237 514704
734 882709 447522
735 690056 828942
736 951273 71822
737 817913 210978
738 18411 598774
739 870477 613135
740 929791 592884
741 690189 915208
742 811301 458970
743 921694 484341
744 406069 637660
745 331727 518336
746 386392 980458
747 912624 452540
748 915187 525617
749 793561 531628
750 790020 548316
751 1001140 103651
752 787806 130813
753 759816 787689
754 889750 466062
755 313827 976893
756 765160 771025
757 759960 738101
758 904403 616429
759 811731 240747
760 902887 472465
761 691623 867930
762 803235 514685
763 946098 510298
764 761938 188381
765 373319 631307
766 56363 613485
767 287913 483193
768 981619 70452
769 332452 658513
770 932420 459819
771 291879 1050487
772 313484 515277
773 322370 512494
774 770986 418722
775 911513 603491
776 958772 449986
777 785699 784815
778 56316 640815
779 744608 202750
780 879742 377256
781 878271 479751
782 781686 786286
783 937827 70049
784 819648 695066
785 801910 391868
786 944624 449295
787 903464 546540
788 667399 872569
789 845911 385081
790 804925 262422
791 788181 341645
792 810869 771902
793 842408 313775
794 375676 626425
795 695069 822050
796 802310 744658
797 428593 675456
798 800262 248238
799 798642 186116
800 799078 394199
801 295300 543053
802 318452 502046
803 955458 105653
804 294712 436761
805 939338 97355
806 772164 157636
807 742857 495260
808 918829 628595
809 362219 980426
810 804762 265428
811 813584 306632
812 305064 1026754
813 793937 423253
814 55078 672171
815 809128 386508
816 291060 473299
817 50170 628265
818 753715 164017
819 726008 175542
820 724486 892900
821 751533 169570
822 730244 770898
823 784331 191678
824 804831 375308
825 790288 501137
826 787130 276589
827 808986 492837
828 273621 538870
829 968739 81967
830 324230 969256
831 996406 79675
832 865183 593110
833 431239 661482
834 764189 745027
835 833664 605891
836 954271 502116
837 946292 56196
838 906316 483756
839 701516 118548
840 59792 627874
841 797762 175052
842 321172 435641
843 690036 880815
844 890202 591934
845 828612 588183
846 364430 691858
847 953350 441617
848 821446 520294
849 399171 669937
850 883550 544480
851 919926 603366
852 775421 766075
853 672667 890775
854 767323 203257
855 829337 392835
856 851973 533822
857 821140 500381
858 770216 214415
859 384085 695214
860 77881 621864
861 800338 348032
862 1027182 69811
863 398466 646760
864 833188 588749
865 880894 613815
866 996093 84731
867 1021665 102172
868 862407 224665
869 852357 411368
870 1001314 123503
871 848930 600472
872 796741 505233
873 944096 511979
874 782243 519402
875 733588 162941
876 778256 496349
877 995039 86710
878 898129 643382
879 689545 890490
880 732971 876240
881 760933 187282
882 917390 544579
883 665680 845088
884 340717 1002335
885 912842 618560
886 796861 362357
887 818763 765536
888 776196 479780
889 735530 141036
890 360868 935513
891 109185 658791
892 669866 848326
893 816327 205449
894 1005664 134411
895 710793 897652
896 723693 161985
897 778641 166073
898 968086 483303
899 869921 662952
900 783870 787491
901 403239 656790
902 803284 270319
903 313906 992564
904 461377 658527
905 887318 559357
906 819052 298474
907 972356 92118
908 56885 605499
909 954448 498729
910 688612 800892
911 64211 630084
912 68300 606057
913 60500 645614
914 339763 990043
915 783642 672019
916 760363 131459
917 963335 98111
918 313593 1005214
919 864453 445544
920 776621 178870
921 868747 638984
922 785757 298302
923 823948 419223
924 719329 215529
925 55662 633565
926 83995 612712
927 852564 182976
928 759334 153417
929 788529 775050
930 409104 634884
931 1051959 66063
932 753015 739213
933 910604 477148
934 832954 530642
935 782485 170726
936 42628 679204
937 1026314 79735
938 884343 451188
939 935809 443537
940 705996 864900
941 802083 162563
942 725283 855248
943 776102 267174
944 803272 454613
945 800212 542173
946 1008473 106914
947 831867 464162
948 804493 249124
949 805293 391500
950 87230 633585
951 715931 762530
952 431455 644288
953 65367 595864
954 792516 235394
955 319657 507113
956 399476 613516
957 830462 425906
958 809228 257848
959 271689 511921
960 89356 649813
961 699097 845608
962 1025746 99804
963 885906 672804
964 883332 457275
965 1027928 80652
966 401619 673294
967 719615 192502
968 980230 441292
969 692039 848967
970 332965 1007215
971 61907 612956
972 1009346 90148
973 400493 649822
974 812547 536917
975 762826 483405
976 980523 56606
977 810138 372220
978 870842 598000
979 397867 707910
980 335378 1052462
981 887240 630215
982 85491 592107
983 246281 520105
984 934752 83122
985 278492 495372
986 45114 657104
987 339252 1027302
988 951825 501202
989 381727 595037
990 763905 485369
991 390880 662301
992 995651 66322
993 732211 161659
994 807163 480930
995 807496 567298
996 774564 391980
997 339267 487899
998 677546 870767
999 756766 144087
1000 822089 391636
1001 756929 764630
1002 823193 300988
1003 92034 617528
1004 877283 449527
1005 817293 261153
1006 882484 468482
1007 857206 415115
1008 721915 534437
1009 88597 595301
1010 821044 477628
1011 923621 432574
1012 891154 494319
1013 803353 430293
1014 840320 244428
1015 399557 697307
1016 129873 647634
1017 362566 571217
1018 316797 541028
1019 910856 456486
1020 125743 606749
1021 348324 497413
1022 739211 405794
1023 321564 469927
1024 403317 661577
1025 805273 221828
1026 825034 494189
1027 795104 469522
1028 796118 729878
1029 289651 500030
1030 343400 1000710
1031 837804 383661
1032 830403 348647
1033 344008 576260
1034 793042 685503
1035 120424 635380
1036 923773 437214
1037 772648 753108
1038 791917 451362
1039 795100 169894
1040 775815 308053
1041 303948 512043
1042 133777 585755
1043 784999 805111
1044 680203 826178
1045 394268 646727
1046 782343 191441
1047 911621 623833
1048 769722 759559
1049 808586 402980
1050 393569 688778
1051 751641 761371
1052 840942 383144
1053 381555 656239
1054 673368 885529
1055 73158 668855
1056 780278 241415
1057 85618 646076
1058 874236 646263
1059 275983 487278
1060 889444 412368
1061 396643 646578
1062 954753 481705
1063 891395 605479
1064 947107 58609
1065 916488 493376
1066 787371 731991
1067 944691 479363
1068 804944 149907
1069 776356 411075
1070 780231 173863
1071 990974 498871
1072 807709 687824
1073 810416 554548
1074 302909 569481
1075 785379 376168
1076 794223 244933
1077 893917 583875
1078 327030 473267
1079 112558 611273
1080 940185 498973
1081 303390 975141
1082 735092 252102
1083 901171 587243
1084 87063 619409
1085 388197 645322
1086 790708 183539
1087 299771 497943
1088 126044 628885
1089 980913 100536
1090 801523 366444
1091 909374 468753
1092 392073 625735
1093 806208 124152
1094 970869 483712
1095 369912 605139
1096 667063 843025
1097 815026 503172
1098 823178 281513
1099 347525 645596
1100 835957 407886
1101 812758 419686
1102 67499 650714
1103 965578 75370
1104 680286 850168
1105 859844 601021
1106 818245 625532
1107 831850 304441
1108 446059 651715
1109 306630 1017420
1110 782501 757043
1111 864955 611274
1112 793127 548549
1113 291208 520673
1114 810626 469558
1115 344231 963977
1116 313163 506461
1117 820671 735363
1118 836274 491865
1119 912203 493999
1120 894894 649293
1121 371471 644052
1122 839067 290779
1123 766523 498434
1124 313836 1017567
1125 806501 479780
1126 821820 238315
1127 889832 511412
1128 856381 646973
1129 362678 660866
1130 1009425 120118
1131 976575 489892
1132 836662 404080
1133 302019 496600
1134 976678 473206
1135 1001539 94021
1136 323911 1047224
1137 400456 643303
1138 65656 592892
1139 845220 270385
1140 868652 412247
1141 809985 162660
1142 52993 569537
1143 788351 429923
1144 970125 98015
1145 304724 535232
1146 782495 117302
1147 808693 146330
1148 774442 764736
1149 768832 420690
1150 51272 642228
1151 921593 594917
1152 352106 537076
1153 333333 535176
1154 952251 471635
1155 825486 304761
1156 839793 442820
1157 886167 493883
1158 861741 586538
1159 839748 635719
1160 264817 488007
1161 743857 882650
1162 848923 398902
1163 822567 492197
1164 799097 367404
1165 250187 544965
1166 781612 713095
1167 334801 545899
1168 859736 616678
1169 305048 517072
1170 339451 1019473
1171 794719 451366
1172 631016 887201
1173 783831 135454
1174 756733 104096
1175 811632 281302
1176 254045 538927
1177 50619 627630
1178 757321 180187
1179 866901 570869
1180 317809 545506
1181 62764 640695
1182 299392 967336
1183 774943 753676
1184 39841 626262
1185 684671 875108
1186 792499 364952
1187 918570 559980
1188 836257 225842
1189 328060 514634
1190 756710 323323
1191 725580 819118
1192 871121 599761
1193 795461 195064
1194 441455 658727
1195 941854 457275
1196 833432 487252
1197 283472 1035915
1198 64081 637359
1199 375870 646976
1200 783864 418710
1201 375987 684759
1202 799531 420028
1203 318338 1021878
1204 828826 373951
1205 767959 385175
1206 776273 711949
1207 348501 1030358
1208 718715 198716
1209 1012687 84447
1210 773353 785130
1211 830819 312044
1212 803502 767413
1213 774390 200673
1214 333490 999773
1215 902680 634439
1216 759313 150312
1217 971058 101452
1218 387259 615595
1219 787784 454925
1220 986693 100517
1221 437715 659740
1222 285216 1005530
1223 28253 622531
1224 931539 517161
1225 816248 726876
1226 127660 574486
1227 792637 733461
1228 409329 627584
1229 724125 178825
1230 993372 39738
1231 688708 847558
1232 822923 258373
1233 851467 375618
1234 764320 234210
1235 859065 589845
1236 771404 774696
1237 840829 408157
1238 770941 236299
1239 741704 857756
1240 419171 644343
1241 813587 773388
1242 657410 933874
1243 786023 269108
1244 278960 478554
1245 763371 770105
1246 51751 620944
1247 388113 648656
1248 855909 491941
1249 435713 665960
1250 997159 42542
1251 325689 984466
1252 1004540 104296
1253 976143 75287
1254 742094 754609
1255 902259 485968
1256 919207 456030
1257 781943 131982
1258 835857 542074
1259 673008 874938
1260 885672 600470
1261 795996 230021
1262 768419 247166
1263 349062 630764
1264 748630 171422
1265 787748 161613
1266 840061 569182
1267 802630 164406
1268 977417 85430
1269 325610 970120
1270 777780 756129
1271 820752 242553
1272 887367 616471
1273 339502 997481
1274 759886 771789
1275 787569 756510
1276 315079 515322
1277 875313 653701
1278 393716 676229
1279 674240 857741
1280 825794 733019
1281 856362 598362
1282 942296 533470
1283 653860 873949
1284 906444 615737
1285 102965 606703
1286 18112 623523
1287 797687 813331
1288 1049590 102322
1289 776695 752512
1290 679502 874962
1291 371259 1047315
1292 69571 608277
1293 794433 467937
1294 804836 384700
1295 95333 625171
1296 717217 803246
1297 396471 681060
1298 799777 358199
1299 904033 530610
1300 789408 301390
