NAME : portcgen-1400-1406
COMMENT : portcgen N=1400, seed=1406
TYPE : TSP
DIMENSION : 1400
EDGE_WEIGHT_TYPE : EUC_2D
NODE_COORD_SECTION
1 967765 482670
2 493607 967457
3 292302 383311
4 647229 722370
5 175553 141032
6 721538 768667
7 974527 792164
8 956472 371167
9 275005 428173
10 672659 747485
11 209487 490672
12 430584 734451
13 88540 108389
14 378332 495706
15 679143 741925
16 678174 734164
17 583820 920005
18 572806 911327
19 939579 767781
20 205348 660975
21 373536 499904
22 699268 760560
23 186517 411363
24 412262 795900
25 394510 735181
26 218529 610294
27 959951 419943
28 651017 666617
29 188957 607834
30 200341 619063
31 262233 463664
32 971960 783400
33 234311 637534
34 983801 404391
35 226313 688853
36 400940 117461
37 562434 890039
38 381530 537638
39 661322 736516
40 900773 757851
41 324866 369573
42 121285 61274
43 188572 443000
44 380266 547147
45 468451 951294
46 204926 649861
47 110889 65845
48 463162 67098
49 619981 876918
50 432437 971946
51 312004 367555
52 488267 1022048
53 489600 128531
54 410486 536505
55 229994 612530
56 379889 109614
57 428223 745725
58 945828 762418
59 931781 798135
60 537800 933441
61 137596 438698
62 323497 387794
63 438890 962815
64 386378 545716
65 199201 440468
66 971024 411547
67 148291 439888
68 122653 117111
69 655366 720461
70 689387 746903
71 425966 752753
72 640519 704266
73 522311 877718
74 438334 91634
75 981769 411776
76 609000 941998
77 180261 636957
78 984503 825949
79 143394 93125
80 896751 755013
81 365262 504988
82 168640 477764
83 974486 823905
84 967147 405539
85 189213 446601
86 679932 744365
87 594570 912062
88 951660 357649
89 169480 463607
90 659708 709288
91 979391 834672
92 300685 318819
93 949113 826701
94 186600 423845
95 125790 122013
96 960523 857048
97 116325 453391
98 293291 364704
99 963437 762771
100 419524 1000541
101 572652 938324
102 365822 765541
103 312935 341112
104 365965 468346
105 934012 799717
106 440145 942505
107 181559 415498
108 196275 505883
109 696571 746568
110 458430 117515
111 948474 425766
112 361247 111211
113 640902 756325
114 702788 693952
115 166727 462131
116 637301 726955
117 929490 747371
118 943760 808043
119 713895 686108
120 652839 703665
121 519639 965959
122 401205 771146
123 211481 476833
124 356685 522404
125 587481 955789
126 132654 82460
127 906029 777253
128 153199 470832
129 320973 339602
130 398898 517581
131 198945 620471
132 180778 655422
133 992855 811599
134 386122 562809
135 258217 358765
136 531675 917684
137 940421 785300
138 482534 780973
139 422495 726347
140 161130 450604
141 997076 797619
142 947329 814450
143 128163 121849
144 185473 438112
145 274305 400076
146 422074 752390
147 508687 966722
148 374891 543528
149 202450 591763
150 356954 476953
151 443465 723490
152 660043 709355
153 141371 108614
154 345682 390615
155 953648 384665
156 153672 456994
157 137316 412684
158 431650 941259
159 194313 586227
160 909134 783948
161 417078 64257
162 929763 768113
163 188519 648955
164 358330 519889
165 175051 470443
166 386056 105137
167 149752 616802
168 577794 943725
169 129890 111567
170 994120 732788
171 651170 688400
172 635964 652000
173 921846 809259
174 611692 911889
175 933711 757684
176 677630 711110
177 488186 968185
178 452099 757822
179 361787 509587
180 285816 386362
181 432957 761819
182 962608 378648
183 193474 110991
184 947816 801650
185 208881 634460
186 638230 710546
187 945100 786421
188 938817 808340
189 489912 967959
190 679811 732498
191 188295 669278
192 445760 989929
193 924725 809298
194 380386 521494
195 199946 461245
196 606653 673290
197 931273 757660
198 649381 699618
199 980151 404696
200 627811 686161
201 973121 394785
202 148858 77200
203 410180 779378
204 358187 550423
205 560869 868966
206 615438 922991
207 429863 50142
208 181678 423105
209 465874 977692
210 930605 800856
211 486634 968140
212 410816 479168
213 610332 936301
214 614648 745028
215 940793 795443
216 179528 433302
217 458175 969258
218 576301 920062
219 911226 769879
220 1006306 754967
221 677024 721211
222 557251 939048
223 442093 963389
224 438259 96903
225 584653 913552
226 677036 745559
227 954585 818394
228 568951 927709
229 693661 714123
230 342526 337717
231 217639 656313
232 642925 719885
233 426983 689212
234 153820 93726
235 642949 713837
236 675562 726685
237 460619 956659
238 540193 910628
239 914040 835383
240 311167 345811
241 419408 103655
242 624819 744877
243 997446 792851
244 681556 824494
245 247235 626999
246 357536 558029
247 569525 835636
248 429378 105734
249 922752 772147
250 639576 903365
251 566857 900165
252 664413 713008
253 210862 479981
254 915057 766877
255 661572 685528
256 473840 80247
257 398787 525102
258 435405 986743
259 550676 934908
260 955750 787052
261 360489 446009
262 230511 692147
263 685710 777390
264 392886 550456
265 969637 834739
266 719572 731079
267 384742 462829
268 425548 926396
269 654413 724845
270 991524 412883
271 210579 421134
272 602141 905579
273 969388 782490
274 416701 51128
275 588662 987015
276 166506 475151
277 769605 732936
278 670865 761770
279 426644 750244
280 353254 516935
281 182248 462909
282 966929 371742
283 382656 505255
284 924694 776095
285 927314 809826
286 213483 676846
287 348313 506306
288 529832 895490
289 918772 760808
290 941470 780908
291 896806 789803
292 621419 711844
293 407027 146563
294 150990 443898
295 365257 501582
296 160394 106921
297 385115 486792
298 130636 97003
299 660159 733079
300 609255 892846
301 326218 401697
302 443889 64041
303 359804 390731
304 304875 345167
305 198547 667029
306 175405 437949
307 657005 719194
308 413611 100883
309 985051 395019
310 981417 799412
311 412415 50521
312 370098 389496
313 198151 622595
314 285887 398578
315 486140 992376
316 586854 957939
317 423971 100410
318 640842 702345
319 898509 766775
320 620556 731678
321 462458 942913
322 936638 830243
323 889438 810665
324 917248 781320
325 399022 499832
326 467800 962509
327 334678 365136
328 400530 118507
329 684191 728064
330 428567 714849
331 356851 400922
332 607168 716447
333 909110 778540
334 206326 414442
335 953842 785761
336 438883 83790
337 206087 692220
338 637636 666789
339 360802 536745
340 333028 512972
341 432860 933795
342 349052 390070
343 419366 954104
344 657548 747273
345 963976 813021
346 581991 930917
347 920578 818411
348 215233 669270
349 289502 326241
350 974911 746966
351 907919 778089
352 417099 524248
353 399849 516974
354 962154 436502
355 377265 537694
356 149068 57578
357 338681 362302
358 550047 909572
359 955802 844207
360 320266 372167
361 941516 773712
362 964016 845650
363 387632 772223
364 919390 771248
365 228789 654518
366 415972 739012
367 214799 614962
368 695250 750688
369 128333 105909
370 347889 527085
371 642725 691059
372 645282 718075
373 662331 655219
374 207077 603405
375 456899 980901
376 649432 705810
377 640713 754788
378 640612 710502
379 342895 491918
380 206687 442085
381 252707 674400
382 411563 529238
383 232708 651081
384 965108 403530
385 393287 507257
386 119373 126959
387 118640 447080
388 657453 744875
389 971055 370180
390 107597 97417
391 455433 989408
392 205852 683910
393 293904 361481
394 650200 707800
395 972961 763399
396 965163 802082
397 570292 945514
398 459719 40662
399 958396 773662
400 653826 715389
401 642744 714921
402 443995 907624
403 618653 706899
404 592625 890515
405 597209 935773
406 157716 82191
407 465667 709137
408 443980 932018
409 866480 816051
410 464268 959187
411 1000484 848018
412 320001 362252
413 975665 820837
414 209032 435489
415 958798 820353
416 958714 381965
417 166205 627133
418 132633 74409
419 938167 754385
420 285095 324754
421 663571 737983
422 684794 751344
423 370437 493879
424 425077 44718
425 296759 365373
426 298396 373208
427 399229 134100
428 925974 385608
429 959273 756962
430 172998 426873
431 312848 338991
432 110820 34258
433 676126 738313
434 486656 946196
435 291776 353202
436 174720 461025
437 682392 745624
438 126345 70982
439 409898 63268
440 659709 672479
441 432926 106314
442 398893 521477
443 199033 637662
444 926263 781522
445 460978 978687
446 587563 954885
447 671930 733526
448 189539 644558
449 422467 111476
450 461524 121458
451 984069 761521
452 926636 367520
453 185938 419741
454 922871 406838
455 968549 830672
456 453753 999784
457 251529 617209
458 571890 938837
459 356276 513645
460 115914 41875
461 367957 490704
462 443124 954362
463 963412 762713
464 512128 928159
465 202002 643007
466 673542 706841
467 200376 430239
468 966251 424446
469 455730 924650
470 949695 396187
471 959561 789731
472 497165 925149
473 183147 659186
474 431141 723005
475 954335 764072
476 459092 960757
477 578452 873101
478 670549 771987
479 659370 707934
480 687554 706552
481 923192 346273
482 561299 937143
483 658339 728127
484 460504 97386
485 630832 770776
486 195515 424208
487 463011 804543
488 612028 903812
489 472699 943086
490 889565 845248
491 949081 776597
492 939120 795101
493 973616 376769
494 686304 721422
495 418331 89439
496 944918 432703
497 457069 1007428
498 141953 107708
499 955049 798209
500 172823 435491
501 425799 96339
502 211512 637750
503 425796 730469
504 613926 938153
505 570771 925044
506 702470 765708
507 168270 508368
508 314808 378740
509 455624 771993
510 272106 318781
511 175109 50492
512 460714 733900
513 428257 551550
514 564837 903175
515 433476 109113
516 126795 59776
517 176182 68397
518 212324 454226
519 156544 653611
520 898084 736838
521 377333 508909
522 397431 512396
523 439282 712102
524 330798 382056
525 163428 79009
526 202092 490997
527 452613 944619
528 975567 819949
529 410301 997253
530 462461 67447
531 120694 80618
532 620801 732970
533 157378 90550
534 598870 889470
535 440174 739095
536 204323 86471
537 101372 100485
538 584799 903571
539 622343 914302
540 125850 64846
541 424760 726289
542 545747 987006
543 653631 714343
544 178835 652291
545 602646 952280
546 387559 46825
547 983039 409256
548 573765 930073
549 444706 1008735
550 135625 71960
551 157301 425311
552 661553 665800
553 350105 341978
554 122142 111193
555 275285 652046
556 416293 153466
557 595006 944013
558 370232 517223
559 709895 784369
560 141578 475775
561 914764 366146
562 591043 943107
563 587728 931481
564 135091 35958
565 134113 86275
566 478084 929738
567 478712 917708
568 397949 732130
569 339244 375045
570 531397 900182
571 920351 777294
572 357248 489509
573 942655 811120
574 701469 717817
575 223151 448623
576 431743 105694
577 937781 831307
578 354564 533416
579 943591 760287
580 570406 862705
581 618617 696139
582 398132 519534
583 294101 361646
584 396942 529076
585 131448 119181
586 196921 475489
587 114576 120052
588 967600 781379
589 364323 527162
590 608392 692569
591 468636 759224
592 234918 647274
593 662242 713527
594 674250 787310
595 991589 351965
596 948962 779554
597 927822 763104
598 444896 1005276
599 351015 474101
600 391364 74525
601 640294 903503
602 966149 374656
603 461744 713200
604 638448 693518
605 648834 747802
606 189665 475014
607 413288 739161
608 196019 436109
609 241170 615808
610 222221 635041
611 458208 90419
612 722973 740577
613 934449 411072
614 952770 335507
615 397093 721327
616 900475 812768
617 397918 725246
618 250071 615786
619 450754 731742
620 148589 118694
621 917641 809089
622 651340 716524
623 439026 93520
624 579553 944482
625 150214 95046
626 673287 704674
627 621166 700317
628 439226 968504
629 467463 84080
630 589870 886907
631 331669 408617
632 358090 356203
633 954700 839385
634 406682 765243
635 173587 637756
636 127276 451838
637 406785 146245
638 966024 802464
639 130290 79876
640 208547 630765
641 619734 950959
642 136916 103822
643 601899 721944
644 131338 104126
645 974199 782237
646 395495 103260
647 416850 113798
648 925590 738105
649 400777 715421
650 409184 739159
651 460083 973975
652 619892 727385
653 384056 759877
654 432079 746239
655 357074 546491
656 416402 549097
657 936216 719576
658 894539 804283
659 605813 909995
660 444861 127285
661 277755 391854
662 402164 595328
663 479360 1035033
664 113071 62356
665 644107 757932
666 419090 738269
667 173237 444065
668 651905 716031
669 990433 430047
670 388199 765095
671 310745 440222
672 662807 700693
673 413767 747617
674 651639 751455
675 1021777 352271
676 354820 508073
677 189361 438012
678 993134 791513
679 640753 701355
680 495602 950441
681 976736 762440
682 921660 774928
683 996272 820167
684 995805 366525
685 229720 461493
686 167021 438501
687 986003 781553
688 194846 409678
689 945912 813358
690 297258 333987
691 424771 767069
692 465012 984468
693 417847 150424
694 209626 640186
695 685702 692986
696 936556 430690
697 507653 944756
698 658638 714578
699 135837 419899
700 371342 351424
701 455573 724705
702 509211 957170
703 918946 824203
704 950001 839399
705 538968 918034
706 511494 941566
707 191671 88548
708 192449 514395
709 199118 475481
710 201461 591718
711 108356 115862
712 410666 971451
713 665153 693098
714 247501 641147
715 410545 736476
716 154560 105344
717 440776 747230
718 466013 78290
719 394367 91318
720 203212 509882
721 428580 93100
722 201215 439978
723 341859 361780
724 158456 465991
725 950637 805188
726 306291 341255
727 330531 324714
728 421102 768260
729 974515 396074
730 424783 753499
731 669103 743183
732 662375 712555
733 728255 736717
734 722170 717595
735 674253 777854
736 104853 94732
737 413707 102793
738 419548 92873
739 491470 742005
740 454239 86007
741 200845 663726
742 965052 400609
743 691509 728554
744 677041 734693
745 667643 737756
746 167948 65839
747 462233 735603
748 475359 955198
749 475012 128742
750 366315 494300
751 573727 722297
752 412931 80782
753 418555 745211
754 143851 97055
755 671281 746540
756 493293 957720
757 621041 699590
758 1005515 352270
759 449131 732655
760 494303 950481
761 956537 802515
762 216737 630904
763 352304 519943
764 548373 931733
765 630243 728677
766 565209 920571
767 600869 893495
768 428079 979305
769 966571 392382
770 267348 340881
771 173121 651998
772 387215 116298
773 900399 788374
774 940025 823377
775 697331 740619
776 395180 463866
777 313477 372395
778 956220 800581
779 313299 390156
780 248554 638397
781 307214 333809
782 521458 960508
783 991500 406428
784 588931 918821
785 984892 391504
786 664582 702828
787 926975 777139
788 736240 775202
789 232223 492470
790 153955 463171
791 564346 911283
792 393404 507871
793 671456 712071
794 900449 791601
795 263930 382478
796 955839 784156
797 427197 696627
798 974644 449655
799 320784 388536
800 348705 352728
801 122818 170562
802 130259 72437
803 224024 630919
804 208157 475798
805 980298 391075
806 980329 784632
807 409111 493861
808 900193 762046
809 692229 751377
810 961602 788118
811 332756 538029
812 645507 754567
813 209243 609900
814 747038 731818
815 153758 91626
816 451276 747632
817 943530 832682
818 403793 499281
819 432310 85630
820 184386 432812
821 612261 921370
822 219630 622121
823 605854 876399
824 939040 368943
825 201531 405312
826 990350 384844
827 159090 108454
828 149788 90144
829 311400 319815
830 172757 687452
831 1000065 858662
832 399253 679223
833 642203 698952
834 992251 378548
835 146154 442636
836 183136 653923
837 167942 497322
838 377820 489289
839 472665 975435
840 728110 732832
841 939082 775919
842 388335 563022
843 955492 787608
844 723330 760832
845 366065 525576
846 164104 78106
847 357319 529884
848 953171 738640
849 687337 760475
850 256480 371775
851 448129 745373
852 311120 398919
853 433091 731893
854 330070 342735
855 441478 943234
856 212637 611212
857 209693 409987
858 443864 1004714
859 696165 718090
860 243375 650551
861 466239 974041
862 970178 837316
863 960453 863370
864 403537 61165
865 378185 489998
866 146953 47409
867 923813 709244
868 142113 438891
869 402112 93760
870 545617 953258
871 1023756 384045
872 660771 749539
873 645389 672528
874 418936 80523
875 474082 78847
876 991662 799550
877 677992 749812
878 405269 696200
879 128614 126483
880 547063 953615
881 642555 708024
882 442220 968080
883 996894 379318
884 442277 98558
885 262546 642829
886 378284 755770
887 131478 113568
888 649427 761188
889 437883 71044
890 264888 614555
891 575152 953767
892 461900 953668
893 314978 363042
894 985320 367138
895 447393 87932
896 644687 699050
897 485819 1022110
898 81936 74221
899 416317 91469
900 473300 944389
901 948410 774083
902 399612 110761
903 1020921 368396
904 674144 748509
905 395925 741385
906 475251 974139
907 351930 347730
908 631711 675704
909 99158 155781
910 937152 769234
911 962440 387407
912 464664 916837
913 306342 354203
914 453618 955709
915 180068 488935
916 445376 103725
917 406820 759289
918 1016484 836681
919 979147 790339
920 684829 675958
921 1010414 410224
922 417668 111301
923 178108 465024
924 169128 464774
925 306040 350945
926 426604 944181
927 189880 437717
928 595464 926330
929 306610 386826
930 423047 748074
931 171616 440501
932 995627 826202
933 564110 896456
934 190832 682421
935 673881 771996
936 926880 827362
937 464860 1007672
938 396444 525050
939 379005 493006
940 146884 467973
941 465690 996972
942 402239 805938
943 411594 529327
944 613663 893106
945 576869 856553
946 237610 643536
947 205207 639759
948 199020 434777
949 1029568 406727
950 194086 634450
951 992079 755635
952 107318 97946
953 996695 414023
954 476977 787337
955 980101 823948
956 678379 700306
957 118233 72166
958 463991 985395
959 668171 754163
960 979141 844198
961 175228 98414
962 943427 765400
963 139600 133989
964 410805 522802
965 459979 86179
966 985563 796836
967 711993 689997
968 951853 747279
969 704081 697872
970 711914 680585
971 428249 727852
972 648233 692725
973 887076 743105
974 954417 813126
975 401287 568212
976 388476 111289
977 130582 131343
978 388980 519452
979 471795 668075
980 236360 640211
981 901318 797935
982 367685 539838
983 128455 75093
984 429773 52194
985 956229 792447
986 474134 738409
987 378359 511225
988 571101 903871
989 295618 350029
990 654738 764957
991 124005 431053
992 164905 445601
993 451382 958041
994 232450 619390
995 605608 738157
996 349392 484011
997 403909 99761
998 600639 950073
999 305965 345594
1000 210187 655335
1001 618589 705508
1002 380127 89309
1003 336971 353762
1004 451526 707315
1005 652950 716359
1006 480753 67786
1007 138040 75112
1008 119635 49876
1009 474032 998473
1010 180890 458579
1011 930650 750196
1012 267151 411939
1013 147337 99744
1014 92901 59995
1015 936616 396309
1016 385861 507860
1017 229008 614570
1018 664427 708218
1019 457445 958200
1020 420738 119811
1021 173897 432268
1022 422607 127846
1023 519195 893272
1024 682183 686820
1025 935554 790804
1026 455704 156749
1027 569820 946369
1028 473434 959526
1029 577392 900365
1030 447450 768497
1031 472706 971132
1032 897182 792922
1033 305797 388597
1034 424639 66392
1035 640570 673906
1036 469505 943832
1037 960874 410114
1038 989154 425590
1039 947850 754120
1040 320607 481689
1041 930074 752223
1042 755567 753070
1043 456432 79940
1044 958751 405049
1045 399596 36162
1046 205284 606854
1047 618986 748226
1048 692293 721584
1049 914897 796514
1050 384894 517775
1051 953334 375294
1052 145110 642638
1053 450587 954644
1054 620315 903006
1055 148187 98155
1056 226693 636063
1057 412031 80746
1058 566853 862904
1059 986212 810409
1060 954122 759955
1061 357164 307291
1062 693318 738959
1063 437478 70003
1064 891056 787953
1065 681803 730447
1066 613454 932795
1067 970212 820089
1068 121631 96432
1069 697666 699903
1070 360631 491553
1071 189354 456958
1072 341244 346024
1073 947982 807754
1074 401850 708520
1075 735609 748578
1076 988733 784452
1077 957195 802901
1078 351865 529353
1079 667346 764053
1080 439362 707040
1081 159524 678287
1082 303394 345087
1083 578654 933960
1084 939389 840568
1085 455237 99468
1086 605926 697763
1087 204856 653405
1088 364618 374256
1089 436485 924413
1090 106762 56980
1091 953403 756835
1092 327179 340568
1093 734433 788302
1094 666482 710498
1095 406175 475690
1096 187612 451978
1097 692267 707709
1098 622865 903487
1099 306700 370803
1100 696015 750614
1101 113351 480786
1102 474598 978362
1103 444643 718517
1104 626081 713261
1105 973290 817950
1106 961566 412874
1107 1014722 444547
1108 307232 353529
1109 971962 403876
1110 352534 375027
1111 596385 881626
1112 446299 997691
1113 317722 554615
1114 700312 761769
1115 456506 102605
1116 682491 759359
1117 603025 944666
1118 89528 125239
1119 715395 685843
1120 423592 76894
1121 448794 732550
1122 403949 49541
1123 972253 795476
1124 208071 585111
1125 333639 515530
1126 654812 764355
1127 199313 606874
1128 949200 792473
1129 408351 737054
1130 337656 373267
1131 655067 799032
1132 976239 393863
1133 474240 971986
1134 417999 86248
1135 651621 726668
1136 919054 796500
1137 467609 980850
1138 273253 373853
1139 681759 723332
1140 603283 955438
1141 968116 811168
1142 162566 466818
1143 442912 703418
1144 684792 753471
1145 325967 395726
1146 948698 415681
1147 684149 720356
1148 185732 655136
1149 729092 759494
1150 476829 1003133
1151 170958 84240
1152 575695 878156
1153 314157 326307
1154 680002 769909
1155 571749 938062
1156 638416 648004
1157 154862 680422
1158 446012 721128
1159 464658 980751
1160 431739 962363
1161 417914 85342
1162 991350 807447
1163 153101 99923
1164 962363 752708
1165 954463 794743
1166 317348 382603
1167 918949 807499
1168 196051 655870
1169 964604 865949
1170 666643 729642
1171 346219 354854
1172 927100 776530
1173 922829 820794
1174 905967 803467
1175 972960 369929
1176 539513 897714
1177 416748 963412
1178 1006158 387209
1179 931766 775821
1180 247740 674750
1181 206828 660138
1182 194783 658596
1183 954956 359777
1184 588429 916488
1185 426015 749557
1186 975349 848533
1187 438280 985273
1188 155570 65893
1189 968391 404603
1190 441195 97530
1191 949946 782597
1192 456169 936661
1193 638120 766440
1194 650085 736306
1195 662673 681818
1196 947616 790304
1197 131731 91643
1198 241117 614520
1199 681492 758110
1200 500950 979028
1201 1015656 796025
1202 469533 951005
1203 992553 840147
1204 406735 530007
1205 939899 840048
1206 1018154 425884
1207 669943 728614
1208 985520 855592
1209 406697 487425
1210 165569 106298
1211 569152 875176
1212 173919 448245
1213 649278 688674
1214 387336 81716
1215 495726 934143
1216 409532 760063
1217 290135 360836
1218 361195 560862
1219 201125 434574
1220 212595 462558
1221 542680 963809
1222 413329 118186
1223 950231 830524
1224 963322 429179
1225 982685 785530
1226 170385 662249
1227 343504 370719
1228 681309 725865
1229 435353 717150
1230 374972 497058
1231 348218 322072
1232 607392 693990
1233 341190 381654
1234 965503 857953
1235 462056 955047
1236 427049 481095
1237 425903 506088
1238 365558 514353
1239 926407 789327
1240 965784 773460
1241 1005404 417514
1242 492146 978005
1243 404569 709691
1244 217211 437096
1245 460761 949357
1246 438746 71856
1247 932483 831370
1248 654955 761981
1249 946725 430658
1250 446419 745381
1251 949509 758850
1252 478759 79388
1253 335654 331256
1254 441493 940722
1255 911985 813000
1256 986556 824499
1257 691656 774939
1258 536588 875072
1259 200218 436346
1260 526610 907662
1261 69814 91089
1262 585740 903018
1263 405511 737535
1264 409701 501882
1265 965964 419379
1266 204082 643118
1267 448339 150449
1268 964907 848907
1269 661441 749407
1270 464613 730162
1271 421856 728211
1272 172312 121201
1273 351819 359866
1274 680670 776724
1275 310324 488427
1276 699723 738317
1277 937209 450235
1278 643345 707265
1279 180376 450323
1280 619144 911927
1281 199513 462972
1282 570580 917405
1283 198382 631677
1284 540752 909343
1285 988003 790821
1286 935761 797736
1287 364502 521257
1288 128088 74090
1289 210523 693566
1290 431512 704477
1291 634899 684264
1292 641023 676097
1293 222973 672365
1294 968677 783108
1295 403400 738700
1296 901461 785191
1297 149583 444664
1298 569825 915218
1299 676798 704516
1300 437442 740329
1301 984806 449845
1302 585578 917751
1303 170452 652553
1304 174230 462769
1305 943978 852734
1306 436960 963920
1307 977406 387906
1308 289961 381121
1309 349730 327694
1310 350306 500079
1311 972238 778603
1312 966652 832212
1313 108932 126664
1314 461862 97500
1315 162583 65238
1316 575218 934118
1317 906325 741465
1318 657999 747269
1319 657195 675657
1320 371246 563474
1321 410897 140711
1322 1003367 354574
1323 898705 377697
1324 447893 981589
1325 993251 413059
1326 206690 608473
1327 1004331 808640
1328 96525 113155
1329 994443 366218
1330 217914 403039
1331 400919 939718
1332 400419 742517
1333 172922 484707
1334 135547 88545
1335 206199 621910
1336 332590 326607
1337 302013 341081
1338 951918 766660
1339 676197 749706
1340 646261 710754
1341 995952 358079
1342 365485 534472
1343 224040 484553
1344 580248 907772
1345 290059 374048
1346 158020 406208
1347 964872 792911
1348 129617 99086
1349 171158 458391
1350 462578 733596
1351 303791 386262
1352 185238 433496
1353 210870 610672
1354 441431 951029
1355 413350 78822
1356 596523 902393
1357 443150 119415
1358 436873 739859
1359 939019 782518
1360 922021 765813
1361 929203 768479
1362 147073 105226
1363 353394 478336
1364 572188 966183
1365 930396 777345
1366 445249 949082
1367 386937 109173
1368 419269 74399
1369 952430 445154
1370 934671 808251
1371 409945 81350
1372 441473 691184
1373 176295 98000
1374 260292 368109
1375 410764 502807
1376 578491 977239
1377 208884 687190
1378 189531 662450
1379 413554 712179
1380 951673 793175
1381 330376 360230
1382 386494 542239
1383 1020607 857891
1384 125051 112410
1385 1002533 378674
1386 372743 523130
1387 182557 657152
1388 935479 781128
1389 112665 113315
1390 179264 682455
1391 158451 68948
1392 330315 512204
1393 201451 449246
1394 198264 516908
1395 1030905 416493
1396 570370 925765
1397 988421 394645
1398 964544 817999
1399 468158 941816
1400 464430 943771
