NAME : portcgen-1200-1210
COMMENT : portcgen N=1200, seed=1210
TYPE : TSP
DIMENSION : 1200
EDGE_WEIGHT_TYPE : EUC_2D
NODE_COORD_SECTION
1 454993 679560
2 581023 722198
3 77499 23245
4 51970 669913
5 715221 762586
6 540268 701221
7 895325 869819
8 898916 893467
9 596261 661825
10 -34536 132726
11 450999 650415
12 848442 923420
13 886125 872702
14 64726 660590
15 53101 48925
16 196873 802207
17 173824 819714
18 594164 47608
19 151894 824773
20 630372 737204
21 633504 721245
22 131401 44859
23 607659 751265
24 18627 96840
25 627152 737426
26 901366 905823
27 58767 699693
28 93634 52999
29 -1308 691324
30 29106 687388
31 521623 688804
32 783101 805139
33 605825 24635
34 52281 697649
35 13726 106750
36 141512 793153
37 -10433 704450
38 624008 52650
39 422339 687671
40 21563 676216
41 23363 697564
42 178139 835248
43 111506 805449
44 633321 807016
45 61502 -23552
46 30494 770484
47 97359 737144
48 774302 810412
49 41771 767239
50 29008 778413
51 768214 813465
52 145401 822323
53 610181 725101
54 587290 690064
55 579811 30332
56 20043 112278
57 120482 52287
58 586363 738814
59 635532 753591
60 624894 732592
61 148644 732182
62 134451 866885
63 588321 707029
64 136505 799441
65 725504 759579
66 131634 60308
67 420544 677158
68 44675 701110
69 2266 726017
70 154189 839730
71 70016 810001
72 14698 127947
73 413349 665250
74 73334 746877
75 600770 691872
76 180527 796453
77 27425 722326
78 805019 734880
79 49686 805592
80 51203 773826
81 163270 784817
82 877840 873150
83 33393 746478
84 110301 62173
85 154053 849084
86 37131 662093
87 618043 744875
88 173894 829095
89 431236 715953
90 134665 847546
91 909828 866612
92 116507 66364
93 181430 812945
94 146448 819139
95 164211 809135
96 897115 923920
97 767069 769377
98 94960 38306
99 561140 -9957
100 575566 688415
101 29442 763502
102 157731 56481
103 196738 849928
104 587852 -54904
105 648508 740023
106 9874 717379
107 -3873 112489
108 80230 820216
109 535262 665959
110 598671 28595
111 949799 870986
112 421174 688818
113 879150 852356
114 872154 868954
115 64352 745417
116 139202 70945
117 180989 806267
118 557830 57825
119 117386 828120
120 55532 120493
121 399539 633542
122 -18509 151428
123 162332 794667
124 585343 658788
125 137287 48706
126 413091 719019
127 145018 809735
128 119778 777669
129 123045 67877
130 743998 754950
131 26615 139063
132 441180 766282
133 180670 905083
134 884625 886171
135 640148 757395
136 412226 683355
137 584443 8295
138 565337 716364
139 180542 821699
140 22420 151346
141 59742 742908
142 -14275 139298
143 677768 750312
144 73629 758951
145 73653 804477
146 156128 69370
147 158232 830689
148 597047 678698
149 570861 33838
150 861299 861068
151 885277 906042
152 380980 665396
153 629350 698027
154 54921 624662
155 56355 866670
156 213165 856845
157 132145 40944
158 -14817 178772
159 516093 -28194
160 575793 45002
161 -41205 721332
162 599083 55041
163 762231 816274
164 40995 694130
165 535147 33970
166 106916 58208
167 74911 814849
168 445565 664649
169 14335 138691
170 601671 60287
171 146193 826053
172 104062 777977
173 11438 173839
174 78375 787764
175 218537 852725
176 932837 916248
177 133842 850143
178 43671 663736
179 27163 766366
180 -26130 686410
181 600444 16809
182 560023 704405
183 610753 761682
184 38810 749846
185 603332 49919
186 891559 911530
187 150687 756279
188 130286 812890
189 95243 785596
190 882303 858327
191 198094 837298
192 600961 20836
193 613427 775814
194 632861 788003
195 53722 57400
196 57531 799177
197 627312 720230
198 199335 819279
199 89859 812929
200 839865 767329
201 581313 71761
202 650304 742161
203 154036 870649
204 125708 870901
205 -7227 676064
206 757728 761751
207 727369 816510
208 890088 878906
209 64400 113354
210 157287 830753
211 92382 22584
212 -31726 193538
213 612943 36576
214 222829 766057
215 179790 794202
216 8273 725155
217 65040 649716
218 617139 618515
219 130956 98946
220 543885 662460
221 866861 901883
222 905970 930252
223 36153 791072
224 628534 729600
225 582689 6811
226 155690 804817
227 564540 75030
228 112205 754924
229 580247 674838
230 564126 668594
231 667287 730929
232 922751 918055
233 109814 810592
234 197781 814660
235 112720 737414
236 128688 827617
237 597166 63252
238 36433 679064
239 565970 751139
240 76969 810349
241 163531 788837
242 114558 767259
243 879102 905046
244 179168 873665
245 442542 734484
246 647493 787834
247 98668 815857
248 159944 810370
249 85093 736343
250 88793 873313
251 131232 788837
252 59462 764865
253 898663 882438
254 516335 58011
255 95001 16075
256 209837 828695
257 91940 25633
258 102178 842508
259 783861 817338
260 436644 671767
261 191235 793875
262 545725 -8778
263 54924 789110
264 579660 688269
265 621982 721015
266 133035 815941
267 764666 820130
268 542263 69351
269 934577 956542
270 874639 849135
271 159623 880524
272 374789 693933
273 178654 816741
274 436119 693298
275 811331 836800
276 93604 811765
277 96791 47095
278 787496 826528
279 884719 901368
280 596771 661029
281 911749 829101
282 148499 813150
283 865525 849184
284 536705 754834
285 130945 833088
286 576163 752511
287 895804 884089
288 866181 931961
289 29113 711993
290 515762 37409
291 606539 734702
292 445068 710042
293 85450 792782
294 178812 847706
295 21344 712036
296 588614 15400
297 774282 787749
298 121800 876052
299 132438 77437
300 7178 102270
301 77352 747966
302 181005 825774
303 792744 769673
304 -3179 739094
305 880586 911392
306 602431 104
307 861264 935828
308 735434 769652
309 570860 33591
310 113164 -7053
311 168490 801277
312 152008 853987
313 9602 656316
314 567545 22483
315 4016 171267
316 152568 851504
317 875647 813430
318 597842 716657
319 593072 768826
320 27402 765582
321 2119 663244
322 582415 658560
323 129123 47461
324 65676 128571
325 52577 114374
326 602402 -61754
327 588921 12478
328 -9551 175579
329 19193 702709
330 598120 10955
331 596310 764348
332 73559 663967
333 115124 30016
334 772252 811642
335 133316 52861
336 12753 671731
337 914715 870624
338 -24304 692603
339 449136 703820
340 -41518 110523
341 794176 858895
342 138333 807285
343 583703 626772
344 558375 -26255
345 32507 756097
346 73405 829715
347 903919 865399
348 625239 732549
349 167697 782076
350 105571 -4754
351 720924 792557
352 572359 730976
353 908746 829777
354 784421 788993
355 592878 68133
356 779863 779899
357 149903 819835
358 571000 40118
359 85523 753545
360 204605 859935
361 779264 799756
362 603049 33427
363 5080 99551
364 535425 730411
365 649192 711634
366 593995 733335
367 76912 719191
368 657814 783944
369 110103 62347
370 584887 633436
371 932272 905609
372 198992 869011
373 597639 710083
374 528238 684888
375 576711 628534
376 200550 821305
377 202902 773182
378 548231 653237
379 390716 706553
380 72743 67310
381 586786 24204
382 67331 788461
383 62436 775028
384 552074 647400
385 48107 746102
386 45420 160310
387 604017 23662
388 31541 802336
389 175911 866764
390 417761 675001
391 597393 689968
392 -37700 122100
393 -21299 705542
394 90663 837799
395 26799 684453
396 770241 788344
397 89072 772324
398 19317 117328
399 85785 806621
400 120744 32221
401 34149 703435
402 773749 808830
403 -14258 130017
404 789819 769596
405 76878 53913
406 579303 749230
407 142327 879882
408 107974 18653
409 789741 815878
410 122169 836606
411 47565 812357
412 594267 718316
413 424612 665332
414 87075 840274
415 194141 789737
416 168911 41960
417 27541 701628
418 48656 662821
419 65944 84441
420 584948 23228
421 623758 713137
422 151649 827805
423 112279 881690
424 29129 168013
425 181652 785437
426 -12055 668125
427 6666 723073
428 607311 711999
429 -10113 105378
430 149044 837512
431 16517 114511
432 632474 735131
433 878608 914416
434 25126 113511
435 604158 663239
436 -291 105658
437 -19 678242
438 577991 757934
439 594440 755288
440 133052 770728
441 133138 75548
442 427464 650583
443 568735 44429
444 619641 750480
445 49370 117477
446 116738 36564
447 170834 797714
448 105424 94724
449 577781 708954
450 927105 902606
451 764430 882765
452 453836 654086
453 371317 698910
454 87105 28147
455 661005 816748
456 410420 642528
457 117013 813352
458 109945 39446
459 140638 84356
460 455827 680050
461 589135 690215
462 795649 766466
463 880858 887456
464 587004 696489
465 881559 913448
466 154261 840536
467 557917 -36886
468 602602 790217
469 614606 671718
470 90402 716365
471 957733 841351
472 568433 -8011
473 580058 42577
474 123822 -2844
475 731041 769576
476 532479 655370
477 7427 133936
478 -3593 141587
479 577660 -14859
480 -1161 701502
481 98813 30984
482 211458 802041
483 596937 690752
484 913401 886071
485 638117 696080
486 585895 659881
487 179362 828105
488 48631 175818
489 182369 804320
490 206038 800498
491 37937 687483
492 52730 786571
493 49996 757843
494 602577 74428
495 47898 141758
496 -41534 132950
497 123621 865958
498 425000 613812
499 453360 652224
500 587827 23786
501 192210 820892
502 587758 709436
503 6645 726718
504 582146 685600
505 51197 704105
506 916044 872984
507 141515 52295
508 445075 732095
509 539990 27435
510 344871 701890
511 751203 785819
512 553050 742316
513 68358 721345
514 91484 783290
515 799589 808419
516 440695 721959
517 217369 848727
518 713590 786644
519 544454 11000
520 76922 846533
521 454831 683737
522 39287 804254
523 41450 116760
524 61334 146547
525 12060 711736
526 37077 704436
527 614358 689132
528 776306 823549
529 78177 -4173
530 758525 769663
531 -7818 94836
532 744979 788793
533 63908 779536
534 198185 875977
535 188393 850256
536 152827 777624
537 -58746 135695
538 47491 117842
539 47263 624219
540 781829 789596
541 17088 700841
542 68040 86441
543 94049 817018
544 764757 790909
545 902832 871654
546 733360 820647
547 55569 747787
548 68129 795529
549 54393 100178
550 470660 670131
551 583412 681747
552 167911 11666
553 613904 686761
554 851480 881749
555 -828 162659
556 190034 776199
557 956634 839445
558 197211 789199
559 158731 889501
560 123252 17029
561 150002 72217
562 59735 859498
563 173472 781794
564 30473 95844
565 562264 92137
566 141357 897174
567 93687 88297
568 377728 656512
569 136966 841664
570 431169 644926
571 612759 756634
572 606921 733887
573 20585 663380
574 -7174 138108
575 601806 638835
576 168474 767922
577 795381 789797
578 464710 637192
579 603105 783604
580 -4582 118600
581 207548 819844
582 357288 712136
583 125509 791680
584 637218 746430
585 792972 816729
586 174047 774483
587 411916 640187
588 499788 729780
589 120347 72874
590 400720 706014
591 602821 14595
592 741949 844806
593 736299 790697
594 574346 678568
595 184190 824501
596 918911 867530
597 167558 834689
598 603579 732733
599 643476 739359
600 437527 697615
601 113367 701867
602 9465 705827
603 73247 875712
604 850011 896178
605 822768 792638
606 72579 776172
607 593601 620175
608 79965 69797
609 71093 797041
610 185213 848663
611 197973 839399
612 881442 830522
613 -2535 110358
614 38224 150750
615 762955 855914
616 158129 834926
617 -9253 107762
618 109848 67189
619 107455 23977
620 600930 670205
621 124589 48996
622 12576 99854
623 447815 677211
624 579875 50190
625 141310 830651
626 403664 656819
627 425560 677962
628 957688 900496
629 110636 36438
630 879712 923519
631 594983 33623
632 424520 673295
633 26237 166189
634 15074 671483
635 627900 788307
636 603469 752755
637 713511 848389
638 45176 108514
639 677932 733986
640 -19531 710892
641 613047 791094
642 127722 813309
643 469467 665754
644 155705 850813
645 75232 77156
646 171618 757648
647 163354 777331
648 134038 77083
649 530533 695792
650 -8341 682924
651 472902 695338
652 759247 806328
653 25363 651401
654 598062 -548
655 142282 846675
656 926058 875201
657 60983 712082
658 95211 738311
659 799459 769180
660 823846 797144
661 772542 785061
662 790500 791475
663 901183 881836
664 597090 637873
665 412171 684505
666 950223 870113
667 938170 919203
668 863547 832715
669 141554 5942
670 454777 704860
671 914589 898925
672 632673 763447
673 127682 59906
674 86976 81675
675 -19170 700181
676 894369 888867
677 -25907 125402
678 761292 821145
679 42817 126577
680 173396 845723
681 -28402 143906
682 597074 724342
683 -26172 108412
684 149124 781889
685 62316 802076
686 442233 684191
687 2502 704257
688 606094 -3667
689 166547 792555
690 182888 884857
691 941375 872259
692 581686 682736
693 898618 858284
694 894764 849882
695 180562 790136
696 569491 -27164
697 708288 801169
698 632047 697335
699 84183 40291
700 582979 678830
701 171773 867333
702 78145 757039
703 154613 854753
704 63012 678045
705 581617 722557
706 546529 -15566
707 136986 788947
708 29056 623171
709 525377 681689
710 404119 710404
711 89945 805246
712 414 108922
713 117323 78684
714 158462 784478
715 613923 779191
716 469069 747319
717 585776 51579
718 -8684 678090
719 603261 7281
720 760430 821870
721 900712 841159
722 874982 853728
723 121038 809024
724 566277 63161
725 404958 682321
726 768295 792528
727 3287 109342
728 646267 13798
729 47122 691561
730 70202 741106
731 579184 40432
732 866827 876787
733 149937 33722
734 105069 27029
735 895036 892817
736 649809 726539
737 559073 761526
738 7363 772906
739 439469 643440
740 -14703 136513
741 39808 129643
742 69772 798851
743 397403 659386
744 585694 707953
745 30657 706246
746 747617 806758
747 614082 686121
748 624293 761283
749 870696 894476
750 570769 65788
751 882905 841473
752 89079 67548
753 419263 645632
754 604550 34558
755 -28167 652079
756 138042 19054
757 424358 665752
758 735741 801631
759 69460 641424
760 174871 810442
761 444014 654427
762 790474 797884
763 218143 810567
764 147373 810570
765 864143 934721
766 81116 67533
767 140352 51644
768 152011 43260
769 656783 793045
770 879228 938783
771 816651 807271
772 470021 647755
773 783299 802103
774 472309 653563
775 430258 761088
776 98646 65872
777 864977 895520
778 -27501 696179
779 140084 827224
780 661245 752949
781 726784 824233
782 93637 763134
783 607790 692977
784 150022 789887
785 180758 794423
786 85670 687154
787 116843 848941
788 927332 901637
789 567870 724401
790 872304 843751
791 585300 785447
792 6784 93367
793 93299 28775
794 602267 737200
795 921698 873829
796 96331 71960
797 767599 811652
798 108155 46
799 559649 66562
800 409279 702012
801 615483 693535
802 627448 760105
803 568093 15986
804 -52248 117499
805 595394 26053
806 397854 728112
807 797318 804313
808 162950 771912
809 526001 715667
810 75955 686973
811 545446 684763
812 565284 38201
813 753081 777951
814 588156 677603
815 869839 864874
816 415302 650897
817 643424 748359
818 923906 881607
819 550807 94919
820 121547 68193
821 560146 -15687
822 560004 36740
823 129471 884635
824 731439 820354
825 952120 908577
826 111776 45695
827 896441 913823
828 83248 -26517
829 162842 803682
830 533217 677735
831 922000 852338
832 78712 750605
833 16164 740512
834 633404 730327
835 557307 614501
836 597168 814061
837 661017 -36532
838 622781 747391
839 654 119379
840 43417 835336
841 49850 712884
842 -11229 191083
843 171674 810199
844 662826 672440
845 101314 828311
846 128510 810525
847 699638 764743
848 707819 812321
849 123551 855825
850 758754 791597
851 170367 834759
852 457457 683404
853 900090 819912
854 872167 873148
855 110480 800232
856 129001 47498
857 482493 681759
858 563780 689279
859 720826 833879
860 421744 712409
861 933298 881484
862 100829 50870
863 425983 704527
864 38641 660266
865 392351 726512
866 580089 3805
867 385007 679479
868 633442 675528
869 49410 169835
870 50380 709337
871 140172 815258
872 439605 694730
873 158255 810971
874 565782 40591
875 928980 892634
876 161704 -6416
877 53794 748466
878 618917 765582
879 439202 691205
880 564214 771161
881 890809 916786
882 773800 764345
883 574384 87119
884 415223 694625
885 83543 685094
886 404639 672220
887 587206 687221
888 599133 -24476
889 638685 751968
890 191212 817504
891 104028 55095
892 155600 867178
893 39617 706056
894 193241 803737
895 134361 18570
896 91720 36447
897 716 141951
898 151263 820729
899 39351 851303
900 912890 892404
901 621807 731716
902 587660 744464
903 27401 136252
904 128137 817021
905 802401 829763
906 149048 839755
907 -5363 145107
908 19603 656399
909 137696 832755
910 593411 737754
911 390898 718135
912 124103 847067
913 63020 129527
914 11811 162123
915 -13028 101651
916 891163 879599
917 215389 834941
918 112071 869083
919 393823 635475
920 413554 679660
921 36327 737696
922 919002 902056
923 63406 174641
924 928738 896666
925 161517 799680
926 85825 746552
927 76626 21361
928 119417 820584
929 653325 701100
930 587805 43991
931 74501 779697
932 148811 815628
933 107687 783460
934 110725 61180
935 573443 8759
936 103502 7252
937 360408 625184
938 559701 15087
939 87227 823799
940 79571 718226
941 632948 26185
942 70727 786907
943 542276 691629
944 810774 796518
945 22469 152963
946 580526 790713
947 793532 774596
948 546520 -40799
949 758281 785878
950 646518 759062
951 632164 750872
952 -42994 161241
953 609503 672871
954 529307 8466
955 920654 906559
956 416169 621590
957 160883 741527
958 628038 781579
959 -16435 639560
960 183914 807860
961 104410 48830
962 912569 916921
963 40900 669352
964 657886 725534
965 625161 704931
966 799425 838948
967 107999 54254
968 -15839 176765
969 616911 749951
970 509439 625785
971 640317 63210
972 152416 860330
973 159358 858478
974 740780 772328
975 434302 626585
976 461603 652408
977 -12771 89307
978 875737 891987
979 168539 813948
980 882137 868202
981 768218 827157
982 882840 873746
983 842216 865924
984 159833 804018
985 183467 820174
986 572037 749773
987 92725 770854
988 894944 847892
989 112858 878452
990 49263 812359
991 412261 671498
992 780525 784530
993 601503 770969
994 886271 815194
995 862375 862187
996 108370 45121
997 210093 809633
998 41921 717681
999 199496 799608
1000 646029 723214
1001 66479 21649
1002 37266 656213
1003 134008 660424
1004 139626 822442
1005 22713 136082
1006 473362 664094
1007 623887 746387
1008 586015 609371
1009 169783 864610
1010 785298 801694
1011 583218 17340
1012 98638 58578
1013 883103 863789
1014 73698 700520
1015 885002 872802
1016 -49792 139959
1017 134727 890418
1018 554101 673274
1019 562913 692124
1020 384072 672579
1021 135678 100529
1022 469051 654645
1023 776365 771238
1024 110384 17829
1025 829123 831730
1026 156657 858538
1027 755279 804211
1028 188676 838099
1029 401801 646979
1030 87241 83938
1031 119767 34752
1032 566932 687415
1033 103557 807906
1034 109596 24642
1035 893991 879143
1036 210101 865555
1037 738433 812105
1038 13561 178554
1039 -6750 109132
1040 769625 762272
1041 110667 82628
1042 179284 836346
1043 81233 676763
1044 918299 874252
1045 157681 809803
1046 77840 752628
1047 616319 750862
1048 907509 927010
1049 395462 659859
1050 419547 652994
1051 899159 888175
1052 872871 895408
1053 147214 820709
1054 173147 839254
1055 48299 126665
1056 11815 104278
1057 -30700 93600
1058 748224 762411
1059 141584 857466
1060 49626 775018
1061 729187 794358
1062 640527 777411
1063 200612 843487
1064 39655 682531
1065 436107 697555
1066 890148 964948
1067 47009 106868
1068 43815 701152
1069 907683 924205
1070 408930 715293
1071 569745 688670
1072 871104 925061
1073 40086 722881
1074 719261 811371
1075 49252 822414
1076 92494 86605
1077 457185 707457
1078 53237 756175
1079 793450 816367
1080 426698 658045
1081 456951 721324
1082 784059 778494
1083 558660 36132
1084 604367 39126
1085 892107 923114
1086 25624 116580
1087 447760 615148
1088 905011 878763
1089 111814 94066
1090 56887 766871
1091 123279 34372
1092 621429 708660
1093 182666 755132
1094 585853 688554
1095 179284 786554
1096 21460 105562
1097 642016 737645
1098 959148 895200
1099 88403 81925
1100 474927 688273
1101 -17198 107887
1102 87283 763430
1103 -2433 690061
1104 163906 848834
1105 433597 655631
1106 182420 800451
1107 443164 670816
1108 605557 778412
1109 902766 880230
1110 -15527 151672
1111 -24000 101500
1112 -15201 696065
1113 421112 682367
1114 145202 829669
1115 161773 859568
1116 893084 833136
1117 568861 45237
1118 -10354 86860
1119 651412 666817
1120 622238 758591
1121 18671 77108
1122 212204 808695
1123 67161 61570
1124 586108 714913
1125 770457 809651
1126 66457 734058
1127 181563 824261
1128 111147 842625
1129 110813 785862
1130 797351 833760
1131 872800 906298
1132 576481 658118
1133 167314 813705
1134 763493 793797
1135 92767 723992
1136 92085 774841
1137 97920 55250
1138 538041 691223
1139 122495 889691
1140 26644 727862
1141 578385 20149
1142 184648 781455
1143 106887 737804
1144 221552 802298
1145 883153 881343
1146 590916 784238
1147 102657 69968
1148 -5983 711822
1149 6470 689766
1150 155126 844147
1151 626240 709278
1152 64211 731696
1153 108223 48402
1154 164456 71509
1155 208319 834629
1156 122126 834634
1157 618023 65542
1158 868863 857224
1159 753254 823762
1160 832715 795431
1161 168392 818892
1162 130208 773350
1163 139652 768362
1164 613907 744018
1165 155604 835412
1166 224296 802649
1167 1076 170595
1168 100822 73235
1169 915247 878399
1170 121587 53052
1171 615280 759317
1172 786934 843532
1173 119263 59248
1174 47327 744624
1175 97237 78251
1176 -14216 145570
1177 823114 812878
1178 173175 757579
1179 924360 940308
1180 96589 81501
1181 382915 724439
1182 775001 793339
1183 50312 765867
1184 438716 656904
1185 121460 62231
1186 593216 714699
1187 404425 693897
1188 219435 852880
1189 178709 770618
1190 429588 697344
1191 595487 688342
1192 895017 870385
1193 -732 146252
1194 631688 7332
1195 432161 674627
1196 563450 712640
1197 113082 830968
1198 107477 659859
1199 82985 771913
1200 883448 871805
