NAME : portcgen-700-708
COMMENT : portcgen N=700, seed=708
TYPE : TSP
DIMENSION : 700
EDGE_WEIGHT_TYPE : EUC_2D
NODE_COORD_SECTION
1 361004 62629
2 377656 650289
3 383071 732432
4 383484 718767
5 740364 955702
6 349689 15385
7 648682 965543
8 338172 71571
9 506752 531337
10 352492 89109
11 643113 580702
12 538583 575254
13 715639 924337
14 457559 468244
15 697591 112977
16 828612 579714
17 553147 546269
18 742903 990801
19 333312 59152
20 291206 105160
21 724774 977772
22 402354 669488
23 640114 214540
24 380684 694886
25 285929 117416
26 725354 940791
27 820478 573024
28 808891 666557
29 607243 199944
30 279089 61723
31 437751 713941
32 718440 1006769
33 788424 622751
34 675456 184130
35 519540 601054
36 736585 943389
37 668598 257109
38 525627 591357
39 299184 143747
40 352360 99022
41 316346 147212
42 285476 60622
43 355367 107053
44 374023 391243
45 549640 465146
46 426789 659327
47 732366 978936
48 312627 76726
49 337338 111424
50 315844 119513
51 320532 1292
52 463106 609958
53 631368 102840
54 813159 667702
55 486910 556087
56 312632 106274
57 449027 447552
58 691741 972527
59 710374 962427
60 384356 451086
61 392992 89648
62 736698 920803
63 339792 903
64 815232 532182
65 448443 479379
66 826303 570107
67 691256 134846
68 539547 511957
69 553334 615923
70 410359 724014
71 518095 641810
72 656545 927376
73 778369 574128
74 466858 696618
75 856516 630317
76 880563 558791
77 379961 439151
78 869560 614113
79 486174 497921
80 727958 603831
81 514586 534961
82 453426 681102
83 271961 133542
84 468402 463037
85 400407 769334
86 667257 131388
87 939381 563211
88 608827 150742
89 364475 634533
90 392831 434555
91 370297 700765
92 644864 949847
93 518296 578305
94 842472 628889
95 689781 931025
96 633873 216586
97 752204 959621
98 313898 98974
99 240115 90286
100 627040 531231
101 385615 107626
102 568091 594803
103 502679 619427
104 578111 583397
105 736809 970149
106 304152 114457
107 414641 468173
108 746968 963373
109 376141 426878
110 495107 634484
111 407281 691624
112 660040 971130
113 437933 647338
114 285170 150760
115 795445 603965
116 472132 640248
117 774097 957536
118 568460 591300
119 790764 551998
120 584183 584345
121 604731 128249
122 795399 563255
123 602289 199887
124 537999 527529
125 747386 901316
126 413352 458005
127 736538 949895
128 629676 177273
129 316755 78069
130 409337 413444
131 424079 595413
132 320130 57618
133 649170 107837
134 854783 619643
135 332952 735758
136 550515 525716
137 552504 513073
138 629718 174022
139 876518 657051
140 442918 438290
141 752518 621317
142 757734 934181
143 374369 85998
144 573869 89593
145 781328 603375
146 469000 554430
147 252157 102859
148 720739 909649
149 660110 186974
150 730653 1003836
151 792715 579836
152 591066 134687
153 664863 156639
154 305616 163305
155 798575 660835
156 331269 74887
157 571742 580255
158 602815 138128
159 619058 155664
160 820858 621407
161 407284 783501
162 443818 461323
163 669290 931099
164 519288 536501
165 829186 564047
166 550763 541208
167 798786 626779
168 487150 572107
169 385084 674642
170 386898 706569
171 421589 387080
172 586893 584089
173 517167 559834
174 753057 575125
175 399983 432803
176 833493 865516
177 567999 536563
178 458927 603657
179 596868 545865
180 470708 724697
181 541282 566617
182 782687 978746
183 307221 84184
184 723722 928227
185 460823 580226
186 511777 590736
187 461613 353316
188 566497 582217
189 794512 623492
190 730226 989159
191 627825 941202
192 721515 890204
193 376828 753493
194 615671 204398
195 466589 598759
196 648694 178438
197 350015 750878
198 676304 64904
199 790656 620416
200 267728 241814
201 492506 559884
202 311972 85960
203 595328 661334
204 751459 1005977
205 409607 53748
206 608331 574461
207 569068 554174
208 354783 121436
209 405532 501735
210 443611 433330
211 307594 121888
212 415289 441600
213 397124 363022
214 871161 592806
215 587451 104116
216 524506 179195
217 327295 75437
218 809341 986684
219 725132 889415
220 794834 618209
221 831389 544967
222 732787 915851
223 615357 166663
224 645173 140917
225 594567 530887
226 457661 672950
227 693196 911425
228 752361 930294
229 773234 611249
230 880740 570968
231 346605 98130
232 442561 385644
233 839046 559054
234 635003 161316
235 437049 708291
236 552790 588449
237 377512 63208
238 635977 162622
239 506083 586389
240 416349 707870
241 744598 1014029
242 606967 113044
243 339038 758426
244 393367 741365
245 646634 121202
246 303609 104871
247 627804 154634
248 756327 945987
249 419819 418518
250 540735 519419
251 361559 723147
252 874873 650986
253 724260 946469
254 308797 60350
255 333942 93591
256 352883 461884
257 801786 600500
258 774469 545803
259 613778 119175
260 601453 155171
261 362179 -21558
262 394479 421483
263 359207 742380
264 416709 710380
265 401547 415376
266 384958 113826
267 812855 671976
268 359849 99903
269 826291 649523
270 393855 89303
271 348598 718333
272 762030 594617
273 643052 160700
274 927471 578382
275 528995 539564
276 562721 136969
277 545272 544930
278 858410 560998
279 745517 825564
280 876191 595675
281 538054 536259
282 814367 980695
283 569679 527656
284 313349 49539
285 303606 134500
286 365285 86880
287 797064 593820
288 285521 25085
289 804558 661156
290 723151 837498
291 420157 435674
292 848236 557342
293 445918 491169
294 452210 487988
295 677216 859961
296 384628 62091
297 678717 927771
298 405940 445790
299 278827 46286
300 397231 468555
301 395189 710081
302 768322 540501
303 383932 447156
304 789157 570432
305 253634 110233
306 413690 717841
307 421864 462563
308 812894 662023
309 781597 545317
310 381298 718571
311 872918 590018
312 634040 206472
313 301486 72106
314 704414 928822
315 576141 188018
316 785102 598794
317 392613 660656
318 736024 950330
319 800076 536335
320 505322 549974
321 527612 557643
322 807288 531037
323 623364 185403
324 343910 144436
325 807050 690174
326 478864 461853
327 760712 883806
328 693353 961971
329 554412 153023
330 323943 39096
331 550374 570240
332 630871 222946
333 709108 835902
334 663032 132963
335 750302 984479
336 464617 443104
337 538338 560215
338 311814 117322
339 372298 123068
340 506805 561312
341 428012 662530
342 872024 637420
343 374049 144562
344 674355 159693
345 769989 950567
346 709721 101860
347 716087 953666
348 777084 570179
349 604502 145378
350 295730 67305
351 690306 951518
352 681035 88261
353 570348 192270
354 514587 548276
355 445630 600407
356 541805 562564
357 716924 906941
358 421869 697685
359 462218 553541
360 291865 148681
361 768768 585828
362 807506 618155
363 388860 684351
364 437960 410012
365 787857 566107
366 410705 684246
367 372751 718093
368 405163 457618
369 368707 739194
370 375023 465506
371 344321 493022
372 608095 71394
373 851260 551193
374 414494 672363
375 522584 618869
376 336510 92115
377 446233 735245
378 696857 926401
379 862888 532636
380 598903 123448
381 319736 143334
382 311734 682316
383 833107 517036
384 582434 515617
385 627394 177369
386 702493 938316
387 542318 585212
388 415062 731719
389 546581 628401
390 372293 413244
391 520791 558366
392 596108 169567
393 555365 582244
394 377901 625180
395 651014 94891
396 537661 582824
397 376926 471436
398 811006 535323
399 552276 530754
400 418619 762020
401 314535 119340
402 441489 701124
403 750792 889400
404 566385 523936
405 423252 754083
406 410362 644119
407 356980 738245
408 624568 108972
409 597795 637356
410 362171 685359
411 516839 609234
412 725107 906475
413 406249 473087
414 776784 928321
415 420161 659851
416 618858 163678
417 418219 474982
418 387633 467582
419 878277 625713
420 661212 929390
421 267129 107208
422 693153 978487
423 339424 146232
424 698519 161493
425 320394 61435
426 557355 571271
427 760254 595496
428 613004 193802
429 772137 913122
430 664460 911051
431 411077 716234
432 565569 551388
433 327333 82615
434 869683 625168
435 431016 424790
436 771142 592980
437 760552 960870
438 549096 580228
439 641501 101692
440 404240 493712
441 426116 719924
442 561895 523175
443 860497 579291
444 388333 455307
445 726451 978168
446 640251 95124
447 344248 130568
448 824368 569908
449 750094 906716
450 709627 149402
451 880336 636217
452 538298 566460
453 345447 105620
454 418818 737442
455 674567 157896
456 650762 206071
457 371154 456846
458 655293 131235
459 256591 101921
460 763614 950414
461 743122 883476
462 477243 557605
463 643631 161195
464 548638 600533
465 844051 612575
466 572680 639114
467 393310 444959
468 847291 631430
469 572710 570473
470 434090 401046
471 792357 962739
472 409490 701503
473 810977 593657
474 441701 509029
475 480805 544518
476 797369 688990
477 702353 169260
478 365623 698697
479 609079 134448
480 811334 615616
481 416887 660089
482 463453 446446
483 432606 678462
484 531032 538860
485 347678 650276
486 332161 54043
487 857621 607177
488 325416 99442
489 317648 46365
490 415651 441754
491 730426 943181
492 843985 533609
493 419031 426227
494 502302 557052
495 815388 628166
496 402247 500576
497 384297 414066
498 674182 967276
499 816228 584851
500 428493 477101
501 524017 585925
502 706658 954893
503 494634 571910
504 685438 158794
505 701563 953733
506 552261 561023
507 543706 555251
508 632277 118716
509 620622 157062
510 550087 596147
511 396637 402586
512 519010 558261
513 430727 461860
514 400373 751026
515 387852 732875
516 524538 541073
517 747212 891451
518 805014 601756
519 253399 118633
520 534846 524143
521 826133 575259
522 438745 488982
523 390156 702280
524 349632 68980
525 739056 974706
526 513227 539335
527 826183 582720
528 450457 727087
529 373659 448817
530 466267 697375
531 744385 915551
532 484940 550737
533 864244 468849
534 712732 974161
535 505847 689767
536 585991 166382
537 803811 611877
538 632324 180796
539 653853 939635
540 532534 597930
541 387745 518826
542 455797 612079
543 417176 733686
544 418605 453604
545 539333 575847
546 422374 72432
547 755262 920827
548 856749 553813
549 447010 736662
550 414605 759437
551 831856 654040
552 596801 125154
553 467794 720903
554 628746 114462
555 466505 638773
556 371781 110217
557 410026 733344
558 645443 194890
559 365947 6293
560 525322 534840
561 570575 183856
562 705435 845437
563 430123 437841
564 266704 53038
565 631140 129987
566 460806 516874
567 462172 400336
568 712645 951482
569 550659 554291
570 878589 549400
571 421790 462137
572 872952 673953
573 331392 67130
574 344213 67032
575 333233 145939
576 373209 709361
577 497289 584660
578 292093 122661
579 659621 144113
580 379219 744701
581 473377 450642
582 836223 629735
583 529310 614209
584 361817 454782
585 742739 1012310
586 855137 650707
587 783747 921822
588 657267 141303
589 847063 582242
590 432708 646991
591 480091 531946
592 383551 677127
593 322234 467438
594 438621 703274
595 660716 183958
596 343624 125356
597 520444 527085
598 365700 71721
599 399979 103723
600 413454 648887
601 512332 557807
602 435870 413209
603 367260 57339
604 499618 586965
605 345747 97796
606 425842 422704
607 726787 904575
608 425420 691327
609 484240 751870
610 645269 182584
611 454568 608207
612 834911 664564
613 748230 564887
614 358388 454777
615 636111 53258
616 773178 608200
617 726071 941050
618 364238 680638
619 762416 815401
620 507263 557614
621 583786 591219
622 396555 671353
623 674589 179811
624 719324 956843
625 628055 93657
626 885512 596521
627 707481 892376
628 658129 94794
629 498334 593573
630 520761 541500
631 760219 886018
632 431195 763979
633 457019 677362
634 368900 722497
635 416676 445165
636 821546 608808
637 557295 498659
638 328221 89180
639 354811 377477
640 575917 153354
641 548100 597359
642 652610 937694
643 563672 563848
644 337518 710682
645 654310 174539
646 388069 43972
647 416242 725552
648 851568 660097
649 479502 716176
650 794611 553282
651 392920 30661
652 861284 535869
653 316470 106602
654 750897 959622
655 693900 953358
656 729151 897413
657 398801 688613
658 804383 605787
659 827154 565578
660 724176 907109
661 405725 633437
662 519578 518001
663 620189 240864
664 690680 907954
665 386894 730334
666 364489 448336
667 488544 541437
668 694593 984186
669 799327 623052
670 544581 562034
671 783378 649849
672 712755 913654
673 467107 636074
674 773729 899996
675 763376 923985
676 374065 55162
677 627260 151847
678 428403 586017
679 724738 998662
680 531968 570844
681 854240 564331
682 555009 582465
683 662997 939657
684 432461 689245
685 551775 537615
686 289806 106296
687 710398 915305
688 355865 513719
689 346793 700069
690 710495 136517
691 770527 938401
692 826729 635330
693 857964 614826
694 848098 592651
695 363589 163386
696 362074 704643
697 766197 890668
698 883886 602102
699 559010 530919
700 702513 183858
