NAME : portcgen-600-604
COMMENT : portcgen N=600, seed=604
TYPE : TSP
DIMENSION : 600
EDGE_WEIGHT_TYPE : EUC_2D
NODE_COORD_SECTION
1 250451 597220
2 242068 551272
3 545504 164427
4 996385 78514
5 221875 568990
6 49847 843660
7 995834 808017
8 608897 107901
9 994757 128249
10 145814 620418
11 75293 643525
12 78444 587690
13 1068396 755854
14 -47702 747823
15 188733 529091
16 53531 584298
17 536179 97233
18 240943 656313
19 578251 165634
20 104744 608960
21 11081 611732
22 -11430 724516
23 17587 795634
24 998260 777572
25 975628 77176
26 948927 81520
27 968647 137750
28 623944 154365
29 698441 212412
30 965685 103785
31 94319 775828
32 991864 836956
33 180120 576721
34 965868 62227
35 66579 744538
36 147682 607167
37 77003 564742
38 991256 784248
39 962147 100979
40 563172 194459
41 237098 571212
42 101320 543257
43 9662 529990
44 157192 538542
45 2238 771580
46 984904 103377
47 67597 817741
48 184731 536582
49 1040347 781493
50 1043106 137371
51 948241 837026
52 1060249 868562
53 31860 776327
54 998589 798323
55 491147 117742
56 132421 806701
57 106776 556049
58 583710 161371
59 14341 790524
60 155733 574465
61 925036 102992
62 29727 754171
63 55085 577183
64 567523 190536
65 224972 564399
66 630379 199032
67 936032 66898
68 87022 722092
69 88391 641162
70 255242 555155
71 578484 126601
72 88554 752217
73 147263 560132
74 22806 802206
75 66648 775688
76 992048 59678
77 540249 111184
78 21271 816851
79 510053 149584
80 67922 603254
81 548985 181593
82 684697 119136
83 962912 757465
84 1016821 859306
85 175516 626205
86 973861 821403
87 1061259 819797
88 -14192 740914
89 43629 882190
90 189432 631725
91 607015 137901
92 72341 593323
93 1000130 767859
94 603379 163109
95 1000560 710789
96 926586 39627
97 579841 206779
98 51302 579898
99 592332 197862
100 74894 561790
101 227233 576564
102 81074 592498
103 191535 544853
104 64905 879722
105 83131 514864
106 -507 665362
107 575516 84290
108 214807 618395
109 38070 774929
110 973275 854013
111 113756 767203
112 973459 156970
113 1014238 113611
114 989746 823575
115 556184 201003
116 72656 791523
117 541906 143942
118 934744 895693
119 124998 620084
120 574840 151049
121 987093 856715
122 32427 865271
123 977342 26036
124 668216 187142
125 593357 142759
126 998651 829091
127 948917 730275
128 24372 698999
129 955303 108963
130 195694 567749
131 570460 93806
132 38471 797747
133 194167 646565
134 34172 730447
135 112057 544144
136 620463 152658
137 1043125 786054
138 1015745 835831
139 226446 558911
140 225047 565297
141 649076 111663
142 112644 665165
143 604846 154674
144 977733 824952
145 76832 795226
146 181485 647992
147 971053 116070
148 951546 864132
149 21236 815154
150 1022832 794390
151 561101 149579
152 8401 778607
153 51057 835132
154 958577 45353
155 238819 546231
156 -48677 642176
157 998714 76212
158 565767 131257
159 242538 593162
160 1029933 761776
161 -26763 810813
162 84289 561666
163 944736 78823
164 1026252 120453
165 916698 84621
166 953893 74988
167 75683 777399
168 1015612 788631
169 196636 590392
170 580823 134409
171 916888 797170
172 171715 539460
173 65228 727299
174 994905 160810
175 967613 89601
176 905178 142400
177 568911 189232
178 58907 622360
179 40542 591447
180 84068 730607
181 256476 600041
182 211492 682273
183 230736 549695
184 63075 760958
185 969345 809552
186 -24645 572382
187 1033162 108438
188 44852 588951
189 980573 844565
190 96319 645280
191 82291 584121
192 1023728 762086
193 134481 601265
194 1061106 750065
195 187261 554053
196 54515 632062
197 197221 553894
198 132713 565315
199 181954 559629
200 948191 102967
201 129409 554045
202 949559 116664
203 219604 545924
204 1025261 775644
205 649469 184137
206 998732 730890
207 557588 172060
208 1038241 806300
209 624097 173866
210 1019851 839178
211 988397 760030
212 68461 625407
213 19983 655629
214 16526 666924
215 53228 771336
216 48952 767584
217 949386 75769
218 152965 814434
219 613475 179968
220 50968 752227
221 525264 143989
222 106982 593092
223 638067 200194
224 68945 828266
225 172615 542225
226 958215 776770
227 104985 868635
228 658066 163689
229 205517 603993
230 946720 794386
231 967838 125564
232 86315 820153
233 559723 215264
234 1060064 811282
235 36164 777422
236 67418 753817
237 -24494 612840
238 636802 171090
239 602647 114324
240 77916 844886
241 526033 150887
242 1048466 835932
243 98859 745624
244 959062 837082
245 185019 511748
246 80730 482913
247 964870 140870
248 976670 760910
249 976890 740203
250 974210 85729
251 978004 755087
252 1021966 773153
253 984085 858613
254 156950 542816
255 569975 130023
256 14691 799642
257 986598 832063
258 638944 134303
259 981217 42565
260 18779 764456
261 568538 125041
262 25059 770506
263 896739 116985
264 1029201 132456
265 982537 804105
266 67214 536172
267 221308 544007
268 87840 792627
269 133118 553109
270 992815 809153
271 938786 796363
272 61297 555900
273 20770 743280
274 966132 55453
275 131342 632892
276 43380 813354
277 18276 587058
278 999328 99392
279 930380 81185
280 896603 39158
281 623927 160761
282 1045 731922
283 938681 766051
284 484227 112133
285 957175 830989
286 549676 156694
287 76401 511409
288 88606 618006
289 1036460 813697
290 606448 134408
291 655213 216397
292 612973 181266
293 998559 789609
294 62854 798889
295 15089 575068
296 992290 814409
297 9364 596842
298 111493 609772
299 916072 138568
300 1012641 137229
301 84082 581475
302 60878 584892
303 968053 116501
304 127918 554161
305 154091 561283
306 974960 134461
307 -1534 770972
308 902469 96414
309 943036 803655
310 1032961 814078
311 121154 592512
312 982540 840089
313 42127 797645
314 65703 617988
315 164000 582843
316 1020429 852354
317 1000599 180557
318 105814 774900
319 966164 173816
320 666911 130760
321 65730 791916
322 1119042 849656
323 42232 782672
324 82263 564565
325 940615 756052
326 1028399 727966
327 652196 148089
328 13308 589404
329 914269 137716
330 195927 571190
331 914240 796384
332 16273 864853
333 901343 134989
334 25583 729441
335 981942 868109
336 8283 593816
337 671202 110418
338 1024539 113958
339 995706 75244
340 32096 578405
341 984787 43369
342 35805 822014
343 661043 184088
344 941312 112028
345 66620 621361
346 161248 595123
347 955643 809334
348 596115 106382
349 6635 725018
350 110119 764651
351 1022640 878640
352 953525 123163
353 980272 828961
354 565770 199866
355 25990 587892
356 69541 821808
357 187569 545875
358 1034971 97971
359 97557 632122
360 33848 551298
361 954818 143222
362 569651 99652
363 922937 835337
364 677688 109749
365 199159 624831
366 80568 845180
367 671775 86868
368 184162 621516
369 163312 592798
370 56720 817058
371 952952 841390
372 130135 808442
373 992405 754607
374 92846 811939
375 1027030 105008
376 48945 685170
377 93231 694168
378 607964 70034
379 600057 204763
380 118201 675044
381 54562 854708
382 605428 114780
383 5820 796353
384 657294 161004
385 1027528 116374
386 126877 803320
387 940755 822724
388 1000321 757021
389 615976 117681
390 93927 591195
391 175452 591848
392 1009863 854109
393 946256 87966
394 941347 743622
395 36366 793222
396 57277 568158
397 1005853 757030
398 -20775 506873
399 17479 508291
400 102248 639953
401 36450 586907
402 372 848568
403 172102 587001
404 619327 121756
405 981438 759959
406 48331 543747
407 1031749 39587
408 244334 605305
409 568953 204323
410 949347 787003
411 1036935 96974
412 209409 603460
413 991723 839306
414 974912 143753
415 553977 137970
416 602309 192204
417 674715 179604
418 956691 771079
419 1024268 175594
420 -1309 547103
421 1008914 879126
422 35454 608393
423 36440 619503
424 1006711 122783
425 602749 159668
426 983291 76313
427 47442 659578
428 936314 784312
429 1010364 73690
430 961172 102074
431 193394 620223
432 98305 588890
433 648791 165198
434 603037 241612
435 61530 523674
436 941835 46112
437 25648 782698
438 24429 601165
439 999452 845671
440 611160 133881
441 142110 611888
442 557996 180387
443 961110 800067
444 1042140 115319
445 27179 734498
446 191318 543676
447 43324 614975
448 941886 143821
449 918352 36276
450 950904 735429
451 989852 803287
452 36587 569386
453 146261 621898
454 34683 621199
455 149834 515341
456 228524 581071
457 987499 891663
458 573393 97861
459 664600 160718
460 45315 579624
461 169370 627004
462 629957 101477
463 580419 223610
464 923601 111971
465 978589 113494
466 74143 590375
467 46861 584913
468 53730 781149
469 1022740 785664
470 282440 587912
471 127109 571374
472 935089 123437
473 643403 187653
474 649596 132822
475 64057 650174
476 189144 562399
477 214813 624179
478 53956 643637
479 49901 795120
480 523969 158490
481 36820 779371
482 996476 861485
483 25889 554522
484 89564 704088
485 1034324 109998
486 192074 576957
487 566639 144561
488 497387 127224
489 49910 603310
490 222879 474057
491 -68815 751249
492 1030846 755358
493 233268 587443
494 95768 800277
495 542694 82824
496 107210 820791
497 251008 558330
498 45226 830440
499 899764 130400
500 627857 92748
501 206139 579383
502 205470 632008
503 545637 137982
504 956226 826018
505 636521 197895
506 94512 570562
507 45747 745361
508 625361 190929
509 50387 794580
510 -5037 834962
511 1019933 773906
512 204064 595359
513 1052823 741944
514 526216 155204
515 573110 122036
516 209985 643505
517 963097 77107
518 986765 815777
519 114986 755007
520 18370 595640
521 217355 647950
522 976291 90327
523 648609 120158
524 953221 107562
525 976507 803441
526 192390 622849
527 917291 53116
528 1012971 153508
529 558517 106296
530 118332 794234
531 226095 511254
532 1000473 793217
533 18120 606073
534 171996 530345
535 25796 607745
536 980339 91765
537 89003 823320
538 78608 760632
539 918131 767219
540 1003053 72194
541 -2982 637973
542 120968 796301
543 -5088 683763
544 1058648 57151
545 179488 639644
546 127548 787377
547 105802 610637
548 929134 73319
549 98816 797516
550 208967 532480
551 916913 837140
552 592174 148965
553 102158 654326
554 164454 567709
555 969122 818689
556 678569 175056
557 32935 846587
558 1008013 754503
559 26997 770615
560 1004763 110638
561 607113 132462
562 33243 552257
563 558915 137154
564 91948 867171
565 591238 152365
566 78510 656707
567 996598 146485
568 920367 782909
569 965981 20222
570 548130 106111
571 200015 553305
572 174389 565564
573 133 736997
574 183331 579950
575 29569 530730
576 556306 190978
577 992245 789010
578 215440 568263
579 11573 755563
580 1046425 149490
581 621204 176354
582 208275 600617
583 994283 773221
584 12682 601082
585 79251 630711
586 46127 859010
587 980698 94405
588 52198 612611
589 62961 553901
590 947287 830236
591 -15108 601373
592 -26717 787515
593 105935 529629
594 60476 625801
595 646243 66625
596 101572 800327
597 1093159 746525
598 911096 117400
599 37973 631273
600 917108 107008
