NAME : portcgen-500-503
COMMENT : portcgen N=500, seed=503
TYPE : TSP
DIMENSION : 500
EDGE_WEIGHT_TYPE : EUC_2D
NODE_COORD_SECTION
1 673323 164913
2 933518 246989
3 881089 303305
4 999366 386287
5 748955 389319
6 727466 236146
7 670519 210990
8 980672 473764
9 957387 444386
10 886689 502979
11 937789 341936
12 737272 179027
13 1002130 450014
14 650997 145277
15 941152 363843
16 762842 286889
17 955267 308489
18 716154 350928
19 926742 327642
20 782002 174872
21 885198 497728
22 678815 340200
23 806156 341597
24 803285 190477
25 945461 514384
26 773617 173916
27 1005542 321176
28 1093599 403014
29 757669 255889
30 820025 274124
31 901427 495344
32 1048131 312331
33 878029 547817
34 719017 130192
35 1048064 414520
36 771670 167993
37 925581 435938
38 896653 450995
39 780342 209636
40 969397 380926
41 659674 251749
42 931628 340247
43 892187 304847
44 838489 415234
45 1004853 443961
46 698442 309093
47 708326 194570
48 771238 332037
49 803378 457221
50 863237 442527
51 958655 431094
52 969999 320730
53 748656 204813
54 794451 207121
55 720031 436739
56 958190 438248
57 931231 319655
58 840016 496755
59 976197 378499
60 917176 343859
61 833731 332169
62 699675 185293
63 907825 297895
64 925652 471217
65 699254 202034
66 700387 248861
67 861577 522568
68 926864 334737
69 933647 353273
70 941660 400848
71 1112912 421930
72 905450 349889
73 868169 303750
74 928827 367437
75 827637 348974
76 834330 338188
77 881454 317947
78 766198 372949
79 922873 420934
80 810709 331130
81 963368 390516
82 854507 474072
83 979744 337683
84 872718 554682
85 1014610 382124
86 793707 353951
87 891463 234071
88 878660 509878
89 827420 352994
90 765488 196674
91 967882 435548
92 877169 336950
93 921895 444851
94 797366 206161
95 934947 377546
96 740586 203336
97 874006 454885
98 837170 568867
99 860331 322947
100 801893 189291
101 721226 369077
102 949013 401766
103 974096 498387
104 952930 282706
105 825437 524583
106 932793 378305
107 779173 210531
108 965955 335561
109 929650 383950
110 902200 295525
111 923069 344093
112 935368 313540
113 811463 187393
114 873306 510307
115 1033316 391972
116 775824 279776
117 719620 279237
118 759348 272490
119 949024 328688
120 759402 383943
121 941555 387932
122 846672 397451
123 943625 533126
124 1002588 377759
125 1022107 406629
126 924745 525263
127 732990 340037
128 957846 423430
129 766463 310825
130 914301 338885
131 778595 331592
132 786688 437557
133 756614 148113
134 999865 349299
135 811333 223223
136 803380 272163
137 1009992 412346
138 757848 321442
139 730163 211087
140 870034 285287
141 765031 333849
142 995491 384248
143 873360 558069
144 709948 274171
145 929653 317185
146 836604 207384
147 863783 515687
148 804482 214685
149 780276 175693
150 744188 342763
151 941755 246461
152 926284 570782
153 914217 476667
154 812326 161965
155 989462 356469
156 771536 193087
157 773750 169685
158 944716 348592
159 1061671 368994
160 926752 518224
161 828422 361313
162 779675 208844
163 963806 409813
164 750720 338839
165 896114 422890
166 934037 539436
167 821420 426006
168 986647 478889
169 731944 136363
170 909243 443169
171 761424 362520
172 829735 450271
173 924784 323295
174 952103 498435
175 785927 271361
176 944939 294962
177 896605 373699
178 756020 314987
179 723924 230199
180 783754 313549
181 677719 129715
182 932776 360577
183 921218 524593
184 974748 287963
185 962007 286656
186 989512 269659
187 938684 521107
188 730145 207357
189 733287 168239
190 960634 416149
191 915592 307336
192 677164 249066
193 863993 349690
194 921777 572836
195 744196 221899
196 858384 495758
197 1014161 383489
198 662625 292031
199 672886 270624
200 670826 256303
201 729145 326029
202 973079 445111
203 971238 225060
204 864252 525720
205 916504 459958
206 764840 327650
207 939560 372873
208 814600 342673
209 1039042 407323
210 936766 526436
211 928975 302377
212 976312 334034
213 874768 368944
214 718204 192750
215 704343 282514
216 731172 225647
217 777204 303180
218 699762 179409
219 805804 116973
220 826526 225122
221 899072 478487
222 938839 317881
223 947558 528571
224 860478 541375
225 978560 484063
226 877761 277746
227 874155 477589
228 870680 386707
229 848749 472898
230 971198 428833
231 974335 500493
232 885382 328982
233 883363 473081
234 951224 386007
235 852056 458277
236 703813 216330
237 756173 334120
238 868290 352228
239 730554 348977
240 1031954 467908
241 779637 256702
242 768337 241087
243 825206 495831
244 905636 346329
245 946609 540666
246 789849 162546
247 968685 295525
248 891971 515544
249 949565 269814
250 732231 186595
251 612478 170853
252 805137 327243
253 883418 287122
254 736880 354918
255 905270 411768
256 909087 448498
257 1005946 382838
258 774640 192154
259 915986 353752
260 936322 327577
261 966434 513058
262 1039967 394350
263 896788 403096
264 704129 315547
265 758177 179300
266 783826 315390
267 931948 477863
268 877380 325887
269 846438 502547
270 788650 466562
271 676394 230199
272 748193 300650
273 855764 460485
274 920160 599464
275 799686 378363
276 757506 439030
277 703978 174038
278 949321 453773
279 740120 335648
280 1021754 362448
281 862673 429448
282 889113 324780
283 737910 327222
284 772951 239704
285 805219 488406
286 918135 344352
287 720282 184994
288 789200 201567
289 804317 512269
290 827837 548348
291 864255 560982
292 700856 201576
293 884124 481188
294 784107 381340
295 720813 367106
296 1006091 417943
297 940648 442319
298 786749 413572
299 941940 373712
300 706732 363717
301 766215 321563
302 947803 348082
303 815206 373929
304 847391 321682
305 980639 387770
306 1003115 432543
307 772051 236092
308 876986 481744
309 801748 295991
310 857205 465573
311 827432 524773
312 940918 307667
313 957072 399339
314 968631 321423
315 865357 490594
316 855476 289533
317 802377 341761
318 765901 105518
319 868975 539061
320 728149 372677
321 1041194 415691
322 896821 342354
323 945324 348818
324 723359 368514
325 922168 523709
326 977585 305256
327 1000902 403185
328 802820 355560
329 970263 556078
330 973078 281420
331 1016255 372249
332 879460 507864
333 872325 510953
334 805419 226443
335 759402 353628
336 866168 487248
337 833082 447735
338 793817 544367
339 883976 321342
340 844666 274534
341 824559 349159
342 965173 431244
343 785990 301295
344 1066316 443043
345 853736 539919
346 968703 303576
347 1001020 351093
348 725445 255114
349 875511 317410
350 761682 129919
351 778849 270642
352 915447 492723
353 1007818 354142
354 982359 388387
355 820255 342022
356 873926 401831
357 750270 229137
358 993186 433592
359 904523 382387
360 794983 105323
361 916101 407237
362 720411 387262
363 912383 541027
364 902627 323183
365 791352 480462
366 939980 357831
367 876439 481737
368 803603 391043
369 916210 267015
370 881582 435676
371 883286 439074
372 931924 270582
373 968851 417674
374 958694 480621
375 828235 232586
376 858489 469661
377 868661 443772
378 819946 372147
379 913164 450557
380 849076 346864
381 805700 336216
382 989978 284414
383 964953 417001
384 827264 571873
385 937767 454192
386 702845 271435
387 995920 452557
388 922198 344183
389 944939 376462
390 990451 335906
391 731027 262278
392 779685 261953
393 949020 297648
394 949583 392900
395 735139 362781
396 963308 332252
397 695315 190861
398 899371 235007
399 823017 471747
400 918926 419517
401 946478 278478
402 809261 341973
403 1022282 406169
404 915826 325868
405 737184 212835
406 980576 469739
407 931369 409677
408 682997 182131
409 792158 272633
410 880404 501967
411 948070 397568
412 782600 383209
413 823342 209209
414 895875 549756
415 912611 295980
416 954556 453055
417 932845 435446
418 839429 287081
419 928688 483740
420 919350 451488
421 726323 172353
422 930956 370834
423 741865 256161
424 841835 529202
425 843990 482988
426 917153 532929
427 756843 147569
428 742750 266863
429 703955 301143
430 942465 276291
431 1047697 392811
432 701320 413938
433 921664 328897
434 856945 297696
435 922748 468036
436 749473 221407
437 841698 193293
438 791223 305295
439 1002185 233374
440 866383 356204
441 802191 186926
442 727178 209828
443 1003432 430801
444 896408 302614
445 775687 129255
446 923192 335458
447 1000864 338456
448 866342 454017
449 784615 247567
450 866730 455245
451 985251 406660
452 904526 455061
453 810401 418820
454 961026 406736
455 843605 531949
456 655529 234258
457 879340 103997
458 787342 355549
459 805510 387583
460 867952 319083
461 923670 340025
462 978867 304060
463 717877 218630
464 930369 301798
465 981918 346580
466 735731 244564
467 953153 493831
468 829841 281038
469 723261 160239
470 850803 477294
471 882673 322012
472 975466 315547
473 819272 583263
474 929420 574232
475 889942 270938
476 922348 415185
477 793230 369780
478 956281 381635
479 950304 318250
480 907402 436448
481 727499 227782
482 917598 336757
483 800698 569935
484 659274 286076
485 994392 350612
486 739406 343604
487 994186 301947
488 979888 274550
489 814778 254535
490 745912 193885
491 937434 307813
492 782863 519067
493 922361 509390
494 959912 326148
495 763915 201094
496 946750 345324
497 808602 337122
498 728704 393581
499 679488 303232
500 768436 264809
