NAME : portcgen-1500-1504
COMMENT : portcgen N=1500, seed=1504
TYPE : TSP
DIMENSION : 1500
EDGE_WEIGHT_TYPE : EUC_2D
NODE_COORD_SECTION
1 711767 393076
2 190484 366015
3 291826 239499
4 753762 398732
5 415189 866498
6 354337 338422
7 184419 397659
8 222406 522306
9 64938 711153
10 170707 159128
11 363184 244318
12 143441 154533
13 643129 862435
14 242040 277236
15 322104 222467
16 194555 408793
17 71574 706231
18 955590 167686
19 978138 211466
20 687829 232685
21 670218 894021
22 313922 359860
23 669760 189356
24 179113 521784
25 331536 284265
26 294551 359780
27 924947 204063
28 664401 867027
29 283342 360332
30 725877 399707
31 246559 276913
32 666530 899369
33 427280 861305
34 349277 236925
35 729683 385560
36 660061 158818
37 220331 299358
38 319654 279656
39 156286 392107
40 910707 205282
41 314506 373821
42 207495 232008
43 172474 169189
44 164078 527731
45 721667 234313
46 257256 76547
47 277496 281452
48 462493 846177
49 443467 854532
50 52455 710899
51 935333 193000
52 352665 232292
53 701744 854974
54 295240 53182
55 736140 925676
56 741729 930050
57 647799 242170
58 36437 706717
59 246667 284059
60 283721 257170
61 703629 208959
62 444196 837309
63 315038 290728
64 177639 528876
65 979192 173516
66 275607 38770
67 941182 197844
68 677719 850555
69 175325 515704
70 705188 867364
71 316516 253451
72 694089 239792
73 281296 73970
74 338504 260907
75 209228 569986
76 258796 68838
77 651894 195532
78 756347 402045
79 660080 911576
80 725203 371173
81 192312 191427
82 244400 195759
83 222462 274508
84 771046 856690
85 950083 183439
86 104812 689663
87 664225 879458
88 938931 196037
89 185458 153813
90 344701 230377
91 949515 166156
92 732410 869717
93 113622 151717
94 764349 885986
95 931543 207829
96 679135 216511
97 347048 72614
98 33078 704885
99 752437 394636
100 161277 483750
101 799063 878690
102 672761 204541
103 360948 237596
104 340673 277682
105 252082 75829
106 272505 69270
107 334362 90143
108 750718 372685
109 293952 222582
110 292293 251777
111 934846 161519
112 720639 849360
113 346739 352615
114 381181 359747
115 654705 159952
116 459787 881932
117 930888 198784
118 211269 553982
119 367240 224680
120 350692 237960
121 206700 262876
122 368458 250424
123 196322 335861
124 764542 851466
125 743756 411373
126 408365 849742
127 710836 245033
128 153317 514999
129 314907 259180
130 316880 365008
131 301511 235920
132 695341 364423
133 56049 691547
134 348385 245469
135 653500 820377
136 311473 218207
137 330315 349516
138 750473 418174
139 326433 249914
140 256061 118727
141 170186 369806
142 374537 339641
143 687727 901183
144 299308 95637
145 26065 721789
146 389496 901813
147 242031 348595
148 727723 868752
149 246468 306337
150 221991 562875
151 255867 282607
152 269402 98485
153 208811 307406
154 177773 174016
155 234555 265034
156 369841 236461
157 931890 202453
158 202687 392218
159 431681 866643
160 424134 876058
161 207628 360258
162 712576 847702
163 294461 222511
164 949371 191743
165 303084 288990
166 320385 333916
167 149206 565867
168 299601 108690
169 282030 32989
170 36797 719337
171 298946 63152
172 664480 863908
173 385645 855282
174 77243 709909
175 227706 309264
176 118257 704107
177 704248 415140
178 165758 391534
179 297773 121560
180 948221 168199
181 656453 207819
182 329420 261301
183 178113 320234
184 454467 883016
185 644290 183919
186 711963 231456
187 811931 882431
188 270041 65990
189 257601 66971
190 56815 689455
191 661095 167526
192 208324 528706
193 306663 184427
194 193876 522933
195 195878 551290
196 948035 215451
197 711821 879251
198 319500 250835
199 717423 165848
200 169110 528225
201 350224 255787
202 281630 308599
203 437363 902259
204 186506 502746
205 392491 893803
206 440608 893619
207 190412 141282
208 183613 137471
209 240064 303775
210 277480 114778
211 49059 705125
212 142400 178721
213 71170 688328
214 208641 395378
215 274089 359253
216 220037 116662
217 318987 262750
218 447995 822229
219 733492 938065
220 302240 289148
221 926398 204292
222 207697 220566
223 738804 863386
224 667721 204375
225 290973 45124
226 338703 322658
227 94949 706788
228 636755 900359
229 144711 371811
230 343032 220938
231 728525 426300
232 175907 426930
233 439517 885044
234 209292 123797
235 757897 395540
236 331056 377807
237 145859 142317
238 649272 177056
239 286553 90981
240 696904 149707
241 699132 251220
242 320059 285727
243 147203 174571
244 188003 552378
245 679182 886040
246 325088 198502
247 671001 202995
248 211813 505673
249 249757 276176
250 285915 262443
251 50695 719275
252 192808 520963
253 142652 529660
254 760002 868708
255 710877 873984
256 104247 714813
257 279574 245917
258 141632 141717
259 176048 101668
260 210041 577582
261 167524 135538
262 679476 880573
263 647365 212870
264 990539 201936
265 974622 178063
266 75877 686616
267 113592 522622
268 335014 284350
269 738616 374139
270 806524 831681
271 955210 178108
272 71232 747343
273 55585 697102
274 659811 242774
275 229257 253100
276 324265 251441
277 437251 837017
278 937345 180376
279 178915 146606
280 186369 134823
281 459695 892236
282 708095 850225
283 701194 927478
284 283001 50232
285 342366 220321
286 778106 414683
287 391884 869125
288 203148 270091
289 881281 224895
290 299030 382126
291 180886 140081
292 192550 280662
293 243353 64311
294 662208 862653
295 313347 227739
296 673693 876244
297 455058 843174
298 303657 284424
299 328907 200662
300 190773 511542
301 764340 868551
302 330235 245501
303 264203 87401
304 477754 920583
305 734283 386586
306 690093 929640
307 343568 254486
308 451413 872077
309 399066 908904
310 668673 870484
311 205122 133702
312 342076 211289
313 907345 185060
314 37910 659109
315 260632 236563
316 256130 331151
317 136085 151438
318 235458 368106
319 992114 237977
320 693318 904685
321 135305 140494
322 334285 256669
323 915236 155485
324 317547 239878
325 207694 377427
326 950120 205452
327 656465 161125
328 204263 405328
329 260246 69239
330 449072 884274
331 772290 426506
332 944935 204037
333 435894 807062
334 27918 714760
335 722277 182083
336 257983 84573
337 145377 180092
338 291078 318155
339 287198 63355
340 208876 166441
341 303741 231163
342 712140 845563
343 300678 226307
344 1004945 210879
345 179555 163298
346 715123 895365
347 312906 254652
348 345459 294497
349 245593 335569
350 707543 896729
351 984017 193024
352 235566 266526
353 288177 104542
354 270630 283884
355 644282 873730
356 289616 355844
357 408198 933382
358 154238 172882
359 292492 354496
360 715227 422237
361 43640 724807
362 761172 870097
363 770374 425394
364 183241 169393
365 244368 84195
366 168195 392102
367 188426 403909
368 959379 208211
369 171059 165482
370 281586 97307
371 997647 175871
372 212411 520638
373 194767 317071
374 191826 515470
375 408260 865749
376 717658 383158
377 172529 383447
378 421352 846113
379 193929 541412
380 451368 873306
381 651821 871054
382 303970 230849
383 413765 924634
384 758734 918122
385 286523 56103
386 409498 899261
387 41403 694737
388 699974 218795
389 440902 863156
390 201102 543647
391 291906 265082
392 446500 892882
393 317125 219370
394 697018 423770
395 288305 52586
396 662152 202248
397 630331 214616
398 800871 880121
399 331868 324478
400 162251 194892
401 78708 734534
402 752365 386696
403 633187 918167
404 177626 173958
405 161311 171068
406 803946 896565
407 658385 215664
408 235024 87216
409 651194 879805
410 284030 332717
411 291910 393977
412 204308 524691
413 176623 597883
414 329847 313184
415 268884 80773
416 217323 416984
417 739888 846846
418 703617 890059
419 314595 223341
420 369270 249962
421 673266 912369
422 629678 181141
423 95224 688884
424 35009 702257
425 456807 901143
426 733456 394244
427 324638 367838
428 310216 359196
429 350117 350657
430 924402 197360
431 722466 366405
432 162008 141609
433 730388 353822
434 334712 354258
435 699334 871050
436 326005 391610
437 410958 883580
438 723981 463053
439 271314 63595
440 239875 59477
441 954546 256710
442 162024 180764
443 164888 340503
444 153944 174152
445 307928 363384
446 703634 188110
447 716989 427763
448 950464 173462
449 51874 700088
450 476479 928076
451 666804 255650
452 720352 373536
453 328612 265453
454 735232 908905
455 690666 380935
456 918709 213628
457 198027 154010
458 239776 280174
459 190618 516778
460 696264 857505
461 302408 23726
462 169355 162366
463 164615 382182
464 720309 886410
465 194551 553347
466 220956 397653
467 137814 238012
468 477622 857116
469 328692 255891
470 707735 836163
471 706062 889438
472 958523 233579
473 310022 259064
474 150766 389506
475 197299 538476
476 660704 221411
477 315713 232807
478 324623 211901
479 682944 186849
480 933987 169884
481 167843 174214
482 911092 158757
483 259533 258036
484 285695 302622
485 168684 396153
486 219250 377476
487 329165 257674
488 190387 204642
489 236693 241220
490 207580 375796
491 709343 895057
492 41970 726394
493 711895 210935
494 743910 899020
495 201430 141244
496 58718 717823
497 690788 410293
498 982737 186125
499 191309 501236
500 155250 127271
501 453454 919339
502 200961 551188
503 326735 341272
504 293103 54516
505 329910 347669
506 313826 316611
507 201279 528313
508 309278 276313
509 321162 217042
510 711157 319887
511 167184 156381
512 52770 706552
513 249809 58878
514 629870 223363
515 630435 895684
516 253125 263931
517 312294 394986
518 260398 73594
519 335797 344684
520 420082 851486
521 162417 545907
522 769031 833195
523 276298 327728
524 744972 881572
525 428391 863912
526 352835 204924
527 687419 855035
528 691944 424734
529 694691 908768
530 235586 362037
531 713593 876989
532 350884 323982
533 419705 830857
534 242940 96151
535 377705 863969
536 732091 871163
537 310302 331954
538 168760 388010
539 345365 236902
540 36192 676771
541 190864 140554
542 425901 838761
543 234501 25690
544 654505 234260
545 260036 244398
546 294271 373558
547 338694 263295
548 741791 366182
549 671923 212066
550 257460 14179
551 205489 239899
552 275310 88154
553 201990 361857
554 973336 163855
555 160453 360266
556 178220 561929
557 360182 268271
558 139937 559283
559 33910 738704
560 298073 242273
561 702127 237334
562 304338 337685
563 330046 368396
564 361354 309370
565 294421 321477
566 798986 400840
567 47856 701797
568 728939 412304
569 164798 386997
570 679390 876213
571 325966 68274
572 180779 168409
573 349674 272047
574 266744 77598
575 322379 256518
576 175366 159178
577 752593 915917
578 323796 332434
579 916116 209015
580 198260 104335
581 637900 201431
582 204504 552047
583 160796 270787
584 305374 252849
585 261893 212904
586 266564 231992
587 328957 322547
588 130309 403514
589 340559 363398
590 781404 867411
591 666056 422059
592 469891 864157
593 166849 534290
594 927063 154475
595 353969 372032
596 174719 378315
597 670336 878818
598 739230 905331
599 295505 257113
600 429739 868849
601 339114 226673
602 160383 553459
603 149113 216519
604 303492 247432
605 756518 410533
606 188081 353903
607 349309 228480
608 781319 860833
609 193308 388054
610 272657 93260
611 764728 940516
612 312665 389754
613 431690 854903
614 957891 186659
615 165392 542024
616 234230 260790
617 248127 98713
618 158435 571070
619 294156 231241
620 278297 260416
621 48075 701140
622 746216 162507
623 763814 844912
624 283597 45648
625 452202 860938
626 310249 309926
627 648894 210687
628 318710 342403
629 326199 261744
630 179594 509371
631 110554 713486
632 306535 252658
633 747381 827629
634 315811 373974
635 168327 481254
636 754116 830688
637 344946 383791
638 160659 544132
639 981063 191572
640 706592 850878
641 329873 306757
642 746901 854310
643 306807 267227
644 260298 76308
645 343205 372153
646 1002358 197230
647 307868 139977
648 426403 851639
649 726442 376104
650 238011 255374
651 158638 546223
652 684634 238155
653 933945 184879
654 457131 865050
655 229695 222000
656 211144 386081
657 242677 232079
658 715413 878629
659 678565 204830
660 752272 440741
661 710291 911292
662 656941 901332
663 201892 286390
664 161472 175000
665 333461 347354
666 282489 215490
667 639509 837075
668 46288 723815
669 201515 543742
670 791951 888185
671 652803 844131
672 309588 243599
673 138303 152336
674 253876 248905
675 436252 853277
676 314919 360861
677 175380 131758
678 731213 887713
679 159153 531981
680 300690 268434
681 276986 186761
682 352168 280858
683 364331 254660
684 774232 375774
685 285785 215887
686 792510 880987
687 208813 398092
688 751851 387218
689 738939 831245
690 719037 369538
691 915542 209766
692 176158 521679
693 201469 571452
694 236723 247174
695 334166 340898
696 732470 395876
697 741987 419666
698 964092 173124
699 225675 408998
700 283249 264634
701 319268 93242
702 628663 881143
703 781564 882512
704 224483 248165
705 932326 207177
706 54084 760157
707 752811 867988
708 473875 920535
709 753255 421355
710 282457 77078
711 687584 921897
712 58353 706272
713 256964 241428
714 686278 191265
715 936830 155549
716 295531 239434
717 668848 899294
718 58929 697739
719 147499 136470
720 228660 344338
721 153600 409984
722 209198 580600
723 187610 528766
724 778239 936779
725 347327 322887
726 454035 878836
727 655149 208724
728 686941 227511
729 772407 906508
730 703668 898917
731 731020 839117
732 330152 346879
733 237480 246813
734 681583 884659
735 229746 262075
736 968374 235066
737 630012 213511
738 170730 379116
739 329858 278888
740 168174 198589
741 429190 878254
742 755749 375803
743 694434 205082
744 666123 873400
745 627910 232167
746 279081 89267
747 765459 407948
748 150225 523933
749 152042 153632
750 674451 213252
751 217425 399507
752 463904 842487
753 664047 214323
754 263030 302315
755 177042 549339
756 344565 286490
757 791944 354559
758 647444 247243
759 236377 279752
760 687216 814951
761 318280 256417
762 170778 148862
763 201712 375829
764 258294 123117
765 338517 238935
766 415181 861505
767 763160 396022
768 734657 359706
769 713088 843029
770 767147 391696
771 317047 319242
772 689746 187492
773 329767 347762
774 243936 265429
775 419900 845946
776 957178 181907
777 302552 267645
778 431662 874052
779 655518 911820
780 320092 402989
781 215398 395494
782 159114 176043
783 934043 226457
784 355529 283823
785 462370 846330
786 277657 120942
787 739558 416444
788 286847 88602
789 708872 859374
790 50552 733686
791 196063 568289
792 186889 516119
793 181283 548217
794 750946 846400
795 159116 392996
796 300246 332605
797 972573 173354
798 223024 289357
799 783768 894727
800 789333 866325
801 649456 891078
802 662372 193767
803 207095 358957
804 258636 202721
805 307808 224434
806 739652 878974
807 172508 353946
808 182560 168597
809 56662 730346
810 149314 476055
811 265932 307086
812 350246 275707
813 725141 431794
814 300203 97913
815 760585 880719
816 675899 829183
817 703602 863115
818 753391 419775
819 279861 376114
820 339059 215805
821 297387 58054
822 423002 835694
823 700228 201864
824 728015 323554
825 158662 151608
826 754957 342646
827 399015 857217
828 672743 886551
829 718572 179345
830 895760 166233
831 687398 886075
832 718052 361665
833 157110 99205
834 329627 300357
835 342639 331595
836 197129 377822
837 138081 380712
838 169098 411943
839 427213 906080
840 756509 862626
841 321155 75080
842 704633 898388
843 199280 541182
844 282989 40432
845 725135 841989
846 196419 352032
847 787075 877423
848 683489 198268
849 328434 74407
850 247999 71985
851 947252 162708
852 752082 865754
853 749462 889769
854 219953 513973
855 293142 256312
856 919839 171966
857 353901 256967
858 708776 888688
859 288794 215404
860 175977 94695
861 37732 677099
862 44971 681845
863 326232 272117
864 429716 832281
865 320667 207260
866 747309 380256
867 208820 535485
868 492946 894277
869 331133 289021
870 55089 662400
871 130832 156065
872 216664 38067
873 111969 685364
874 636787 235882
875 718995 191327
876 314388 223040
877 206210 276091
878 738702 418517
879 232944 10731
880 774230 384935
881 766169 911576
882 39401 710510
883 801964 893389
884 716226 402819
885 145230 332738
886 265469 38156
887 713065 197573
888 127767 140750
889 748062 371981
890 219377 552144
891 754734 378642
892 686550 226663
893 365284 206068
894 314349 286132
895 299909 331814
896 767050 859073
897 634549 176020
898 474961 907742
899 773953 884405
900 442618 883917
901 312438 247716
902 185449 184835
903 206251 149178
904 183272 538083
905 756859 913352
906 282824 117381
907 300546 364665
908 311213 364471
909 184631 293710
910 26318 702862
911 720453 860877
912 467956 877168
913 11240 689560
914 163657 524869
915 693324 844577
916 361428 312950
917 680067 855508
918 280386 118797
919 189843 323556
920 339194 258509
921 622076 857527
922 776749 927548
923 742861 861515
924 309363 249205
925 335918 203911
926 244470 62678
927 246236 275947
928 727016 451170
929 335166 299743
930 326017 320195
931 661187 868607
932 169213 354604
933 730665 408452
934 660439 161842
935 414379 872727
936 734722 151587
937 315246 246687
938 166754 100937
939 263786 273368
940 430576 874391
941 725775 877897
942 298874 82744
943 58278 722626
944 292092 86950
945 161363 545814
946 327228 216467
947 245671 269331
948 236197 250544
949 274046 327987
950 164830 153053
951 202416 138391
952 744894 883640
953 673107 230282
954 190504 360561
955 984271 188251
956 180538 594470
957 198791 195466
958 204157 157755
959 306654 333773
960 288709 283623
961 696103 834536
962 58189 684195
963 738047 378119
964 330748 394285
965 697581 228621
966 262827 273945
967 691853 855401
968 813229 857612
969 691407 397965
970 276221 68749
971 201807 532297
972 321501 274221
973 52947 711110
974 316015 274889
975 200419 251527
976 320413 345813
977 203651 151162
978 449841 865079
979 665029 171445
980 68930 700076
981 341473 276848
982 172403 182717
983 195044 413652
984 199360 556789
985 744015 369350
986 458050 831848
987 309018 214314
988 34394 696281
989 431666 894586
990 668874 225114
991 349796 219083
992 158757 525636
993 332100 270407
994 219099 353291
995 63878 677071
996 33608 760172
997 314055 323968
998 361528 254418
999 67614 685764
1000 675284 852922
1001 279042 79298
1002 118545 384328
1003 332873 214011
1004 366342 240355
1005 80058 746741
1006 768117 814743
1007 170508 177177
1008 682810 869145
1009 686374 367909
1010 331274 329531
1011 161083 478691
1012 664222 905520
1013 657381 878215
1014 748917 884394
1015 261068 41242
1016 72332 675567
1017 185663 521881
1018 252471 212351
1019 313644 66726
1020 463555 889102
1021 302533 88346
1022 718928 871084
1023 696431 194517
1024 288193 258978
1025 246005 85607
1026 650775 234356
1027 660200 866687
1028 742624 867810
1029 324152 264175
1030 398307 854703
1031 106018 714989
1032 177950 148824
1033 203603 534976
1034 373245 256232
1035 319868 266316
1036 91658 718933
1037 239778 270839
1038 707294 192440
1039 692103 191171
1040 640777 849415
1041 156790 536351
1042 165394 348495
1043 669892 220775
1044 395988 845636
1045 254910 257334
1046 146084 171771
1047 309509 348702
1048 300890 108296
1049 293836 245232
1050 462239 869085
1051 723459 378327
1052 217449 402038
1053 743864 466492
1054 59512 650777
1055 3049 683608
1056 412814 845196
1057 707808 884310
1058 255503 290244
1059 790413 388184
1060 270089 371214
1061 737694 377338
1062 408996 863014
1063 950410 181393
1064 944762 178860
1065 897655 232361
1066 356485 285921
1067 633064 895043
1068 217656 220479
1069 348721 251623
1070 213523 372339
1071 747814 445975
1072 225651 279844
1073 757155 847634
1074 184316 510514
1075 278074 248435
1076 181942 500109
1077 715428 248748
1078 188443 393666
1079 310666 284625
1080 207300 536353
1081 230169 421723
1082 137915 133087
1083 159916 525881
1084 230063 274152
1085 698162 184236
1086 244678 185654
1087 742414 349204
1088 449265 884461
1089 324088 257827
1090 950333 196566
1091 246495 223885
1092 198731 546891
1093 761540 395073
1094 331109 311678
1095 741878 418403
1096 294903 34009
1097 680266 846981
1098 688918 422904
1099 173247 556700
1100 142725 556108
1101 305368 256705
1102 366027 274341
1103 202040 404168
1104 258349 62372
1105 347363 277647
1106 283911 106423
1107 190378 518129
1108 746810 400083
1109 660805 851794
1110 685943 867452
1111 328474 56095
1112 663615 891516
1113 949265 176001
1114 420444 905471
1115 953051 182710
1116 208750 391319
1117 162484 119734
1118 398938 906264
1119 248060 588628
1120 377465 335625
1121 209091 233373
1122 79986 693685
1123 178186 251104
1124 724013 416145
1125 308244 272076
1126 310620 336932
1127 663734 208924
1128 742817 878090
1129 205496 557140
1130 217630 318181
1131 184736 372435
1132 714096 866359
1133 724177 375469
1134 334984 346235
1135 284943 246561
1136 356036 245351
1137 753566 894634
1138 276225 104111
1139 252281 113962
1140 966426 237356
1141 424471 828220
1142 299937 331295
1143 923869 166325
1144 135399 508315
1145 763848 835041
1146 761904 852093
1147 161294 407935
1148 688367 855420
1149 255964 254484
1150 660687 213496
1151 203950 490437
1152 327256 248861
1153 174564 362116
1154 280052 279325
1155 425271 926219
1156 4734 726928
1157 323682 367619
1158 285313 41115
1159 157008 515909
1160 191611 373192
1161 234256 229776
1162 654105 220934
1163 693687 889029
1164 175338 595367
1165 190819 150325
1166 353845 248347
1167 321603 246524
1168 348589 288434
1169 179182 145420
1170 696398 177287
1171 195397 381577
1172 19222 699573
1173 436425 906992
1174 351808 247400
1175 770916 383567
1176 760304 402423
1177 326193 309113
1178 671438 912762
1179 172906 521657
1180 714184 162240
1181 337639 240021
1182 167777 148743
1183 139271 358233
1184 209250 365773
1185 310572 255525
1186 886727 218719
1187 310320 328542
1188 725792 233192
1189 966576 172583
1190 963232 220324
1191 305831 184494
1192 77723 752733
1193 281419 354382
1194 194794 555455
1195 401633 887003
1196 207560 529282
1197 763105 413393
1198 48570 679050
1199 299725 279730
1200 733413 167728
1201 264340 230852
1202 280796 73882
1203 780583 889771
1204 206449 474591
1205 283411 324855
1206 673112 878537
1207 212409 429261
1208 730019 858932
1209 153739 398947
1210 313342 339956
1211 170799 589368
1212 129108 189001
1213 411958 921067
1214 311916 226506
1215 148823 135676
1216 294226 384381
1217 280236 235386
1218 654295 222405
1219 721295 332291
1220 946970 175230
1221 620612 177209
1222 943916 160829
1223 757590 374066
1224 157917 155701
1225 770736 936831
1226 701423 879152
1227 268788 115293
1228 152203 127944
1229 765770 895840
1230 169269 555350
1231 296006 115230
1232 224482 271383
1233 315334 349176
1234 220490 147956
1235 227134 235129
1236 194825 218265
1237 68480 687305
1238 314291 343775
1239 472078 868713
1240 207878 358149
1241 205964 403952
1242 241310 254387
1243 285296 216298
1244 893262 240301
1245 291227 328982
1246 446993 838852
1247 666382 182627
1248 214537 369564
1249 661779 841051
1250 416920 870163
1251 212624 565416
1252 163920 174252
1253 307850 380102
1254 230773 263049
1255 339729 254733
1256 298148 263973
1257 647279 885487
1258 341491 339495
1259 179913 141614
1260 425578 840152
1261 150396 169758
1262 195818 239194
1263 312521 245518
1264 316350 389558
1265 690151 884436
1266 313533 265174
1267 908659 208899
1268 266274 111412
1269 154478 411585
1270 279202 121755
1271 178775 515930
1272 746543 877125
1273 275342 234439
1274 329748 239062
1275 220894 380950
1276 163637 155755
1277 52298 705676
1278 664692 916769
1279 380883 343928
1280 213655 550968
1281 146795 111592
1282 142406 508641
1283 459856 920239
1284 917725 192027
1285 711999 851122
1286 181835 149794
1287 961341 207296
1288 292089 260564
1289 323826 356314
1290 304994 263171
1291 147050 537525
1292 656343 897529
1293 639118 167356
1294 128003 576805
1295 736762 416189
1296 922386 197538
1297 159225 132062
1298 300036 235432
1299 196951 528533
1300 348436 232307
1301 175681 512512
1302 301641 213509
1303 474172 856723
1304 724474 882332
1305 253063 103111
1306 772245 870335
1307 655748 876857
1308 744609 838612
1309 445751 844961
1310 338856 221719
1311 640990 210928
1312 720007 372698
1313 77326 726048
1314 297130 277158
1315 457737 810288
1316 943176 264690
1317 438527 868715
1318 685336 867564
1319 349707 361445
1320 64492 696813
1321 943859 193613
1322 917994 197996
1323 703222 219008
1324 217879 242331
1325 289108 301068
1326 683836 894159
1327 334622 234032
1328 327530 327868
1329 157189 187104
1330 725591 419172
1331 313931 299890
1332 707765 383379
1333 311394 220324
1334 718808 186984
1335 954431 204648
1336 167821 537652
1337 30789 655145
1338 209443 133220
1339 177959 364842
1340 311573 349728
1341 333155 356429
1342 182600 164929
1343 347969 387454
1344 760017 877405
1345 708449 856123
1346 788076 406876
1347 335632 277938
1348 780943 812502
1349 376745 239235
1350 297875 180942
1351 83237 698186
1352 151378 189659
1353 761826 414607
1354 315042 323520
1355 286785 118464
1356 204609 250613
1357 274844 241879
1358 191084 372564
1359 730985 405946
1360 327248 195801
1361 159265 146055
1362 454640 861744
1363 307398 247542
1364 725380 357858
1365 261843 127787
1366 203828 172421
1367 364785 280224
1368 254437 264720
1369 241437 243688
1370 207620 127307
1371 742674 401343
1372 750076 909921
1373 441550 872241
1374 339848 326151
1375 307237 376650
1376 204565 372945
1377 302914 332426
1378 269553 66422
1379 743429 402520
1380 281089 238329
1381 222513 377922
1382 456395 894479
1383 159405 157840
1384 173402 509547
1385 792406 875391
1386 340840 359954
1387 685136 857531
1388 189068 396317
1389 915459 195075
1390 175662 412445
1391 723666 857763
1392 263774 227639
1393 786220 386943
1394 205486 556590
1395 403984 884518
1396 741079 822875
1397 914914 177238
1398 469009 865242
1399 654468 190960
1400 322190 252282
1401 321758 356107
1402 213159 580841
1403 64610 693363
1404 280255 290616
1405 661960 196995
1406 334615 217639
1407 331466 342519
1408 781896 376840
1409 192783 376671
1410 317136 331497
1411 330211 354284
1412 134068 127662
1413 302834 216703
1414 712245 848973
1415 220038 535937
1416 677986 882180
1417 250750 267854
1418 656790 203918
1419 751602 863854
1420 29165 722274
1421 691303 214002
1422 248595 93824
1423 14447 667486
1424 280581 259524
1425 225447 541808
1426 717065 417570
1427 665978 191447
1428 711025 921445
1429 710537 856917
1430 345988 317336
1431 258316 90102
1432 235752 227544
1433 293279 342479
1434 313131 363794
1435 751588 350547
1436 369781 234807
1437 165451 544961
1438 138489 619217
1439 215956 561257
1440 192320 182709
1441 434511 871707
1442 214847 395365
1443 684291 339197
1444 10186 627430
1445 755590 358942
1446 286201 374210
1447 705051 871100
1448 724932 190774
1449 164908 121078
1450 335796 275540
1451 249270 257752
1452 768921 888837
1453 697619 845561
1454 158964 364911
1455 218583 550216
1456 269613 280740
1457 715318 882491
1458 269252 218550
1459 58406 703333
1460 207180 177662
1461 260613 102220
1462 326398 212606
1463 200265 255803
1464 700152 197086
1465 68674 719007
1466 349227 246471
1467 220887 379416
1468 234197 276745
1469 65001 725084
1470 324221 302814
1471 323143 254535
1472 172333 536207
1473 347874 339523
1474 333476 221934
1475 670208 167512
1476 931589 161146
1477 229668 221294
1478 43307 716678
1479 688518 881894
1480 896480 186474
1481 256957 11191
1482 339621 360388
1483 721632 855670
1484 339465 283419
1485 335074 261135
1486 292193 312059
1487 251506 360760
1488 202628 540898
1489 275199 110775
1490 757871 377425
1491 954169 199781
1492 760196 383112
1493 748487 933947
1494 683574 247575
1495 215955 254751
1496 764270 895139
1497 327597 269998
1498 284014 342664
1499 668381 865936
1500 672849 195401
