NAME : portcgen-400-408
COMMENT : portcgen N=400, seed=408
TYPE : TSP
DIMENSION : 400
EDGE_WEIGHT_TYPE : EUC_2D
NODE_COORD_SECTION
1 787193 -31507
2 624487 887134
3 516869 537239
4 802256 190411
5 616955 502328
6 569489 909145
7 629055 855910
8 703755 128586
9 728343 859794
10 752787 19631
11 633913 219405
12 684467 97140
13 818965 51554
14 817795 56317
15 586507 815324
16 530982 496064
17 796766 72475
18 753047 167001
19 751499 -9650
20 736936 58487
21 704444 137609
22 712462 793601
23 638958 903915
24 645828 841079
25 651296 858697
26 480715 546694
27 668725 842866
28 502101 499081
29 457993 539568
30 443654 469960
31 734400 198970
32 716214 -16686
33 806991 42006
34 526100 454486
35 661372 155180
36 542196 421931
37 599126 503461
38 801717 160715
39 564356 545409
40 701621 189223
41 741716 33166
42 775281 -26833
43 497953 444410
44 471878 411335
45 868519 248213
46 793580 46927
47 810603 146708
48 788838 6906
49 879872 1323
50 797245 41778
51 484730 470181
52 740291 918596
53 597063 512354
54 547852 536965
55 646925 216955
56 727461 878051
57 631934 424331
58 765411 5782
59 522229 445204
60 781946 50270
61 517155 614722
62 753593 19361
63 705601 865080
64 717133 82531
65 468455 391029
66 588911 539617
67 608408 908052
68 662875 198048
69 750585 198154
70 722092 969234
71 502007 532831
72 874936 119146
73 513429 478216
74 896249 21141
75 765767 -23365
76 725463 112566
77 693367 -80826
78 519724 392031
79 817414 85269
80 575467 410898
81 755700 34010
82 728282 -3317
83 544774 483547
84 480438 493885
85 533518 512440
86 704730 880667
87 624007 905729
88 784627 86728
89 804570 -85888
90 628532 149708
91 710836 211294
92 716587 97550
93 576597 892757
94 786904 1339
95 651892 831792
96 571871 413433
97 671403 113295
98 670741 192854
99 754509 157608
100 637201 836912
101 719413 -28639
102 670969 38709
103 643665 135475
104 736167 -13444
105 649171 765507
106 671111 70372
107 622251 125159
108 752393 242513
109 725029 768039
110 804638 -22304
111 677917 170976
112 652087 817721
113 657811 882714
114 752522 -57016
115 693833 13395
116 718429 94589
117 619413 946776
118 682407 142375
119 735990 -3786
120 748483 5599
121 527683 512607
122 752604 163408
123 611936 836918
124 574302 873513
125 620733 895768
126 478535 434430
127 783134 115897
128 638572 450776
129 730638 25527
130 499409 471751
131 710290 66831
132 724520 -9659
133 427802 491375
134 683575 136613
135 704817 849126
136 706387 184540
137 574789 498971
138 768204 -12915
139 846125 55880
140 544261 822973
141 686143 841652
142 513353 479653
143 518215 524301
144 604159 895719
145 589407 888616
146 521634 475863
147 758065 142678
148 734085 31265
149 517607 388117
150 485781 524204
151 489453 459051
152 719218 -10606
153 537753 494549
154 649587 924890
155 637194 882006
156 526224 414669
157 508121 426475
158 694791 100524
159 597670 525351
160 713440 929865
161 645657 935024
162 556830 532005
163 848103 73190
164 691256 116342
165 855867 10435
166 754753 22156
167 595706 77032
168 430340 471733
169 778450 146724
170 743889 -845
171 622790 162840
172 786748 8659
173 527122 427394
174 550327 895245
175 706142 771381
176 550585 432850
177 636628 104510
178 795608 11982
179 787175 90498
180 509945 511507
181 719719 751052
182 871572 -10506
183 808578 76590
184 542625 397782
185 774064 828531
186 727842 170940
187 738598 77964
188 714165 153236
189 687446 846481
190 465722 456703
191 770403 -6323
192 793961 81352
193 686629 918074
194 870653 53619
195 710174 -34373
196 624011 197593
197 650351 909644
198 664410 897712
199 562862 907603
200 584257 457396
201 670117 952939
202 823066 43174
203 535652 433087
204 718012 814106
205 563821 518367
206 607304 547150
207 610837 444717
208 593351 121911
209 521093 502225
210 586137 509388
211 583713 485928
212 626563 824634
213 756675 122369
214 801395 233016
215 706602 854449
216 716429 118695
217 908273 -23862
218 648157 790780
219 570782 458580
220 916157 44431
221 737843 153417
222 681085 780829
223 748477 -29169
224 475569 584354
225 730599 241935
226 788197 134549
227 516014 552072
228 515557 569498
229 754141 67110
230 661435 835234
231 574679 494344
232 649510 199226
233 677328 77351
234 618111 861180
235 693421 926915
236 644578 822078
237 749528 37944
238 567977 501854
239 705165 125600
240 790901 -83431
241 620987 874390
242 500378 542094
243 587789 526134
244 798696 65429
245 728342 -12728
246 611184 421190
247 700615 124642
248 609132 797097
249 600919 529815
250 694638 817566
251 456336 449057
252 483265 484562
253 707505 253314
254 783479 111603
255 579994 497653
256 705811 38642
257 536126 463793
258 552012 431409
259 718528 955524
260 734866 271187
261 606650 921703
262 650073 866105
263 531162 436164
264 516763 495488
265 727163 177666
266 736332 129794
267 593792 926728
268 674647 891843
269 717106 144450
270 778212 62422
271 693104 219608
272 696943 25262
273 565079 469290
274 443648 493811
275 675906 890373
276 707344 193112
277 611064 900913
278 634370 886234
279 740311 111069
280 715273 192681
281 429193 456688
282 804576 -49956
283 687846 851318
284 564009 480737
285 573597 424974
286 714126 213509
287 648299 184132
288 780709 177957
289 696450 63637
290 739140 878946
291 746024 144809
292 841024 35756
293 622052 514257
294 827960 -66764
295 671532 865277
296 703756 163353
297 500937 462290
298 742525 180245
299 655523 110681
300 704302 158899
301 592763 862656
302 739327 -4333
303 701862 32290
304 761604 -91590
305 656205 879407
306 708963 953234
307 582364 821139
308 802474 62062
309 740435 878
310 483680 404307
311 687197 31248
312 594717 802806
313 456411 471856
314 842979 -16160
315 757675 7867
316 666451 859458
317 583628 886350
318 707678 123877
319 639713 878287
320 823314 2405
321 771347 -68589
322 606954 463076
323 744734 209501
324 634433 884465
325 717863 94700
326 675528 809389
327 756120 34944
328 753880 20356
329 625516 834408
330 755002 80420
331 709582 852573
332 568595 490777
333 811604 89228
334 638973 236990
335 806968 33230
336 624244 835904
337 529513 528386
338 493514 408802
339 531025 548171
340 698868 149619
341 719185 136341
342 601714 347025
343 574974 865466
344 685779 173878
345 786843 120063
346 690331 786375
347 694916 59474
348 442355 487559
349 626987 824020
350 612437 930981
351 738284 -34859
352 699454 -27148
353 729921 857674
354 713600 200197
355 715049 -10578
356 662072 788494
357 670806 242757
358 539072 404276
359 509512 524603
360 756550 -20236
361 732673 269371
362 703026 234661
363 845844 43852
364 767869 -18054
365 819665 811715
366 686515 30647
367 753981 -27529
368 627741 15175
369 664442 123052
370 571690 486773
371 752905 201292
372 582399 894183
373 535803 515366
374 502163 510269
375 800588 26368
376 566171 570083
377 483174 558919
378 687508 881459
379 772554 -76999
380 746385 -22560
381 578992 865541
382 795500 1348
383 853580 89770
384 795465 164302
385 520059 512879
386 743388 151096
387 757971 15547
388 712016 135901
389 682747 190563
390 758283 -47
391 609332 889412
392 727446 47087
393 800803 -2280
394 673420 201857
395 693411 120489
396 597614 865061
397 765382 99567
398 549348 880601
399 754857 238574
400 719624 108510
