NAME : portcgen-1100-1108
COMMENT : portcgen N=1100, seed=1108
TYPE : TSP
DIMENSION : 1100
EDGE_WEIGHT_TYPE : EUC_2D
NODE_COORD_SECTION
1 681264 911232
2 634846 702957
3 373534 75512
4 554438 728399
5 99865 498162
6 193708 658067
7 394375 35219
8 953118 499498
9 173425 648474
10 359657 65485
11 204762 393822
12 92825 518526
13 393958 84602
14 550979 740204
15 259492 668229
16 398377 105123
17 860076 549409
18 293604 90340
19 213814 422525
20 907388 531533
21 876328 624022
22 110404 459539
23 260698 608220
24 228827 580317
25 342396 84728
26 653000 924576
27 238353 607043
28 347104 81686
29 198271 622970
30 306057 59919
31 211166 679838
32 161539 460300
33 577908 742412
34 814293 522221
35 827603 568337
36 839191 500159
37 426972 96791
38 317295 70016
39 135042 563972
40 558934 707170
41 203696 624537
42 835373 511279
43 182337 635168
44 581902 551559
45 608355 740705
46 553413 704714
47 331478 59070
48 853492 537377
49 859612 547823
50 912470 536883
51 598750 733286
52 176440 412915
53 532319 720760
54 245836 648534
55 115375 428729
56 840476 510903
57 232856 638644
58 343369 90676
59 145187 474409
60 995137 588758
61 923774 592333
62 587111 515262
63 202930 660143
64 654857 931909
65 946232 623312
66 409451 83390
67 622956 873972
68 347368 55457
69 187381 632633
70 151202 456962
71 615984 910263
72 367228 53094
73 250153 611118
74 868680 493373
75 187797 673846
76 556101 673991
77 83835 514047
78 898034 527421
79 373031 73498
80 155679 477464
81 911508 624585
82 217235 663808
83 527115 542435
84 206623 672001
85 185378 632146
86 560197 726501
87 901065 544283
88 275743 50919
89 143429 387113
90 679291 940009
91 865702 537991
92 137805 517255
93 258937 608383
94 570243 482166
95 152629 413911
96 262578 660685
97 543023 711036
98 603755 716028
99 848763 506336
100 535302 527650
101 889598 524474
102 909074 583074
103 133449 428650
104 243155 648641
105 250181 701228
106 171153 661752
107 113596 485065
108 211737 656007
109 647075 835323
110 118313 395558
111 587629 719549
112 595171 707782
113 258490 660816
114 614429 895671
115 579117 695450
116 338823 75992
117 582947 536145
118 217147 654267
119 146635 464882
120 95669 424012
121 584301 566862
122 591845 940811
123 376601 58667
124 151874 459487
125 211598 638282
126 607606 887094
127 272419 629857
128 147476 527944
129 579362 519795
130 878566 526693
131 561036 739713
132 301317 18718
133 136030 403824
134 211734 662862
135 681654 885414
136 862029 542116
137 577546 730714
138 164644 396376
139 169394 453546
140 303796 54747
141 183413 623477
142 574172 559938
143 183914 640361
144 896764 593023
145 876053 573468
146 870052 533098
147 857714 511016
148 577713 745478
149 861239 521547
150 588452 699305
151 138175 493658
152 152789 448494
153 168833 429840
154 341565 112094
155 163624 559781
156 567847 721947
157 185393 652135
158 348985 81758
159 163234 507053
160 195055 650460
161 947599 592027
162 556148 513355
163 88479 486801
164 288715 95252
165 361346 48217
166 872008 523738
167 324153 138607
168 583521 712380
169 618884 713725
170 343243 53973
171 137888 481644
172 528684 761032
173 884723 548210
174 592953 542225
175 241526 670792
176 331717 119161
177 170061 373084
178 312199 66449
179 602853 548888
180 169119 436378
181 365414 131303
182 932635 620139
183 133653 423924
184 950533 620034
185 572357 718284
186 167126 423954
187 201648 624106
188 902401 525605
189 952674 583399
190 82240 495912
191 315632 42682
192 363384 77584
193 527762 744243
194 305192 58187
195 132172 630287
196 807496 526650
197 582576 954953
198 142867 529331
199 254688 660134
200 158145 522286
201 581198 540059
202 680321 858733
203 560655 756079
204 345745 57085
205 321641 19377
206 406834 46692
207 850358 473834
208 610837 541483
209 901727 588355
210 206326 660218
211 120568 447387
212 144179 437873
213 114174 386500
214 657642 918713
215 944113 607944
216 220765 607573
217 175523 420722
218 345979 117850
219 149211 364423
220 174263 609163
221 252115 627906
222 226440 635465
223 423016 103240
224 600950 562544
225 368979 68094
226 134912 441656
227 190100 608492
228 158993 437956
229 395223 122577
230 165832 442268
231 604881 548219
232 154054 459369
233 701519 907966
234 594589 527860
235 322285 60412
236 409088 65254
237 607031 748364
238 313993 50606
239 194923 623877
240 178248 433075
241 376565 59349
242 537286 772306
243 165652 667599
244 314145 122028
245 951740 617367
246 234440 668690
247 922182 560709
248 624757 857400
249 178597 672678
250 68774 481991
251 393008 57414
252 228216 654652
253 638007 672924
254 944265 575508
255 328777 78635
256 224765 413053
257 331020 147218
258 185704 653079
259 142795 469701
260 185064 419843
261 867391 537228
262 829733 519602
263 190964 486368
264 352855 93544
265 895485 541765
266 720044 865283
267 171663 604256
268 223945 659262
269 909249 665152
270 593248 700362
271 597944 711780
272 964364 630724
273 166706 652135
274 595204 548004
275 570726 689786
276 591760 759746
277 567415 705700
278 938728 648703
279 641816 899821
280 673067 868473
281 180568 600358
282 880487 493203
283 838734 527003
284 211205 647516
285 208631 622786
286 202647 437634
287 313523 85387
288 368646 60545
289 222809 562970
290 612192 896084
291 77422 504596
292 940812 606876
293 202022 706738
294 310767 89507
295 135230 514157
296 858872 508348
297 589121 555415
298 193735 615797
299 895340 602407
300 923447 541445
301 575129 697277
302 923114 605746
303 156036 461630
304 621391 712158
305 229495 582948
306 620261 868018
307 575411 681188
308 365937 76901
309 362600 97269
310 115957 525331
311 348060 87317
312 354429 90392
313 677573 848755
314 970740 652163
315 295166 92084
316 568508 572067
317 351511 88335
318 315070 114766
319 202739 436112
320 252514 657595
321 583762 552353
322 851508 518396
323 103015 507727
324 136390 518490
325 614121 757580
326 634040 703738
327 148429 490164
328 118106 528403
329 574320 714660
330 402960 98232
331 388074 46707
332 126871 483961
333 289119 600874
334 147725 427787
335 187061 569424
336 139388 494297
337 337986 129764
338 149578 484236
339 193919 466254
340 839569 521469
341 556851 538979
342 632345 858241
343 216953 649522
344 111710 424556
345 346119 93657
346 407323 86372
347 307225 97267
348 367960 100041
349 958519 635784
350 882936 533641
351 587041 578241
352 372804 77823
353 149397 505764
354 549487 567040
355 124994 532087
356 519376 758094
357 589797 597357
358 605161 768368
359 585230 528535
360 890889 576144
361 340106 55494
362 360069 85158
363 526041 584190
364 195669 625978
365 118434 511994
366 219163 571139
367 317608 93932
368 629126 904899
369 171383 443142
370 139853 528558
371 684095 867828
372 117995 453803
373 648987 920730
374 244580 609061
375 228352 603866
376 140467 533907
377 345168 21808
378 356389 64583
379 246216 579415
380 573946 755177
381 150047 485431
382 179354 592961
383 358744 72316
384 495037 550379
385 935727 578651
386 167429 455914
387 393431 78622
388 184455 361481
389 339200 88005
390 140608 501674
391 216694 653964
392 513695 520325
393 351071 71881
394 298716 679291
395 191422 655096
396 890260 535128
397 330744 60772
398 149262 392917
399 354288 107717
400 874658 512469
401 408267 127343
402 905425 611725
403 923552 555936
404 195740 609846
405 236652 653202
406 554176 770293
407 169422 604237
408 382446 110759
409 919245 563419
410 176341 421487
411 147676 643467
412 388913 -5323
413 193664 626264
414 262583 644404
415 192886 643349
416 253148 613165
417 893975 511442
418 127161 499385
419 862770 572965
420 104046 508989
421 561032 711449
422 558399 536304
423 108273 565177
424 322654 119711
425 273675 659241
426 227598 614360
427 562875 677414
428 226372 646228
429 921346 651970
430 222289 639411
431 583519 557831
432 214946 628259
433 231052 590123
434 669015 832861
435 655421 888033
436 209235 612753
437 384046 82810
438 641312 895437
439 528665 689227
440 224624 572295
441 698674 887022
442 901045 589570
443 238498 723824
444 592765 559066
445 863745 564065
446 125995 428748
447 393622 61481
448 129933 527473
449 242757 644093
450 311213 23226
451 240126 611211
452 270797 606779
453 205773 640551
454 887115 518675
455 165597 662034
456 547976 652872
457 829688 596581
458 265101 606333
459 159400 489789
460 386050 141967
461 586666 559799
462 350690 28525
463 396315 79672
464 353901 81340
465 989206 576663
466 557614 529347
467 499865 569804
468 602098 552984
469 192996 662466
470 910038 495259
471 948388 629602
472 146542 510874
473 204382 601419
474 374988 74213
475 378607 90455
476 666289 897356
477 215322 659163
478 868951 580072
479 255172 664874
480 141627 403866
481 158996 413210
482 176720 597527
483 1003543 631781
484 851843 583619
485 38420 538535
486 689819 906735
487 659954 857328
488 364600 12651
489 940968 643319
490 347854 8504
491 191428 590075
492 915070 562720
493 866671 552994
494 127427 516893
495 215346 670034
496 367677 100079
497 701133 903817
498 934752 564839
499 650464 932817
500 335507 60630
501 642572 880590
502 874823 616563
503 871926 507111
504 332595 111748
505 163544 387259
506 192569 640750
507 204426 591644
508 389927 108621
509 196412 652607
510 109429 504909
511 190325 427125
512 194931 637117
513 683022 859981
514 181495 597635
515 860323 525687
516 318070 79265
517 332057 63739
518 255698 625238
519 615724 887105
520 388993 40266
521 208805 671206
522 904971 589852
523 317606 95497
524 906890 582876
525 260893 626369
526 863775 582768
527 902815 622699
528 587981 681396
529 216519 639425
530 402322 118538
531 629821 923739
532 638888 838298
533 184881 410957
534 88179 578858
535 149581 433864
536 208369 690120
537 897801 629249
538 256598 102583
539 626337 623310
540 248691 658948
541 131964 379765
542 122429 547096
543 367881 118721
544 157058 507342
545 607818 774972
546 686303 902903
547 111046 417948
548 118424 400364
549 1007891 633581
550 117984 438846
551 537008 675860
552 138677 522354
553 657867 868760
554 644918 860873
555 175332 446115
556 248867 601571
557 603151 636498
558 331555 106411
559 200995 636746
560 571308 510235
561 212483 594427
562 246407 623176
563 613123 893333
564 175372 407667
565 986117 644563
566 259628 593186
567 921931 610352
568 136377 499282
569 175804 465584
570 211930 675933
571 601900 616877
572 644783 880075
573 567308 538692
574 940967 644762
575 599118 847386
576 851171 560114
577 939931 534529
578 232806 620379
579 590111 689526
580 877473 550328
581 130540 479297
582 147083 423151
583 637770 907849
584 148925 392804
585 582540 587376
586 891418 582146
587 124888 514543
588 232692 651038
589 582449 685021
590 833210 533407
591 890114 631870
592 120365 465773
593 860753 521055
594 856577 502114
595 942726 594469
596 523310 764343
597 240637 628060
598 566316 705504
599 918777 599349
600 114526 477807
601 334685 90196
602 152386 484749
603 580873 545174
604 156014 611438
605 206738 642723
606 545925 582494
607 920420 535672
608 272863 687562
609 589649 728297
610 598527 535722
611 607258 555918
612 119522 423160
613 526574 703237
614 179471 506111
615 602146 741922
616 204835 502714
617 85651 362613
618 668902 941764
619 312137 86118
620 841179 506166
621 159717 514889
622 893625 643762
623 239201 596558
624 100997 523301
625 889666 521086
626 622258 529932
627 137534 416120
628 635306 895991
629 235488 642674
630 560975 583438
631 188305 637953
632 213937 661874
633 173747 549206
634 560955 733303
635 379586 83356
636 290719 79441
637 355876 73528
638 396658 79725
639 292796 92636
640 659639 913508
641 554652 518436
642 192135 447263
643 314444 70987
644 901310 607199
645 570209 546032
646 222665 666317
647 378654 113718
648 253803 133194
649 336950 57892
650 635465 932657
651 875116 564448
652 937310 594789
653 941464 597841
654 395105 108850
655 916055 556865
656 620860 544575
657 144619 500173
658 337666 56851
659 117623 461756
660 185136 591704
661 119993 392625
662 930151 556471
663 328797 67383
664 341850 137494
665 564051 665472
666 597517 517218
667 333801 89832
668 132734 506900
669 374991 17174
670 592025 795986
671 129020 491675
672 596110 742313
673 227023 628215
674 242583 604896
675 174703 621496
676 183729 626791
677 941912 654108
678 539882 720865
679 168341 474914
680 335152 81146
681 566924 767513
682 597188 725999
683 693335 887678
684 594953 755212
685 184701 598629
686 327348 112375
687 130803 546699
688 563369 576726
689 128998 587263
690 617835 583595
691 350328 127654
692 592304 552595
693 210859 611744
694 874781 605779
695 614562 580323
696 249800 652441
697 175802 610532
698 166770 418295
699 394292 89452
700 280380 596683
701 592680 701484
702 212013 661990
703 884325 509686
704 877547 560243
705 166315 583668
706 889277 561610
707 495022 547561
708 374972 105895
709 195258 698105
710 309708 124824
711 932743 590633
712 933341 607406
713 123915 477888
714 170040 403226
715 587894 528999
716 953610 590323
717 132467 597506
718 143234 427288
719 182291 645179
720 171987 399175
721 352834 87726
722 822315 505948
723 235115 682057
724 884988 518037
725 874684 534854
726 212710 638926
727 131754 478173
728 209749 679004
729 214306 667462
730 341591 64985
731 582429 511415
732 602877 891158
733 585852 547008
734 323590 54010
735 857736 470147
736 523766 740872
737 98126 557153
738 670486 872593
739 646695 891502
740 197284 663821
741 231734 585287
742 212405 602956
743 602765 549836
744 216223 425850
745 330759 115787
746 915466 588695
747 903443 642502
748 206865 631217
749 586986 673602
750 152280 407177
751 609846 726035
752 133463 486418
753 243986 604454
754 537922 726299
755 597033 696890
756 613594 723206
757 538006 724551
758 182169 598138
759 100377 480534
760 961816 642825
761 113796 502950
762 604640 888161
763 669041 906785
764 168425 509575
765 157237 448754
766 148589 464895
767 179737 460425
768 355616 113880
769 185795 440140
770 658758 864400
771 334096 122363
772 169815 485460
773 375714 60704
774 211163 440675
775 87543 501050
776 154702 656176
777 524150 497059
778 298206 78191
779 854971 605834
780 164523 495940
781 187849 655485
782 561353 535644
783 639042 678392
784 910388 567026
785 266386 612403
786 220743 694044
787 894203 581397
788 257510 684787
789 167462 606530
790 411916 78984
791 657562 937170
792 203566 646323
793 89243 446489
794 95226 448746
795 285738 75934
796 628045 717245
797 111164 537224
798 561970 891779
799 249700 644551
800 295908 105660
801 223671 629952
802 573984 712801
803 209523 628165
804 541279 665940
805 124935 440431
806 966156 594428
807 129737 413575
808 923867 641010
809 613491 506889
810 637165 916021
811 657260 893937
812 171148 406778
813 562750 705084
814 135788 532228
815 136471 424434
816 211728 592100
817 504817 747411
818 634021 531838
819 549116 508232
820 561136 695145
821 905497 590390
822 147367 477769
823 175737 630472
824 92978 436153
825 195907 620647
826 607157 754387
827 151863 503047
828 399644 88794
829 887254 516588
830 819675 554072
831 579140 550720
832 559672 700809
833 604565 789021
834 675192 886914
835 718723 893394
836 152013 574931
837 908729 519482
838 558933 600730
839 583280 738942
840 886419 619796
841 872443 510681
842 553616 530352
843 690616 880759
844 133039 674746
845 603465 594133
846 886998 502594
847 148035 379761
848 296364 17613
849 883090 586418
850 799787 502687
851 144055 414963
852 67448 460584
853 579626 685108
854 621673 878149
855 72213 522204
856 601533 759136
857 570964 742440
858 946023 600407
859 716837 924710
860 552644 703567
861 606733 727606
862 598216 709752
863 191200 655485
864 154939 665838
865 303797 103618
866 702690 860207
867 961972 623173
868 319956 104187
869 339443 81752
870 335447 59538
871 928608 609849
872 114458 524878
873 582506 659384
874 895988 643453
875 202025 660069
876 658593 578333
877 121608 469963
878 928562 608074
879 857233 553786
880 955420 532270
881 575207 695360
882 181909 431661
883 206680 642615
884 967315 669614
885 386853 98965
886 559971 725609
887 877225 595676
888 557603 528599
889 879233 569054
890 594366 805853
891 559947 537164
892 394681 77549
893 579681 575566
894 590949 552114
895 169022 415363
896 330915 80624
897 650824 871037
898 130645 557119
899 532870 737273
900 630350 529175
901 393556 82889
902 129153 413628
903 839390 579356
904 922641 621449
905 875368 677388
906 225788 665719
907 80594 488565
908 340078 136776
909 366820 58902
910 359555 47482
911 883421 536954
912 679248 892012
913 616743 893254
914 617842 709985
915 276969 627987
916 225072 618646
917 127964 540943
918 94424 511749
919 167196 458529
920 838379 512166
921 583986 717422
922 132429 423996
923 585671 758531
924 925434 634580
925 351497 81389
926 665788 904425
927 676073 856120
928 620868 559421
929 169929 506869
930 355821 75985
931 315625 113094
932 578631 687891
933 872142 603038
934 132874 500685
935 182645 670591
936 240276 640899
937 350733 95977
938 583630 672960
939 916524 636060
940 902709 492654
941 882254 493910
942 166786 417138
943 371673 108619
944 548976 782173
945 641047 714462
946 435031 67613
947 148318 399295
948 844066 526191
949 201573 666651
950 526232 564349
951 356148 108701
952 197051 621646
953 199343 457306
954 180292 389583
955 328397 83362
956 899624 588688
957 901473 638102
958 114118 526920
959 870797 550238
960 594876 531592
961 532036 594509
962 315901 36312
963 217162 485546
964 541773 560358
965 653441 883838
966 365448 73405
967 314550 103523
968 898163 482551
969 151735 636526
970 284721 673345
971 895730 514225
972 875465 564636
973 158058 458910
974 208854 601623
975 206561 419405
976 575168 717012
977 634216 544412
978 119061 453813
979 877904 481534
980 220795 631602
981 632603 917423
982 874648 493875
983 889893 635491
984 951578 573702
985 149405 508706
986 579142 694269
987 236636 665727
988 597283 703393
989 164532 428368
990 399296 58137
991 332528 68937
992 590477 915010
993 361198 53045
994 934299 578865
995 145165 558791
996 156390 451465
997 651295 950080
998 338474 82090
999 212375 638390
1000 579410 717867
1001 203570 672221
1002 94560 480668
1003 582947 718742
1004 354207 32760
1005 566744 741283
1006 588766 721420
1007 174271 417131
1008 201751 442039
1009 864219 524323
1010 169577 581848
1011 518397 570832
1012 669272 865821
1013 214505 634762
1014 354476 42664
1015 220275 603797
1016 96877 555167
1017 210802 630164
1018 122404 531441
1019 148740 666281
1020 960247 637184
1021 302198 52047
1022 182804 421036
1023 241083 606169
1024 557836 713550
1025 308845 107235
1026 171653 649068
1027 660249 705657
1028 206184 606221
1029 262925 625370
1030 174866 679988
1031 172889 448582
1032 117764 499987
1033 594345 711077
1034 126958 498258
1035 167146 583088
1036 849667 496244
1037 158294 482599
1038 128295 520779
1039 187987 630291
1040 347642 113489
1041 606926 727186
1042 525001 559301
1043 172530 587590
1044 349116 73089
1045 903519 575432
1046 603004 561157
1047 226528 633239
1048 876115 478350
1049 338288 60467
1050 162594 445334
1051 553132 516991
1052 89224 402255
1053 176106 429942
1054 351833 123485
1055 383276 73790
1056 181502 449816
1057 676689 925329
1058 173978 635406
1059 172951 512891
1060 893768 543112
1061 594125 699553
1062 104464 513043
1063 171783 582105
1064 277742 99345
1065 429587 61240
1066 497644 596247
1067 899112 501128
1068 148434 395225
1069 308792 54080
1070 223078 628337
1071 316167 88002
1072 313575 64582
1073 570756 700889
1074 913930 692471
1075 262655 636949
1076 869272 521859
1077 854105 537524
1078 930422 599632
1079 231344 644028
1080 360739 115140
1081 290131 621979
1082 306920 55637
1083 582735 715831
1084 567193 752782
1085 541498 713362
1086 413290 65807
1087 140680 385044
1088 244965 635936
1089 578396 511972
1090 594886 688853
1091 273256 588991
1092 605447 494971
1093 597650 683699
1094 542861 682650
1095 328195 108799
1096 661051 829083
1097 315233 54881
1098 224964 647281
1099 149001 523775
1100 878775 584527
