NAME : portcgen-1000-1004
COMMENT : portcgen N=1000, seed=1004
TYPE : TSP
DIMENSION : 1000
EDGE_WEIGHT_TYPE : EUC_2D
NODE_COORD_SECTION
1 856143 408973
2 924898 472695
3 772451 694157
4 162318 836817
5 207690 807861
6 912811 470329
7 307995 223478
8 544985 79701
9 511922 102748
10 180779 783881
11 689748 698863
12 929036 490042
13 164805 824011
14 350200 536497
15 376590 494940
16 284067 210512
17 417203 541134
18 774961 773450
19 547599 185861
20 767125 735706
21 594394 158089
22 240184 250146
23 719117 636397
24 750505 793905
25 285387 215917
26 422261 479950
27 348490 512225
28 497154 25415
29 397878 222381
30 251715 299030
31 493037 -31057
32 105235 777989
33 515032 -33289
34 852633 493046
35 407387 573033
36 516741 218894
37 432020 479185
38 150479 776417
39 575926 104972
40 146001 863530
41 533945 104696
42 255931 254821
43 516583 -42108
44 528083 104484
45 459091 42147
46 790513 708778
47 238569 211239
48 774503 730056
49 710873 824087
50 698254 705226
51 811291 489368
52 386031 523546
53 747573 669839
54 523752 50481
55 408326 228019
56 494311 8377
57 577763 123842
58 712411 738544
59 765331 755691
60 876521 481831
61 481049 29031
62 761483 729983
63 506062 -46564
64 456748 223576
65 700712 713815
66 772919 750905
67 762850 697714
68 268171 222368
69 273367 251160
70 162264 818010
71 707489 618738
72 748598 781295
73 879048 474169
74 377791 566917
75 512402 -79773
76 923676 454310
77 547238 46663
78 763681 580677
79 88032 782583
80 499421 -11019
81 485283 33379
82 456456 8772
83 397549 542975
84 894838 512058
85 491700 29222
86 739540 779345
87 737917 651829
88 217028 753632
89 713743 629785
90 683024 724011
91 892772 465823
92 413477 577658
93 702010 638243
94 397549 528518
95 925682 438716
96 762914 696667
97 719989 808804
98 728609 643049
99 745716 734538
100 499847 137514
101 423962 577868
102 812842 695415
103 910976 514154
104 510914 8846
105 788527 642206
106 577678 134691
107 932356 439218
108 313705 225407
109 541710 182529
110 219724 212367
111 819391 666359
112 465854 277538
113 710332 659965
114 137916 798291
115 736277 756087
116 567634 58667
117 753715 704218
118 877650 527073
119 903747 460759
120 717317 811109
121 574416 157713
122 517866 -6155
123 166311 775179
124 530955 70075
125 954444 481185
126 759843 709425
127 548172 -25587
128 933106 509464
129 389133 225154
130 553738 74813
131 263960 254051
132 279903 214856
133 757052 747094
134 687813 668056
135 758635 638467
136 712127 790213
137 439834 253885
138 452641 239009
139 733378 771854
140 499297 7339
141 426382 233541
142 400757 199760
143 566275 18225
144 291719 264851
145 406424 530198
146 766776 700162
147 717623 595433
148 510913 153817
149 376533 504760
150 695567 654150
151 428691 192483
152 734816 659046
153 452956 -11430
154 153817 831410
155 420674 520192
156 199119 764306
157 395318 502353
158 701222 689857
159 765521 733929
160 407035 156686
161 867631 466309
162 386181 208876
163 808591 758993
164 461575 290250
165 436469 506217
166 498194 93595
167 141704 802789
168 426071 261203
169 253395 226985
170 121812 799493
171 361112 533561
172 785633 737079
173 374714 481068
174 525869 9925
175 764262 583836
176 480652 9416
177 434564 515596
178 522174 101691
179 377870 518935
180 170216 813016
181 503253 38812
182 171581 820847
183 800296 746398
184 523344 80955
185 325310 293767
186 429072 463881
187 734831 647571
188 399553 588856
189 724021 765960
190 748202 773562
191 715102 654964
192 849040 465788
193 746903 721177
194 883557 527987
195 728559 671538
196 368293 511336
197 140312 792380
198 531596 54447
199 406379 170484
200 798557 749114
201 152287 764022
202 543920 -15396
203 889983 508837
204 767813 766912
205 187995 800599
206 754481 722134
207 413005 299432
208 782951 646139
209 765579 730940
210 903402 492711
211 498960 146648
212 368341 500324
213 640672 604963
214 799877 660324
215 766086 667591
216 742165 680859
217 530435 157521
218 390388 568708
219 389935 503255
220 781549 597987
221 232133 221046
222 381773 553756
223 141349 800766
224 750208 739759
225 220210 269128
226 471465 -13255
227 923203 470205
228 530437 85334
229 388662 484551
230 218878 819558
231 783571 706185
232 849641 463413
233 527654 217869
234 358368 524605
235 750688 628478
236 781036 693832
237 733626 667927
238 892398 483243
239 524152 51536
240 737818 802704
241 570701 119519
242 755701 721491
243 823989 420175
244 728024 634307
245 230168 228610
246 733222 698099
247 882989 484293
248 810415 718793
249 698014 728150
250 304708 204726
251 407468 204080
252 383686 486680
253 395371 219794
254 230836 270401
255 878425 508896
256 160822 788507
257 712288 634447
258 727336 622772
259 210202 292437
260 523086 30048
261 729207 607160
262 779181 733813
263 718844 734751
264 490132 54089
265 157951 823967
266 120830 891554
267 723038 702528
268 258236 299170
269 913064 486335
270 759260 696375
271 477932 519107
272 212492 831428
273 899658 509239
274 259619 275501
275 708453 663478
276 682069 783896
277 741737 737302
278 779096 760965
279 902257 469283
280 749687 789331
281 321879 323291
282 543602 1854
283 763334 725004
284 467417 38716
285 716363 685832
286 786873 719469
287 481953 1684
288 217075 805599
289 719907 722130
290 926448 457212
291 453130 211881
292 377278 507212
293 539751 105567
294 399219 205800
295 729565 593910
296 785320 691767
297 760078 751313
298 382071 514907
299 801066 713927
300 525673 60828
301 518220 21134
302 421724 539184
303 752845 665879
304 395626 530512
305 744972 773360
306 799172 740592
307 473669 196065
308 776616 660788
309 697883 690292
310 508645 8696
311 365077 559713
312 719583 745159
313 415344 248402
314 431356 547774
315 754008 756845
316 395190 590234
317 738230 749546
318 786274 730884
319 252560 205704
320 498915 57277
321 122456 767934
322 101511 845509
323 194893 841537
324 895854 544859
325 425358 226714
326 847228 479224
327 705820 730227
328 751864 751368
329 503609 199738
330 435128 217400
331 541764 104502
332 386672 152735
333 543510 62368
334 694226 614548
335 292033 265493
336 251214 198001
337 478438 46044
338 394295 571783
339 107981 831504
340 131461 778221
341 926425 483624
342 748508 663162
343 878231 525211
344 705606 774701
345 752918 675659
346 171417 774349
347 521964 133069
348 727598 744219
349 578403 -3346
350 242355 259800
351 421451 195239
352 626700 669217
353 433590 210326
354 131934 762056
355 507196 86392
356 297344 175815
357 463675 -77568
358 898155 507984
359 441325 509977
360 913254 465318
361 716986 657315
362 772651 654328
363 294447 281675
364 143411 758881
365 421279 268013
366 882871 472840
367 167448 776935
368 891188 549066
369 461309 155061
370 451346 264854
371 719108 767891
372 751026 678791
373 707282 746911
374 201700 822645
375 769247 774731
376 165448 814687
377 420276 241047
378 543577 56030
379 721956 641685
380 894042 483889
381 539552 11257
382 296690 248294
383 498000 -1957
384 572194 115475
385 738530 563588
386 762101 726073
387 787871 741352
388 440253 531292
389 446669 35518
390 516620 101783
391 739976 723997
392 498516 13407
393 917604 479976
394 453017 211410
395 703711 639677
396 386052 509557
397 908062 539672
398 552701 134597
399 441556 225625
400 146796 776323
401 406925 185964
402 865968 498572
403 759170 756095
404 528880 47877
405 139862 816861
406 192988 793312
407 777496 731274
408 493665 85066
409 174091 756632
410 554472 73152
411 435846 182215
412 475794 36302
413 262195 204118
414 492419 140356
415 169993 795219
416 504049 37142
417 890103 555298
418 531520 1683
419 763899 797784
420 444967 247360
421 411847 229848
422 744965 647900
423 442906 203261
424 404879 480430
425 515394 88820
426 395471 511602
427 271212 164120
428 269699 240303
429 555322 26458
430 738029 721196
431 300525 232549
432 195546 800626
433 200960 747879
434 885042 491121
435 513830 69509
436 895999 453634
437 396541 535842
438 422752 222212
439 973041 479051
440 296864 228065
441 402760 562375
442 379947 544689
443 778508 737703
444 902567 498129
445 584513 153325
446 140734 805920
447 410458 220541
448 129969 811757
449 434732 563206
450 745784 652651
451 442331 514648
452 401370 559979
453 218313 290122
454 432995 241206
455 678052 769779
456 241097 248028
457 520991 71237
458 413700 186618
459 736068 670412
460 869194 489323
461 384716 188689
462 800315 670133
463 844670 488182
464 686665 721579
465 925268 424698
466 473660 -4851
467 194665 822960
468 414270 470494
469 848801 440883
470 150805 764830
471 418665 208901
472 702089 718014
473 471648 175723
474 660129 798364
475 786069 753768
476 502532 -6480
477 763387 748275
478 311532 235168
479 732200 682800
480 730262 768294
481 887456 474136
482 492078 57012
483 785211 766476
484 568583 146199
485 384329 519224
486 200996 745117
487 416131 512470
488 728244 689948
489 344777 287710
490 412216 211538
491 423964 221691
492 286812 268213
493 523740 51174
494 708549 651166
495 273519 250799
496 551895 98511
497 472706 254198
498 500680 21704
499 743769 797189
500 759691 781298
501 444184 562765
502 493202 31380
503 498766 18623
504 139842 778365
505 476649 95558
506 406662 547120
507 561776 53356
508 542814 -60634
509 919747 509509
510 524499 -14238
511 455020 71874
512 725840 797878
513 281135 295391
514 513841 60741
515 529670 -7216
516 449446 29139
517 506104 60166
518 517513 143307
519 471854 214737
520 433408 206086
521 384577 466999
522 425963 517096
523 475302 154121
524 262243 253857
525 764828 771669
526 722165 699399
527 759017 736128
528 497041 29745
529 449279 593910
530 472783 17428
531 127274 833637
532 506047 -22072
533 498589 11919
534 734520 661139
535 739526 792004
536 719169 792378
537 548323 79344
538 763168 708819
539 663657 649413
540 432626 199649
541 506787 34319
542 458146 261859
543 231847 196333
544 540972 128605
545 105292 842165
546 256937 257197
547 768028 723477
548 532368 65271
549 758227 734702
550 756517 780164
551 770233 764969
552 874148 449501
553 944507 517710
554 553547 111100
555 135515 761805
556 727812 700841
557 685285 675398
558 215273 774655
559 424828 3606
560 409215 521122
561 444621 232984
562 778684 683221
563 454940 168357
564 737443 640192
565 448165 181422
566 218852 776187
567 914080 412880
568 757691 683868
569 148192 852688
570 585058 120935
571 384383 186610
572 311164 212111
573 875281 459069
574 510107 142543
575 518489 93393
576 542067 162941
577 738066 718777
578 182264 816971
579 819672 743463
580 705950 759067
581 266862 249625
582 526284 44660
583 776267 758069
584 530333 104916
585 759302 773745
586 128530 822507
587 805210 694074
588 350345 554105
589 799415 690573
590 406324 562111
591 524313 28861
592 241092 277831
593 753914 736982
594 740858 757115
595 790507 719635
596 667624 630108
597 698973 793667
598 396237 508990
599 136063 812830
600 274067 214821
601 413808 480115
602 456728 172896
603 746767 642555
604 489600 63522
605 485920 137246
606 431766 215007
607 751159 754251
608 766048 665518
609 908401 525090
610 851648 666609
611 446477 229825
612 406673 567266
613 532833 82529
614 792141 702059
615 727784 722222
616 362151 575564
617 531950 97491
618 543462 77462
619 734563 699293
620 483412 -5295
621 871389 467841
622 725780 660372
623 717390 640080
624 485105 39619
625 790336 723711
626 824999 697482
627 532208 125591
628 578977 70730
629 910663 521051
630 489086 9616
631 747810 771984
632 695829 627275
633 215394 784508
634 505483 92530
635 327671 493745
636 143174 844462
637 169062 788691
638 894044 533230
639 150473 838230
640 519286 -7017
641 915234 485947
642 227765 223480
643 710799 629914
644 888331 474622
645 580101 137088
646 458831 548023
647 507405 -24624
648 189796 828203
649 282720 229997
650 363335 218793
651 118321 827514
652 748689 722508
653 271183 217842
654 849759 447791
655 198305 254373
656 527890 55384
657 740361 770568
658 787774 730025
659 897279 523832
660 261934 238777
661 918277 454285
662 402209 274220
663 419557 244694
664 150858 756168
665 461969 233706
666 116334 793318
667 442375 204293
668 196650 755167
669 753911 759740
670 913401 473803
671 794493 768686
672 177907 778976
673 515849 162734
674 869145 525498
675 781166 650009
676 815914 716955
677 758938 741991
678 747556 782182
679 943226 538332
680 781585 715534
681 839950 705202
682 322199 242920
683 800653 676448
684 569880 96683
685 746257 745009
686 879552 445345
687 406487 574526
688 525547 -9255
689 502063 15304
690 746631 632569
691 457319 530012
692 478915 126212
693 376330 510140
694 612249 53239
695 155900 832852
696 935874 474999
697 779447 646030
698 402956 545643
699 420833 571518
700 486688 167796
701 257819 184591
702 918422 522919
703 759515 761944
704 832022 457315
705 410384 529507
706 749589 730199
707 580237 67639
708 744967 771307
709 457495 148347
710 245746 238657
711 513694 33824
712 723167 677242
713 282734 271991
714 842144 518007
715 326704 277201
716 210533 241325
717 100716 790129
718 585524 -38360
719 445650 561081
720 716540 692997
721 768399 708783
722 450883 259514
723 788720 719012
724 586420 50449
725 399003 529426
726 171248 807503
727 883823 464996
728 817097 772220
729 391363 474040
730 795282 748790
731 501194 66742
732 806468 749602
733 769169 731098
734 719414 658096
735 136792 812192
736 824395 648352
737 304793 262127
738 317343 247438
739 501813 17199
740 779412 729514
741 528612 130199
742 881696 494365
743 403836 588729
744 735857 619259
745 721682 680619
746 326557 502821
747 406482 220400
748 761859 768498
749 533585 76748
750 588343 14212
751 748785 760529
752 767063 699318
753 775348 606754
754 439164 223726
755 462964 115122
756 530036 20375
757 476310 242484
758 382234 236093
759 730206 639261
760 898177 452133
761 363378 534192
762 926587 469063
763 938265 476293
764 444937 231770
765 208859 254734
766 948020 498488
767 772109 667720
768 738478 732444
769 487037 299015
770 745774 646934
771 564140 114050
772 496316 -56409
773 521508 34067
774 296274 263405
775 742446 790403
776 778153 706563
777 401708 492622
778 773297 623326
779 481038 7466
780 449146 218387
781 549189 52280
782 191883 761520
783 167402 832344
784 687714 665523
785 761779 725928
786 558169 89038
787 143139 809701
788 489924 15681
789 876007 538923
790 711825 731466
791 429521 255488
792 270793 238741
793 423049 255918
794 799721 731545
795 778630 710860
796 725416 755992
797 181977 785847
798 516123 99835
799 421318 249356
800 798469 741415
801 836732 487146
802 770172 738780
803 894104 558016
804 178111 763205
805 911509 525420
806 749482 760469
807 424601 252952
808 811478 712676
809 756711 792906
810 818143 730706
811 531179 95448
812 289096 285074
813 491830 44945
814 785636 770836
815 926624 476653
816 702508 737049
817 662944 600047
818 881744 515102
819 577284 109384
820 442300 513627
821 381940 521074
822 770782 706022
823 743210 724222
824 725931 769043
825 830174 680772
826 504920 -40054
827 802973 699953
828 725047 755054
829 550893 109740
830 401563 205307
831 564935 -8019
832 877512 491836
833 743681 743140
834 268525 218466
835 299802 250184
836 322543 215052
837 953814 467476
838 420952 535616
839 206731 261459
840 444108 19937
841 201224 800230
842 162982 779386
843 765770 779665
844 392299 526180
845 790938 706293
846 737809 738624
847 428231 204523
848 458385 223066
849 896636 516078
850 178225 367444
851 405686 229835
852 570883 111886
853 559924 117346
854 851440 748285
855 315810 216135
856 186807 787228
857 255577 265650
858 745018 731698
859 784038 756721
860 737311 747593
861 519886 125381
862 890685 518220
863 712431 768449
864 449222 555219
865 516036 125019
866 382974 527884
867 734700 745873
868 492159 3841
869 448489 233564
870 247451 224873
871 165415 809719
872 684207 772738
873 746046 754322
874 840730 716200
875 897600 503898
876 813137 715842
877 872712 464556
878 702527 727565
879 522435 93267
880 401542 266191
881 758818 735720
882 413994 580961
883 508601 40557
884 117757 775946
885 507582 36651
886 773766 688397
887 916475 473326
888 70330 760440
889 495469 9539
890 165866 787130
891 509466 88100
892 118037 785868
893 554557 89900
894 859516 484074
895 89623 792891
896 212020 802763
897 522046 34372
898 777858 697471
899 274788 234988
900 749388 745699
901 272017 297240
902 548194 122972
903 503617 171960
904 122231 807199
905 270875 270002
906 749952 794474
907 497081 -10485
908 419279 208345
909 690626 673236
910 717861 712963
911 772732 804423
912 754465 764435
913 534335 69974
914 909380 431667
915 225441 278373
916 769041 842174
917 555235 -3002
918 734536 719613
919 725533 677694
920 737353 671897
921 877956 452554
922 477560 225807
923 722652 795304
924 216003 794568
925 428431 252133
926 491664 178637
927 557798 123412
928 510510 118476
929 132141 800825
930 728337 593669
931 515821 115986
932 526580 122807
933 804639 717754
934 253233 212135
935 383071 524054
936 765284 682606
937 724405 795029
938 111257 864415
939 501289 25941
940 922619 500708
941 226686 253958
942 753056 707248
943 782640 703947
944 537667 121545
945 849832 467258
946 151519 771438
947 481150 75377
948 276592 292080
949 420054 191692
950 414830 547682
951 473657 495258
952 358995 544339
953 504582 203867
954 940396 476753
955 515133 26769
956 558864 125441
957 212843 746886
958 449029 199342
959 664259 774013
960 777405 634009
961 454675 238501
962 238223 209670
963 794875 692072
964 887168 479196
965 663650 706718
966 754370 744481
967 147064 780074
968 757357 655913
969 357691 581171
970 863067 501178
971 212252 769259
972 847955 485046
973 743871 705152
974 242406 306825
975 718579 638295
976 793554 737030
977 529594 8870
978 472830 35454
979 360801 531817
980 743431 715795
981 523541 43159
982 376948 523373
983 552836 92737
984 900362 545672
985 827717 643912
986 892958 439687
987 187849 275524
988 767166 736735
989 514396 108122
990 578383 150314
991 550287 49467
992 830968 739198
993 912811 481601
994 722692 660184
995 396601 560877
996 770465 736870
997 498813 16767
998 381206 322805
999 171922 753950
1000 696215 815800
