NAME : portcgen-200-209
COMMENT : portcgen N=200, seed=209
TYPE : TSP
DIMENSION : 200
EDGE_WEIGHT_TYPE : EUC_2D
NODE_COORD_SECTION
1 79690 803198
2 296053 824995
3 299527 846037
4 157937 842939
5 44168 865534
6 157844 876779
7 340148 910480
8 151460 890343
9 110042 715463
10 67272 763772
11 410422 925757
12 68370 844627
13 338790 868553
14 167401 743456
15 185803 674370
16 202496 802123
17 317705 936410
18 332625 780510
19 -36321 858520
20 125665 847279
21 128633 865765
22 371415 841836
23 248717 911847
24 346570 895116
25 342540 746239
26 361510 824948
27 258958 861640
28 106080 737101
29 274313 812836
30 356315 844323
31 230219 780201
32 228761 962493
33 187103 866159
34 308275 839862
35 180475 734977
36 92707 751352
37 361867 869227
38 229231 798735
39 246910 823269
40 225994 935397
41 182158 798820
42 339800 762864
43 86736 853810
44 411191 658316
45 172808 793309
46 447706 918404
47 167105 788174
48 180989 625531
49 400197 885119
50 304207 864790
51 390973 746391
52 150928 777649
53 452898 808838
54 170717 848935
55 254934 819287
56 200596 872410
57 372153 790026
58 119404 832699
59 266754 848248
60 281210 813750
61 262518 915182
62 279319 852820
63 355484 823978
64 69039 846567
65 245020 957176
66 282059 862893
67 161627 645324
68 251248 901694
69 -6426 846453
70 287362 884394
71 273733 804314
72 332342 881165
73 281204 998370
74 253197 873140
75 143587 779399
76 362694 905384
77 200695 937569
78 303343 776566
79 184230 917464
80 397324 894858
81 420626 766350
82 205007 877580
83 373661 931670
84 203736 692340
85 192547 710575
86 51218 815081
87 267543 837818
88 361450 999644
89 151812 814334
90 320174 850218
91 285646 946787
92 293130 745912
93 104758 721655
94 372107 856594
95 360371 887181
96 322765 731517
97 305115 724996
98 428222 827196
99 349937 975222
100 150171 731849
101 333007 952685
102 390896 808185
103 111476 859560
104 331183 866654
105 291331 870703
106 113178 711564
107 200218 931925
108 439782 797522
109 415987 868248
110 305660 866378
111 331886 849692
112 287281 768127
113 256527 894505
114 392921 814375
115 272485 921240
116 295060 961986
117 351401 804960
118 267799 900132
119 266093 927036
120 125740 931540
121 120234 806170
122 148520 841593
123 177179 760867
124 317135 861167
125 283525 864137
126 271567 847660
127 411084 870445
128 346068 728351
129 212153 740479
130 254469 819492
131 420228 639472
132 229221 914533
133 300893 774823
134 278665 833165
135 321024 892596
136 376934 984143
137 223258 866302
138 390832 802266
139 269570 930857
140 290755 813793
141 435597 838494
142 374520 783607
143 356235 844711
144 150953 816728
145 241119 848833
146 373488 730226
147 432515 859723
148 126712 772036
149 38346 773372
150 345008 773876
151 294928 912584
152 269425 900488
153 378367 692087
154 288021 890829
155 381801 793426
156 305355 880578
157 206416 769315
158 145939 772999
159 296408 768731
160 381951 946890
161 41711 846258
162 412423 965580
163 277021 742821
164 219556 964745
165 328866 882213
166 352181 841230
167 195094 840165
168 102568 770168
169 276688 905024
170 265959 861576
171 257185 974677
172 270841 815292
173 155653 774187
174 334139 877792
175 234136 826340
176 360047 940026
177 64806 907743
178 305075 818325
179 126947 798606
180 164310 819021
181 373644 961635
182 161468 858313
183 184639 976948
184 173487 786869
185 208021 809926
186 251483 762155
187 425696 837927
188 288200 924313
189 109558 806937
190 275090 926447
191 142262 703716
192 155631 851919
193 257637 937600
194 244776 939959
195 236932 986823
196 372324 762112
197 284329 678742
198 433313 854730
199 146794 887147
200 169408 869930
