NAME : portcgen-1200-1204
COMMENT : portcgen N=1200, seed=1204
TYPE : TSP
DIMENSION : 1200
EDGE_WEIGHT_TYPE : EUC_2D
NODE_COORD_SECTION
1 96990 747906
2 211124 507307
3 888478 103324
4 247985 532610
5 542752 53629
6 785348 48849
7 384171 422273
8 244293 496339
9 193637 536994
10 262191 537222
11 353531 739003
12 746497 -27106
13 874119 43214
14 754200 16157
15 145160 157583
16 358225 167501
17 334137 191546
18 144846 209492
19 120521 158783
20 248704 548860
21 117144 770428
22 1041471 81601
23 62095 126943
24 504753 720616
25 148524 182398
26 333835 470254
27 87900 155435
28 86334 733467
29 609106 711344
30 765137 42422
31 997051 90167
32 759941 -10648
33 881923 136530
34 148550 163917
35 156316 190856
36 580057 50551
37 349121 738611
38 548426 672013
39 382855 696365
40 358549 453876
41 463971 729519
42 1052183 94881
43 47296 169845
44 250262 517178
45 85099 225241
46 110728 146021
47 118371 730533
48 91341 131710
49 265763 543421
50 172328 99650
51 112963 157585
52 519225 669481
53 869186 71934
54 968998 -12600
55 972660 41529
56 904694 96137
57 572248 672354
58 515148 740393
59 507805 44023
60 244085 489822
61 567986 710598
62 638009 678207
63 122638 779992
64 993951 36327
65 59232 141522
66 803262 16665
67 539078 29945
68 175326 225410
69 122249 184333
70 96646 117418
71 355425 413828
72 374199 709446
73 425137 721171
74 159394 739653
75 326706 171247
76 758856 68792
77 397720 737775
78 319438 567194
79 420263 733541
80 518886 689713
81 183753 208834
82 130933 731166
83 101536 191966
84 343581 430682
85 88570 186122
86 132993 154967
87 1011027 88576
88 70538 224676
89 938592 102955
90 1006905 84274
91 565411 17359
92 551584 37907
93 577383 99680
94 358952 166945
95 756338 25179
96 747895 44988
97 147071 105184
98 141837 181782
99 604101 681886
100 138070 727768
101 808699 28335
102 570217 714941
103 544141 33308
104 345694 431771
105 771199 40981
106 136208 195344
107 382086 114605
108 75159 750558
109 133869 214064
110 65912 126098
111 793763 45172
112 329573 734440
113 505715 40345
114 95146 160738
115 405258 778252
116 753912 -41020
117 833858 58136
118 70192 744606
119 277497 510582
120 1023241 100680
121 232986 487460
122 278941 514352
123 990936 101410
124 455294 744922
125 347544 445390
126 377215 708621
127 395311 727256
128 744341 33568
129 359428 435353
130 153159 144060
131 545821 660304
132 872636 112871
133 908830 78485
134 516787 53147
135 544209 30472
136 111961 741832
137 85074 168749
138 48959 207174
139 92394 728410
140 903905 64507
141 339940 472535
142 304551 539787
143 350211 709084
144 86178 765049
145 495010 95077
146 182889 502551
147 373156 394201
148 387276 428327
149 343009 149900
150 149067 760335
151 1029786 51635
152 198765 503222
153 1024274 74721
154 841218 92683
155 301197 718991
156 371747 738775
157 864556 69867
158 228729 540295
159 39928 137520
160 920227 120487
161 395071 722915
162 107955 694256
163 996401 19336
164 349632 176724
165 372050 702583
166 390125 413970
167 740262 21929
168 736830 -16280
169 897260 120843
170 94690 120301
171 381734 179709
172 400665 436750
173 527705 684522
174 65590 698233
175 88095 183962
176 353742 192860
177 93044 157564
178 362432 204293
179 4812 141634
180 280917 543753
181 390882 732817
182 575923 680159
183 587932 704805
184 417998 779017
185 131149 739967
186 801807 7694
187 599447 12189
188 111490 174537
189 146592 759925
190 104974 199135
191 95001 171774
192 979086 32213
193 536162 25110
194 771471 45947
195 901834 153601
196 374656 712033
197 234415 570650
198 132680 205344
199 273133 557575
200 346827 167817
201 314178 536197
202 127865 189479
203 522839 60809
204 520430 13081
205 246373 551046
206 367120 771014
207 776157 60294
208 796685 24481
209 351184 687479
210 860586 110122
211 952549 59627
212 376539 402789
213 322975 181400
214 381369 420892
215 371881 747522
216 790682 19613
217 91981 171721
218 974807 69961
219 231109 463160
220 88329 136587
221 570874 60118
222 837447 -9459
223 593769 684438
224 142738 182482
225 80768 771486
226 370118 452936
227 722710 2844
228 137842 708892
229 797299 -24687
230 428267 768825
231 859336 86960
232 245257 529084
233 793885 48449
234 190247 186870
235 739001 28774
236 897156 75000
237 529428 669495
238 1003204 121913
239 878669 58831
240 139685 175689
241 92810 154417
242 550028 66013
243 248978 571609
244 399133 145012
245 555120 43795
246 110048 186520
247 815814 19826
248 366849 434834
249 531417 643506
250 920362 105184
251 125682 160879
252 316360 430987
253 874026 69142
254 422208 720579
255 169999 192021
256 987285 80473
257 45453 726006
258 415132 149616
259 361431 164766
260 68326 115990
261 584960 25227
262 354483 403211
263 132746 166968
264 55038 226400
265 359811 696139
266 328949 773788
267 540503 64441
268 126053 729966
269 359421 173697
270 228397 542792
271 54094 168988
272 1026176 113128
273 370819 467643
274 361692 711291
275 315195 196558
276 902071 107937
277 74899 102753
278 172251 214872
279 272580 520440
280 597419 710258
281 101261 172439
282 401143 394423
283 1014705 105162
284 935113 142375
285 16555 154108
286 264538 585028
287 359245 748218
288 344018 760737
289 197623 191954
290 1016858 84385
291 542491 737693
292 412361 456223
293 529228 24937
294 559507 77370
295 45623 182519
296 875778 115241
297 117203 193117
298 777835 -29956
299 354264 115311
300 523911 63777
301 891190 81041
302 389624 438657
303 763120 21510
304 158088 124154
305 881177 98344
306 411461 721490
307 381384 725044
308 152091 208361
309 96485 132072
310 70497 737041
311 125005 761647
312 374906 716329
313 63228 170060
314 118097 184320
315 323963 789157
316 251815 602432
317 820061 -12573
318 381631 424571
319 411444 758382
320 594143 680847
321 170983 520762
322 356714 164556
323 211130 535611
324 708107 51922
325 225858 490569
326 876674 83602
327 109775 145151
328 815246 21868
329 150803 179057
330 430352 487556
331 77402 121485
332 884339 42566
333 100960 133947
334 902796 135559
335 322640 471971
336 363279 419066
337 406390 153746
338 176171 210140
339 945912 60955
340 1019192 124648
341 819054 34783
342 533611 25737
343 873098 79444
344 561288 55040
345 385869 693711
346 251562 576245
347 261946 501895
348 385556 705350
349 200908 196766
350 908683 143997
351 785720 43782
352 83672 755550
353 343119 434568
354 516524 659530
355 239468 479897
356 388876 199207
357 494145 69358
358 240793 525305
359 488361 643300
360 177420 192278
361 978635 80476
362 1013395 87509
363 383900 159001
364 363301 733894
365 369076 166979
366 395576 190319
367 755241 22145
368 542068 36137
369 238983 539288
370 335171 723953
371 561315 689330
372 966957 106367
373 592646 70770
374 580622 649547
375 749454 76873
376 569664 731284
377 375458 686022
378 563066 753973
379 871605 109902
380 867686 68957
381 8067 200798
382 943193 35598
383 135939 227973
384 973082 101961
385 379213 743956
386 498194 689923
387 883335 46060
388 733973 61978
389 271786 511709
390 227545 542841
391 906562 61641
392 202852 174767
393 542131 6856
394 147236 178749
395 167548 734273
396 741527 1598
397 753827 -10860
398 142614 717755
399 890134 128685
400 846051 104217
401 542347 670601
402 361393 761670
403 115639 143355
404 364895 460988
405 361213 453714
406 1007507 82478
407 262120 482013
408 359071 192750
409 429048 696374
410 1035968 31887
411 789413 63757
412 551817 44571
413 312194 588773
414 125884 183093
415 391370 178345
416 985529 84397
417 376975 409858
418 131214 242941
419 248544 511256
420 732482 -1267
421 768147 21325
422 144747 199910
423 356092 442884
424 372741 420017
425 431156 391747
426 769572 58011
427 832805 52782
428 861180 60470
429 375735 200832
430 541716 639293
431 880402 72239
432 285172 516103
433 86480 722719
434 100521 741462
435 131379 195578
436 79380 718795
437 555439 52287
438 135728 192101
439 991625 113484
440 371062 416396
441 351567 766773
442 144051 140698
443 395874 117141
444 578454 57908
445 349173 732927
446 375241 163698
447 295303 199073
448 93187 170561
449 857783 106135
450 578410 680373
451 338657 432007
452 287090 567546
453 583297 16639
454 78650 705119
455 1027302 88666
456 909057 85084
457 75767 186768
458 157238 207752
459 82278 712649
460 750198 31997
461 189002 210308
462 893839 119382
463 31463 176905
464 266729 573304
465 303123 528107
466 787969 42990
467 540615 33739
468 760132 -9817
469 386060 192142
470 329045 443860
471 951300 71455
472 552624 704202
473 350789 750411
474 576531 43009
475 552210 707793
476 401368 717857
477 1046430 66943
478 138482 759710
479 137455 156402
480 128688 742660
481 250722 519508
482 780885 31510
483 115228 755135
484 534890 15241
485 170348 217024
486 303631 539494
487 860767 70254
488 241889 558108
489 594710 670329
490 577586 679157
491 495815 672444
492 133022 144627
493 389903 724824
494 364661 806650
495 782526 47858
496 536780 -2479
497 579801 707386
498 710432 9908
499 137609 169467
500 393313 682614
501 853515 113045
502 125151 182022
503 142700 134594
504 107954 709548
505 1011162 67850
506 894447 99516
507 119804 700078
508 574724 677322
509 332116 431867
510 785202 34650
511 138352 243792
512 327198 160103
513 855085 42484
514 79485 184464
515 112755 166889
516 330701 410840
517 239962 539028
518 134995 167335
519 303291 151597
520 733264 33647
521 135021 169211
522 72778 207299
523 550516 8821
524 733041 66138
525 836666 76838
526 351677 390951
527 377255 734894
528 547286 52760
529 94061 700996
530 181779 144610
531 857220 124474
532 885281 127764
533 1022098 85308
534 765767 19291
535 519845 37917
536 98330 150074
537 202921 537949
538 414942 726367
539 529338 61997
540 393496 466402
541 559494 57909
542 892505 82378
543 253162 525462
544 234914 570958
545 735048 14091
546 1059347 45695
547 156419 166180
548 72359 741337
549 177814 134104
550 108505 167970
551 361779 129636
552 133119 757940
553 379556 762143
554 783467 19025
555 969769 46505
556 531874 731948
557 575894 91001
558 154946 205897
559 98957 707807
560 125416 171007
561 26708 136566
562 775200 -3601
563 601883 623020
564 541586 658090
565 82915 794293
566 149768 137060
567 1004104 79280
568 212903 527247
569 243764 510177
570 105629 763111
571 1051663 48820
572 374667 722176
573 363049 205456
574 411213 134757
575 368826 153747
576 1014280 48489
577 734704 56871
578 382611 744708
579 510816 688946
580 919301 126705
581 971076 57360
582 520270 675037
583 534764 23444
584 338250 202206
585 135300 172324
586 782942 14174
587 517028 -15600
588 561423 686424
589 954559 64533
590 420470 773647
591 948884 78573
592 366759 689117
593 360457 814362
594 149107 233708
595 114268 721307
596 390577 745923
597 97886 165024
598 284081 582125
599 593213 670565
600 160833 123520
601 94514 107780
602 354473 750374
603 1045974 53253
604 64246 144746
605 127536 141902
606 410232 455333
607 353683 759210
608 105293 157797
609 77557 202169
610 501629 18958
611 283445 538764
612 524601 -4602
613 550668 712422
614 402281 430830
615 543579 702564
616 769906 9819
617 238623 520335
618 597379 670002
619 222271 558581
620 385793 415085
621 575021 731974
622 400606 201821
623 118983 178639
624 999135 38349
625 125204 227845
626 76642 132367
627 378151 129968
628 901644 49136
629 361013 152733
630 354417 405819
631 367216 719081
632 254448 484702
633 71738 83579
634 334432 227438
635 181569 699761
636 773232 19621
637 369589 414750
638 568034 689104
639 847233 52440
640 276137 507201
641 288748 421141
642 376105 447374
643 348410 189600
644 558199 684014
645 571963 665774
646 861149 68796
647 529785 6874
648 374820 768234
649 346928 179480
650 1033699 74225
651 358773 746853
652 521748 -12573
653 123937 229907
654 346188 127721
655 906783 74184
656 130193 159983
657 595808 701075
658 294956 765074
659 869920 116318
660 569136 637312
661 479022 87134
662 1006742 101804
663 97760 761054
664 370953 176792
665 532239 743238
666 486920 9539
667 29146 112024
668 321748 799864
669 552001 1840
670 369319 434003
671 156176 144396
672 527057 20750
673 262176 529302
674 123062 178053
675 349108 184518
676 765133 42706
677 788648 -9596
678 430857 452219
679 981285 29508
680 737512 1222
681 348429 753383
682 215720 483964
683 118612 186707
684 183696 521861
685 235614 497616
686 586135 685274
687 119912 727149
688 407894 706491
689 85650 160695
690 347702 764069
691 138269 174992
692 339716 174473
693 592879 603499
694 104923 140366
695 338768 710668
696 31412 197825
697 736420 44975
698 533921 699718
699 761211 21996
700 992173 121384
701 194780 163255
702 378601 464191
703 373160 738735
704 408029 731932
705 549776 727389
706 540323 -14854
707 575949 54152
708 135225 728789
709 346320 174172
710 270454 585504
711 158977 695352
712 244163 557471
713 352128 394462
714 891647 94255
715 120899 730972
716 433568 129963
717 873621 71724
718 132828 148490
719 134631 737489
720 411108 767038
721 980236 33194
722 342682 161398
723 362447 418875
724 323817 187318
725 378143 475168
726 347868 758387
727 352806 204109
728 348262 414291
729 70179 693314
730 902606 66705
731 777628 -8808
732 233612 526933
733 115453 158075
734 767203 45098
735 1021731 60736
736 369587 726354
737 352803 654563
738 518181 59191
739 115609 123081
740 813026 10261
741 106030 719986
742 530249 54093
743 538497 709799
744 529416 56069
745 386366 457571
746 976687 85419
747 1017212 134738
748 401556 414226
749 135219 121032
750 344255 119749
751 108499 722087
752 404303 448860
753 101870 147073
754 206571 534568
755 28754 151878
756 327544 707575
757 924293 128137
758 345218 737008
759 137669 180138
760 65558 135083
761 371968 736575
762 286560 535943
763 246786 508025
764 77098 682488
765 370321 444855
766 108533 748673
767 370984 414430
768 216054 571557
769 600812 680909
770 68526 722699
771 139421 224341
772 744257 22469
773 371135 432797
774 406367 754307
775 967219 109541
776 407058 161123
777 557293 36442
778 605293 646932
779 72953 731886
780 558498 654040
781 139133 712026
782 267471 490020
783 378050 463976
784 900909 89436
785 1027938 34660
786 975453 56036
787 127638 745607
788 554445 708797
789 360243 722299
790 754706 29911
791 398887 711685
792 115283 776971
793 112424 128543
794 559023 664220
795 361505 150850
796 1024094 39953
797 113780 187584
798 101100 219633
799 991489 58891
800 97338 174161
801 228597 535132
802 736116 19531
803 358709 741630
804 319187 117688
805 350397 214671
806 940723 131315
807 364933 376464
808 334983 729587
809 92140 715152
810 92653 747983
811 840890 91656
812 292378 527479
813 340029 552518
814 135072 756702
815 412618 436607
816 749277 99741
817 522398 -10243
818 69702 733739
819 96837 229732
820 64147 148019
821 376386 710963
822 368606 748361
823 1021575 81835
824 868935 80374
825 361507 418165
826 558243 714626
827 82395 128595
828 143722 183826
829 90358 167217
830 75157 734835
831 381269 477109
832 378049 191679
833 58002 145570
834 80350 707362
835 222427 520559
836 874520 83315
837 127267 731806
838 318140 455983
839 90104 791379
840 836899 95847
841 300040 549153
842 754257 6972
843 414751 733317
844 249242 510254
845 440197 151033
846 970128 67989
847 865238 54385
848 1032276 60496
849 713152 33471
850 351025 514056
851 314276 165889
852 300391 175497
853 387202 746057
854 74439 784693
855 137365 767887
856 545544 27955
857 403052 710555
858 920142 63750
859 115089 170797
860 722582 24007
861 144035 170108
862 1047852 130293
863 959033 81472
864 741498 1910
865 269819 543410
866 437452 732047
867 139535 714039
868 274002 557747
869 962230 69650
870 531064 56292
871 28407 153950
872 121646 790633
873 899305 127193
874 167486 146849
875 366217 175143
876 76568 144495
877 898323 97622
878 991852 139117
879 406935 467495
880 857230 85937
881 128647 809558
882 545013 733152
883 859424 115129
884 980403 97796
885 265810 475510
886 948740 97921
887 149069 156582
888 291939 548178
889 589452 701872
890 756472 60245
891 982183 89428
892 565425 -4716
893 965835 91566
894 400947 728679
895 48575 746719
896 588032 17647
897 373330 145103
898 90113 717579
899 619337 713916
900 76299 184865
901 584160 31193
902 801560 74938
903 518649 43120
904 384348 724303
905 348402 204161
906 91754 61206
907 587534 26363
908 815492 -2561
909 556102 700401
910 855602 106316
911 351986 699587
912 784186 45782
913 582403 662110
914 353526 143614
915 573961 47748
916 190177 174836
917 146405 154798
918 205929 575619
919 577835 60403
920 165558 177496
921 577661 689953
922 858090 113953
923 538388 658583
924 274593 530285
925 104899 176350
926 365239 713453
927 878622 101168
928 362822 160918
929 545721 755819
930 774502 14668
931 545813 -6951
932 399186 435113
933 377277 410346
934 381382 395838
935 279436 526747
936 593800 688295
937 293635 541367
938 247274 513378
939 369077 201451
940 1041490 98305
941 780152 25520
942 90452 111632
943 957648 124985
944 18171 112465
945 145036 734196
946 523248 37459
947 569934 -5612
948 136153 173194
949 752855 -12212
950 871993 39218
951 390796 492602
952 164042 749332
953 324123 439045
954 529746 9530
955 347195 750712
956 136218 123853
957 541709 36422
958 893567 117444
959 876561 85123
960 340877 151998
961 999911 48590
962 313769 212916
963 891011 110150
964 879034 77548
965 285081 570742
966 505535 55755
967 230149 152695
968 86566 738185
969 73124 146677
970 855328 110308
971 577028 -2215
972 1048261 107054
973 975584 91164
974 208581 568799
975 1027949 65548
976 413164 735885
977 853733 75663
978 304904 141306
979 369052 791902
980 758892 37041
981 262866 562186
982 371923 234233
983 359046 388879
984 386335 464695
985 62572 138090
986 524003 71360
987 522731 725772
988 773905 12247
989 611201 12643
990 128678 180466
991 974371 109701
992 794671 32039
993 312845 175531
994 338461 183457
995 960492 90469
996 252071 511664
997 976982 87103
998 538938 688752
999 378391 182870
1000 133956 121891
1001 345443 742698
1002 374249 423965
1003 590041 76768
1004 512128 13220
1005 70358 751393
1006 64636 130228
1007 53435 152117
1008 155768 226915
1009 146831 730810
1010 1043168 75140
1011 553587 56056
1012 172219 552306
1013 936676 48289
1014 867612 84034
1015 402728 766682
1016 251639 548713
1017 722363 -3743
1018 349593 117187
1019 562588 651531
1020 405609 783685
1021 890001 112468
1022 731322 6091
1023 259894 513324
1024 555908 708564
1025 351196 167537
1026 108906 752894
1027 330229 145871
1028 255616 516156
1029 232266 488752
1030 523056 25202
1031 581615 693293
1032 346654 397694
1033 237448 542263
1034 987965 97878
1035 85032 189232
1036 310385 202431
1037 393717 196746
1038 -4273 195731
1039 76561 745204
1040 104609 725497
1041 557217 39319
1042 109668 744022
1043 49350 164953
1044 397448 465152
1045 134579 219333
1046 1036051 25757
1047 871883 54412
1048 363831 738141
1049 369185 398128
1050 106950 99760
1051 708001 39836
1052 364579 733543
1053 317639 740833
1054 356763 760782
1055 1000458 88209
1056 260015 527963
1057 780097 17147
1058 84434 151273
1059 331191 722027
1060 365887 157342
1061 77322 176014
1062 168802 158947
1063 598979 690019
1064 350034 777419
1065 72309 742338
1066 380451 753135
1067 879663 101546
1068 114081 733565
1069 568584 703291
1070 879541 121056
1071 34738 133070
1072 114506 765917
1073 67883 169060
1074 367030 468845
1075 70058 184961
1076 495097 31692
1077 223394 502652
1078 568242 684618
1079 280095 543384
1080 1006105 59693
1081 51156 181506
1082 363626 734005
1083 239606 575688
1084 889271 91143
1085 896557 55346
1086 55453 93545
1087 365489 163199
1088 393552 736052
1089 972924 67351
1090 901734 93101
1091 867906 24286
1092 420768 406755
1093 120867 172213
1094 118650 173394
1095 248671 556992
1096 1009191 89548
1097 72527 98619
1098 212769 526526
1099 538755 44223
1100 343028 161273
1101 528642 54368
1102 529984 82983
1103 135510 136224
1104 336438 174431
1105 612602 4669
1106 62546 97342
1107 123644 138469
1108 347154 677182
1109 976275 46517
1110 1035214 128108
1111 593901 84038
1112 399549 454838
1113 1000292 92268
1114 958834 60790
1115 273610 497514
1116 977343 84081
1117 546074 714250
1118 409391 187096
1119 313879 214349
1120 577589 81570
1121 99921 741828
1122 319615 386550
1123 126978 161973
1124 565515 38732
1125 610058 691573
1126 276356 536613
1127 86293 758989
1128 511325 -10404
1129 258349 507994
1130 78759 746791
1131 365840 733265
1132 559661 697539
1133 130708 218156
1134 861671 135311
1135 716405 9610
1136 862235 117817
1137 93320 130022
1138 728059 44943
1139 155447 161392
1140 163929 151950
1141 396243 765032
1142 417176 207364
1143 380333 751321
1144 336166 460597
1145 162715 175079
1146 120597 79816
1147 752166 -17930
1148 68024 145069
1149 551902 7961
1150 391417 371217
1151 153627 733316
1152 167799 683874
1153 9381 142175
1154 390296 147490
1155 357763 417463
1156 525390 25689
1157 889928 4678
1158 133450 166148
1159 378426 269512
1160 136093 240024
1161 358342 211266
1162 918118 76276
1163 773368 27600
1164 1021231 62271
1165 335088 442844
1166 929122 64395
1167 226335 537211
1168 339253 462173
1169 123509 776589
1170 333336 207131
1171 875391 106042
1172 554238 60992
1173 363421 378244
1174 548873 692853
1175 882889 117410
1176 91110 143912
1177 147607 767072
1178 566054 21632
1179 333984 162010
1180 962147 71919
1181 61963 108259
1182 580648 7506
1183 994069 108108
1184 141153 224510
1185 884042 42440
1186 921095 75749
1187 222575 476510
1188 67861 175503
1189 911837 89360
1190 574157 23439
1191 904275 43417
1192 771743 45107
1193 861030 30081
1194 159504 736697
1195 316574 409704
1196 335544 166226
1197 397029 726901
1198 846176 63052
1199 376236 777021
1200 77488 798899
