NAME : portcgen-900-908
COMMENT : portcgen N=900, seed=908
TYPE : TSP
DIMENSION : 900
EDGE_WEIGHT_TYPE : EUC_2D
NODE_COORD_SECTION
1 -1501 619241
2 706236 938116
3 898388 336981
4 439219 941152
5 207026 504558
6 380478 482644
7 481576 925565
8 657686 892034
9 410547 492199
10 351316 461212
11 798684 864875
12 369726 568077
13 622432 901386
14 433812 876459
15 685860 895389
16 800615 980255
17 173437 556546
18 307616 608942
19 613985 891526
20 446463 607793
21 213655 900750
22 18883 584468
23 242312 579241
24 888463 422408
25 632868 861659
26 8117 616469
27 172180 859134
28 767956 940553
29 454870 984576
30 630802 869348
31 893465 371953
32 348225 551227
33 206349 579745
34 169686 540043
35 381536 445771
36 192436 924969
37 609612 938974
38 734429 915400
39 755250 956554
40 -22851 644104
41 247395 934328
42 143468 553272
43 775335 929481
44 377177 608914
45 323678 622407
46 875578 361136
47 176311 972830
48 209168 548416
49 778922 961701
50 193806 577111
51 318773 628169
52 140752 914063
53 103613 651322
54 25670 600133
55 343855 586971
56 904446 382857
57 443744 943116
58 693304 905156
59 183938 563787
60 892491 321034
61 424517 895974
62 232441 917673
63 -13704 600862
64 894910 379890
65 211628 642940
66 821053 418615
67 459226 947959
68 166968 942586
69 774239 940376
70 200858 919632
71 674105 883140
72 171808 586493
73 872424 361823
74 8937 633111
75 195238 866189
76 382798 416912
77 246193 528798
78 347522 552171
79 189821 884715
80 384667 453938
81 391786 918551
82 172674 900460
83 922113 408789
84 88835 902767
85 41321 620879
86 63208 609145
87 407026 479204
88 648570 920197
89 310779 421798
90 14685 607349
91 215772 979209
92 367363 441049
93 390382 462337
94 379034 424397
95 -27303 604786
96 835561 946848
97 900045 384877
98 -49226 635288
99 168098 612873
100 365486 629607
101 362859 436236
102 903039 361166
103 905294 375088
104 153532 533114
105 797009 919613
106 209833 920696
107 684186 802031
108 685533 893878
109 686296 962731
110 2517 558746
111 15364 576789
112 718844 895777
113 -51216 629398
114 57533 612160
115 490364 887561
116 312528 499300
117 193176 510660
118 687251 938419
119 702166 906418
120 251516 873756
121 367600 428331
122 814214 377292
123 207326 932761
124 340459 553510
125 182843 879866
126 207931 933127
127 321698 594049
128 332035 556940
129 237747 568587
130 859204 392146
131 885409 455265
132 62902 573309
133 392900 575862
134 613049 838888
135 491310 934662
136 177010 872881
137 905638 373489
138 429257 888977
139 620424 920576
140 344128 455292
141 159689 510591
142 211482 570755
143 655548 906653
144 691890 888168
145 452563 968682
146 640911 934578
147 744057 882362
148 884179 376831
149 821279 960792
150 664102 884277
151 806208 399946
152 640747 912987
153 405936 612497
154 404059 499668
155 788185 945572
156 99620 569794
157 850572 332477
158 212539 536865
159 916424 433810
160 1649 599268
161 833864 434025
162 825112 350688
163 213189 906733
164 331657 442437
165 783503 984139
166 289238 620852
167 351629 527327
168 339299 467375
169 673973 927594
170 607739 921958
171 -12049 634950
172 868223 443785
173 677715 892599
174 778475 917247
175 466478 892581
176 656543 908941
177 658775 890267
178 244105 975780
179 -33142 620530
180 823334 369490
181 196629 845300
182 163922 938410
183 198380 965808
184 188925 575986
185 820274 922217
186 783573 895077
187 141244 918194
188 -30648 627869
189 327508 581099
190 165632 870707
191 839487 366545
192 373334 457348
193 871131 368226
194 127919 861107
195 469759 864354
196 881873 378274
197 397941 594162
198 439942 903385
199 402319 928539
200 711878 939991
201 18386 617851
202 394108 844630
203 182689 556865
204 479892 954392
205 234684 873623
206 54211 592508
207 406956 505321
208 363614 483209
209 340801 596607
210 748885 965881
211 841258 404057
212 712557 939066
213 -9470 611481
214 799372 935311
215 356052 478790
216 -1920 660665
217 689494 962591
218 200866 606350
219 367889 581032
220 181666 881964
221 765172 922862
222 719702 897844
223 26895 545642
224 243776 578271
225 410012 934360
226 -22693 599304
227 768259 939989
228 717144 906339
229 365773 607146
230 359328 609895
231 164162 931055
232 399687 909563
233 359599 589333
234 438306 870980
235 -86880 659697
236 484707 879365
237 172929 546863
238 794850 977398
239 627039 918574
240 854998 423379
241 544891 835134
242 217262 913047
243 209785 946503
244 466768 887657
245 -29345 617640
246 666632 907176
247 34636 621222
248 -17575 596250
249 617992 918677
250 479821 895834
251 158584 632229
252 812152 999644
253 845401 391073
254 837900 420432
255 450150 898141
256 374473 572622
257 260869 565633
258 448488 583890
259 207910 557463
260 787133 940824
261 190777 592806
262 465714 904935
263 252339 612501
264 392659 926950
265 372407 398038
266 41739 600170
267 677261 906881
268 654887 869281
269 406150 631533
270 807538 955689
271 472605 933733
272 343549 571978
273 360426 665203
274 198263 883718
275 175985 560608
276 246140 601200
277 301583 395990
278 677201 837840
279 160703 921176
280 650713 877066
281 687212 930924
282 647779 968348
283 670772 942961
284 879857 482645
285 803563 968620
286 186749 920625
287 420088 534628
288 436222 892167
289 207622 554964
290 24470 663681
291 641477 933326
292 467367 919554
293 435247 911701
294 791058 919426
295 924547 407147
296 818176 380691
297 198053 881989
298 895767 404596
299 397454 885765
300 324268 392524
301 419429 649404
302 207555 566506
303 127418 933939
304 786960 913211
305 387885 464441
306 357830 462636
307 778568 965025
308 247050 444231
309 222324 896253
310 412084 638142
311 4839 597247
312 382677 537975
313 229504 917853
314 230152 885720
315 353570 647450
316 289258 609908
317 473043 885521
318 202571 590078
319 365346 433168
320 251664 571604
321 336635 420841
322 208078 911569
323 208620 521135
324 349527 620234
325 365542 612535
326 250134 543762
327 226848 568485
328 152223 917861
329 345495 564162
330 126585 590305
331 747021 978647
332 168971 790518
333 294264 611427
334 189824 575251
335 164175 557750
336 893771 397696
337 392832 651278
338 124711 623626
339 -4937 613231
340 343693 463167
341 744621 950495
342 207447 933665
343 892064 397710
344 183161 492464
345 44283 625046
346 18794 644515
347 374984 473070
348 370785 917949
349 253696 578295
350 370400 474403
351 374386 602026
352 831600 964675
353 219224 920976
354 386384 472509
355 201969 595929
356 -25157 604383
357 215292 559431
358 855470 380982
359 48718 614562
360 372045 559936
361 39138 558398
362 464828 921873
363 422005 874008
364 793171 913770
365 624334 917428
366 481533 951668
367 756002 905108
368 665237 917516
369 646619 929080
370 256168 947134
371 791077 949110
372 670362 897525
373 473453 987632
374 861978 392145
375 669265 946791
376 839202 352710
377 923099 392328
378 356797 458882
379 632186 851675
380 210994 532821
381 372910 557265
382 317587 385028
383 457262 910987
384 770328 890328
385 797948 852451
386 865102 464042
387 770966 893092
388 466386 958354
389 435230 813536
390 167553 525828
391 855363 329903
392 775615 960661
393 475765 917521
394 331926 453270
395 731357 934871
396 662414 922523
397 234509 602526
398 173348 565480
399 663527 881964
400 202786 599648
401 870416 953756
402 194757 920018
403 243861 881153
404 166187 547670
405 706602 847869
406 794818 941160
407 684742 907851
408 368155 632155
409 661567 895489
410 201323 623969
411 824649 385664
412 487893 843841
413 778117 968355
414 162222 958412
415 244545 938826
416 -41886 653516
417 144571 913395
418 375334 595337
419 649120 888450
420 361144 489879
421 369704 456725
422 628108 938743
423 15791 611140
424 517257 919988
425 311711 556366
426 -879 670134
427 -61265 647297
428 943966 416843
429 457331 887911
430 347108 455192
431 409038 847938
432 853501 915611
433 -29917 636788
434 174300 924916
435 744370 937996
436 701521 946789
437 207095 617981
438 389711 623661
439 395306 606316
440 855952 385746
441 783965 967408
442 449201 848795
443 359671 416352
444 818764 929718
445 416988 557858
446 289997 562735
447 326060 601259
448 181428 914297
449 432698 915795
450 797140 921507
451 193702 587899
452 373919 423165
453 9170 572655
454 41558 592423
455 420426 896343
456 933802 360129
457 245494 559324
458 646389 884650
459 339471 587755
460 178394 936149
461 886383 423220
462 725495 869811
463 173223 600365
464 482965 925575
465 684791 930305
466 449202 937820
467 364128 430769
468 202351 926564
469 -39129 644951
470 289269 530229
471 393678 602792
472 40028 637116
473 491334 895375
474 746198 1019021
475 216542 975425
476 430233 864267
477 380212 463716
478 355129 434499
479 206085 910461
480 368922 394246
481 326870 458454
482 256423 442970
483 31581 579614
484 861057 976718
485 679218 880499
486 450363 903343
487 277487 544549
488 824580 929288
489 151472 872558
490 365802 410950
491 819967 912397
492 851440 394077
493 -73838 646242
494 727036 920551
495 437307 901374
496 399808 627891
497 386982 623344
498 36266 630096
499 691964 899244
500 -26236 630179
501 437069 916683
502 187133 609992
503 450979 937029
504 798394 867432
505 343999 467161
506 192211 646673
507 212299 956824
508 402538 654754
509 384982 448513
510 336751 446377
511 308969 603662
512 715004 901127
513 352866 591746
514 14124 577569
515 431352 464406
516 357562 391814
517 191305 951952
518 445250 906412
519 377682 410161
520 804444 938296
521 274851 523636
522 79226 665807
523 211186 927933
524 348108 604959
525 595040 863405
526 348282 586365
527 638101 870369
528 212497 594485
529 -24538 617558
530 446108 934208
531 772640 988764
532 326270 484762
533 185103 546092
534 665724 875100
535 920281 371637
536 184031 575283
537 12615 599216
538 673485 871323
539 686883 914216
540 838034 925156
541 163069 953429
542 150166 924253
543 189989 610865
544 461366 926170
545 333992 462311
546 218956 632768
547 628704 877297
548 379296 646498
549 180983 910533
550 625102 913483
551 218270 579864
552 424114 949762
553 655757 901751
554 875503 400850
555 201046 936175
556 794386 992776
557 265238 539287
558 445127 918860
559 337711 447925
560 -26605 642465
561 189529 546950
562 723069 929110
563 795515 931861
564 57878 594740
565 639997 971005
566 860529 411912
567 818890 902939
568 209525 587373
569 864649 344317
570 654086 876112
571 355546 584387
572 218802 929549
573 368009 394709
574 57587 662328
575 848007 353200
576 480392 881902
577 394764 600069
578 790127 973295
579 348055 488719
580 9625 606405
581 340253 556867
582 364008 617977
583 169656 943965
584 789606 944673
585 795446 400457
586 811024 386280
587 221886 913524
588 505280 898148
589 457412 888386
590 706486 879114
591 410387 534868
592 103981 553784
593 398970 488259
594 -24773 656691
595 719818 997685
596 -1234 584286
597 654031 917278
598 455043 931711
599 464695 911624
600 800875 969558
601 392878 479040
602 628720 822179
603 -56735 684384
604 388726 433776
605 207578 517144
606 910331 408459
607 223929 552918
608 328860 477460
609 12046 618174
610 855513 364499
611 657890 881089
612 200425 941088
613 306875 484588
614 58673 648343
615 215739 878372
616 39736 644202
617 308889 571373
618 -6791 576731
619 142885 908502
620 819847 934258
621 520876 883014
622 327857 484459
623 -13064 675074
624 681291 976506
625 401821 434323
626 769767 892920
627 740892 856254
628 164811 629060
629 178546 914350
630 332220 438575
631 22034 581300
632 207169 566748
633 223301 627001
634 691104 936107
635 221435 550568
636 475866 925639
637 481905 934541
638 132286 607470
639 -64671 663888
640 216940 563076
641 351155 446818
642 187340 897809
643 413198 496841
644 383343 614898
645 324559 439403
646 511453 903810
647 163073 808600
648 790103 951548
649 837341 403911
650 379706 588525
651 673368 919341
652 364396 596289
653 358013 452433
654 614903 882731
655 -23480 594456
656 357162 502507
657 883279 378260
658 613555 915742
659 862065 397848
660 206164 950932
661 -13811 602359
662 -54768 622040
663 793496 939758
664 787870 932852
665 455087 918151
666 384879 629626
667 202829 951649
668 933225 380537
669 351510 474615
670 682102 876425
671 883731 336692
672 645401 892482
673 800489 980668
674 329196 416287
675 181572 900252
676 702476 865711
677 690405 846049
678 892092 404188
679 777877 972668
680 385378 558139
681 481076 919212
682 436233 909300
683 221734 588526
684 -10392 609088
685 307941 561455
686 613335 906128
687 867081 426530
688 28823 597512
689 280386 956566
690 204432 559908
691 215272 515656
692 26089 559032
693 327990 488334
694 680491 831761
695 57990 632845
696 11452 538511
697 805006 926817
698 395617 562085
699 337070 560766
700 490519 959892
701 712390 893097
702 658543 863775
703 200457 556242
704 342109 529892
705 -33988 573563
706 884158 362531
707 183332 943433
708 912228 403901
709 674809 862661
710 754028 899101
711 381540 514059
712 193970 586181
713 174195 915978
714 426890 951257
715 876979 404838
716 187760 650643
717 340373 532196
718 204484 880203
719 178501 578499
720 356428 624734
721 913508 362440
722 357456 574838
723 -7159 617425
724 -1897 641323
725 359388 619048
726 798049 891510
727 890148 409767
728 883634 344862
729 338016 629242
730 4468 612832
731 868250 351601
732 685792 929073
733 364638 636181
734 183656 954564
735 410556 931651
736 366278 462052
737 213694 565061
738 906396 375855
739 242376 929497
740 902892 399676
741 206023 608208
742 845282 942232
743 197856 545225
744 874826 429122
745 379102 386043
746 10603 591466
747 800981 354940
748 515337 949584
749 500292 906182
750 816863 931968
751 884133 383775
752 628185 899318
753 254296 914134
754 212013 952583
755 868908 402058
756 194388 924325
757 233547 896793
758 896502 399047
759 871660 458176
760 5237 625288
761 444498 931028
762 411247 869931
763 787879 889971
764 -30598 599749
765 658979 934772
766 916135 402775
767 795680 932749
768 753597 936169
769 696628 926885
770 165676 570179
771 857283 381475
772 220311 883368
773 661467 916423
774 873803 412542
775 316976 464913
776 174473 890574
777 778718 955187
778 864286 381424
779 338665 602057
780 242458 520581
781 463592 936788
782 -16304 610454
783 -23778 642746
784 733491 947066
785 392673 544311
786 879424 390868
787 818416 959119
788 849143 473516
789 141243 875284
790 818818 905468
791 372639 407389
792 189643 890390
793 860619 998723
794 364376 942177
795 398083 955970
796 204797 853224
797 208125 593170
798 -42071 571561
799 217040 949441
800 778378 960819
801 885487 367181
802 211589 538693
803 884731 434203
804 739197 917690
805 814554 956159
806 224565 631297
807 156878 869783
808 385393 618046
809 790403 415367
810 388973 571705
811 643453 882820
812 862168 424570
813 885937 343202
814 830472 392499
815 854699 411863
816 20229 606539
817 196870 596235
818 227456 885038
819 623413 890802
820 730204 882448
821 215258 914280
822 300664 613149
823 258966 900640
824 336563 619761
825 121366 863376
826 426793 931529
827 386342 461649
828 402113 446944
829 916928 366464
830 361689 635437
831 213902 922727
832 210887 582892
833 156724 841012
834 213624 923818
835 768141 902694
836 628195 836918
837 402063 966239
838 -19554 612633
839 906626 396347
840 236690 972013
841 493757 889261
842 332488 436732
843 448551 904725
844 874153 446779
845 525424 936665
846 644897 933296
847 2652 600760
848 186853 849203
849 796517 977103
850 779313 927547
851 394482 573755
852 675867 850109
853 -37130 600059
854 475520 926742
855 606003 960762
856 659482 937851
857 355787 482769
858 -8963 563832
859 779926 1008501
860 147244 891115
861 186531 896308
862 359010 453289
863 175997 918275
864 695076 830884
865 312616 493325
866 473201 954291
867 56920 608950
868 773186 935525
869 262972 610426
870 216549 844787
871 905990 386590
872 857447 384926
873 210177 895708
874 471662 878843
875 379505 590629
876 362453 585144
877 73489 615822
878 30002 636898
879 463982 883884
880 272927 506664
881 424563 603440
882 134128 544533
883 349264 606979
884 -13765 603039
885 474171 925321
886 247039 596341
887 379826 576533
888 465246 924562
889 695789 984194
890 441394 981780
891 389774 587949
892 355617 470647
893 392947 930864
894 188536 600109
895 330985 474400
896 308593 647772
897 223533 577932
898 751475 875343
899 -63535 621820
900 903786 447314
