NAME : portcgen-200-208
COMMENT : portcgen N=200, seed=208
TYPE : TSP
DIMENSION : 200
EDGE_WEIGHT_TYPE : EUC_2D
NODE_COORD_SECTION
1 224263 323234
2 59908 388026
3 85726 509013
4 57168 576546
5 910038 1043752
6 959368 930399
7 901834 967220
8 825648 873981
9 862411 1120901
10 54115 495265
11 1022954 957454
12 962185 1092602
13 887463 982039
14 -11499 459755
15 903430 858171
16 954622 998210
17 29294 509112
18 120326 531797
19 99634 567299
20 928040 1022336
21 828168 874079
22 1014281 990217
23 147430 485509
24 924928 874036
25 951368 1068431
26 -54353 504231
27 889293 894702
28 1015984 889792
29 71805 667694
30 24184 351170
31 929760 1007496
32 855697 1030392
33 11402 585906
34 47547 583391
35 83938 456916
36 1005586 978554
37 993493 943546
38 949747 991437
39 859307 926888
40 876084 1000600
41 857359 1020706
42 35329 465535
43 865405 1015081
44 1010652 1061904
45 166049 555324
46 44770 497234
47 957714 922369
48 98579 554895
49 -35471 547249
50 54821 562906
51 773022 857817
52 59762 535349
53 113194 648926
54 951575 920603
55 20321 557860
56 971362 864667
57 76592 480358
58 1048158 1044635
59 933434 1097408
60 1019267 1045462
61 88038 655359
62 75342 527154
63 812386 1020697
64 104078 524842
65 22638 488127
66 160922 507665
67 82942 511992
68 -68885 473252
69 941905 998964
70 1002498 917812
71 892661 1092162
72 6461 607859
73 36253 547577
74 104519 434150
75 1078222 964246
76 975902 1030200
77 81333 479304
78 -2496 433512
79 76467 543512
80 1005189 998390
81 834037 911210
82 82333 480835
83 878302 1045451
84 118638 399516
85 1003497 845409
86 85266 473785
87 -16347 492723
88 51991 460621
89 778092 914321
90 59590 501840
91 -42118 601177
92 -48554 670092
93 138155 545133
94 44468 530206
95 72382 418258
96 -11260 569836
97 747043 1055037
98 979441 941772
99 829747 1000840
100 1022131 993361
101 940813 1092153
102 48584 584354
103 1028189 864434
104 967450 1046443
105 804100 918131
106 38937 476638
107 975196 1068496
108 -89147 417420
109 883426 986855
110 911712 1054497
111 792058 1018190
112 95121 453788
113 23571 546928
114 99192 559263
115 66940 431868
116 919018 768455
117 987806 860921
118 48902 507888
119 80679 608591
120 84021 396995
121 893934 926047
122 981293 1078704
123 50367 407693
124 891977 955337
125 886992 896869
126 -16292 425014
127 870707 1015145
128 9383 530954
129 1041944 961979
130 73182 467863
131 999489 1100867
132 -27029 476828
133 108925 391886
134 36039 418488
135 49847 534467
136 906003 975540
137 926247 922975
138 825914 990830
139 876714 998237
140 1126953 1029261
141 90885 409086
142 137527 494342
143 1000705 1043839
144 120639 477749
145 95559 404037
146 -45084 500748
147 -50609 481799
148 64681 431899
149 782258 1034616
150 126431 469846
151 1064157 938860
152 188828 523643
153 849518 958449
154 239126 471829
155 78630 623961
156 914299 1059842
157 100773 555560
158 992214 1087078
159 -24798 701133
160 126307 563230
161 886188 1045802
162 -100332 497573
163 971713 924155
164 934012 902332
165 10832 539261
166 118524 470239
167 -120395 466938
168 -61960 387082
169 1004373 1035732
170 127889 521825
171 102848 468414
172 162959 526109
173 5333 489903
174 13984 550273
175 188579 419616
176 183203 395492
177 915074 1092391
178 892216 984001
179 81969 478699
180 12160 557848
181 985263 1049735
182 1008649 932686
183 926446 889119
184 124677 590806
185 976953 970546
186 77748 520302
187 -22682 577620
188 45500 491104
189 932030 1136495
190 987119 1005465
191 932679 848591
192 802555 1004806
193 83717 459858
194 173834 491647
195 185635 474758
196 -11579 488677
197 957874 906362
198 924645 1045809
199 -49525 504801
200 117359 564886
