NAME : portcgen-1100-1106
COMMENT : portcgen N=1100, seed=1106
TYPE : TSP
DIMENSION : 1100
EDGE_WEIGHT_TYPE : EUC_2D
NODE_COORD_SECTION
1 438419 852483
2 396697 903991
3 741864 963423
4 347197 887800
5 447333 297558
6 619542 142534
7 285443 163541
8 541476 36826
9 121526 650941
10 273553 138593
11 451921 216420
12 853215 855678
13 426084 795287
14 43926 100681
15 256462 188112
16 726841 141428
17 615932 201232
18 451619 217695
19 233116 91569
20 594565 89822
21 697472 217851
22 467499 245033
23 857587 843909
24 709023 930446
25 178394 92843
26 275261 134497
27 447062 279052
28 270705 125782
29 235429 187089
30 693456 929257
31 66585 79138
32 174876 90796
33 189040 72145
34 443347 881845
35 566639 136999
36 525567 89873
37 735779 911109
38 396578 753571
39 203172 78219
40 120600 616971
41 699118 183632
42 789033 183909
43 673515 915316
44 603536 62506
45 731251 916244
46 879613 855722
47 177338 670455
48 261995 214707
49 758266 868772
50 741843 161787
51 909302 846119
52 278482 99909
53 167936 88811
54 452242 225851
55 253376 171183
56 183572 83166
57 482270 270227
58 475812 870709
59 396894 816045
60 123700 69498
61 444002 260864
62 125374 659974
63 423901 913188
64 214462 101728
65 736938 904038
66 720625 234700
67 435204 186892
68 399419 745464
69 864889 883144
70 184007 96603
71 145799 651918
72 642524 122636
73 841785 832428
74 416958 791042
75 285661 191646
76 716883 211211
77 718583 887094
78 315824 198918
79 695140 853529
80 715162 214160
81 179836 118198
82 455256 951656
83 733053 212259
84 276757 159380
85 137545 643294
86 12287 79402
87 26886 130901
88 470466 255859
89 350513 154553
90 872367 855873
91 409109 920065
92 423898 778574
93 161182 682743
94 478065 746858
95 166792 101161
96 159155 104055
97 110014 648688
98 86777 616972
99 606139 65765
100 689524 232255
101 113231 79273
102 171504 627393
103 157761 78137
104 636732 67852
105 411278 915387
106 673457 85790
107 154298 667148
108 151608 100889
109 428584 737278
110 143290 665648
111 166601 97383
112 430866 751373
113 272621 154035
114 243367 109810
115 584967 99638
116 38549 60396
117 203076 98852
118 644187 131847
119 864104 790186
120 310695 163765
121 709306 899577
122 705265 168635
123 173245 662357
124 395862 795097
125 707711 185452
126 165564 67433
127 807119 907142
128 858866 841238
129 484670 279302
130 400003 930936
131 602111 142551
132 586780 141027
133 172771 597128
134 438757 771063
135 67818 382
136 747186 939413
137 606034 120183
138 435650 780816
139 887807 899946
140 638187 84935
141 781613 932582
142 400477 792836
143 400975 943897
144 831350 894092
145 460860 249613
146 471375 206635
147 739032 864872
148 793985 258129
149 721823 213286
150 166050 108790
151 268042 195707
152 596267 52104
153 302218 138367
154 601324 65184
155 242083 152331
156 645591 153207
157 889775 907787
158 165346 659793
159 689788 909365
160 376233 902611
161 443481 262690
162 732935 924529
163 55369 111521
164 842585 844092
165 902416 894545
166 121096 29727
167 63713 116983
168 413717 735979
169 457117 766920
170 472274 268217
171 644395 103144
172 260508 166903
173 113019 657401
174 940597 785731
175 444317 232562
176 613205 95493
177 469216 253716
178 458614 248901
179 55047 93960
180 157158 574669
181 882630 821438
182 188638 81911
183 772871 875289
184 780249 200786
185 744029 895526
186 738683 225090
187 731348 896594
188 327375 170323
189 595077 102982
190 423082 903632
191 617030 53175
192 139228 633929
193 750865 231710
194 142482 664416
195 444167 278215
196 53980 97872
197 385673 750950
198 414677 228024
199 594227 52378
200 771715 871786
201 172589 84293
202 425522 750424
203 830677 919587
204 458520 785116
205 619932 65717
206 99701 76253
207 199710 121440
208 49636 73719
209 292752 154520
210 317343 211040
211 261858 152432
212 481919 228073
213 402048 914503
214 228800 54927
215 63817 191134
216 735759 871007
217 88594 60031
218 231455 79938
219 730820 938343
220 840196 842406
221 406194 753608
222 391800 947954
223 200664 100398
224 202832 51224
225 199610 677613
226 716562 201443
227 430314 762129
228 321694 180672
229 750290 887282
230 460140 224721
231 267595 136863
232 731500 851220
233 878773 810410
234 733617 912341
235 168079 663522
236 161922 664622
237 432800 246244
238 765518 179533
239 859468 876470
240 389013 764508
241 735926 243474
242 325536 139189
243 494284 237372
244 748504 902920
245 614035 58594
246 426627 920864
247 29736 82595
248 725927 211830
249 721305 244789
250 112576 630171
251 331731 160031
252 77222 39938
253 298548 199016
254 467062 768819
255 859713 836901
256 398645 892226
257 327189 192925
258 157088 95620
259 878651 915279
260 734744 944105
261 55053 60791
262 169432 595989
263 720274 153914
264 251019 138067
265 268903 139981
266 140029 632594
267 81847 43575
268 194324 563002
269 442799 800654
270 172248 106986
271 743029 218757
272 381033 890792
273 40034 10691
274 210570 84196
275 736493 254933
276 404954 962068
277 468079 877481
278 758394 175885
279 446885 312839
280 432477 903316
281 768901 859607
282 140367 94830
283 45927 98155
284 754840 184496
285 65802 49057
286 76422 50710
287 47070 27861
288 76773 38517
289 473664 898674
290 385458 764294
291 390285 813154
292 275877 177309
293 132446 660873
294 625285 81098
295 193106 114509
296 183426 702433
297 593414 89614
298 935932 844289
299 139522 650512
300 78453 100251
301 627404 127250
302 66481 60148
303 463415 233584
304 398701 811964
305 423901 792545
306 372230 778203
307 718858 194123
308 588122 71239
309 749941 198316
310 779314 925327
311 585275 140226
312 437746 748592
313 392088 792756
314 423523 886884
315 419626 935109
316 128644 41362
317 213110 123374
318 270584 163296
319 150345 654794
320 693861 191560
321 450387 287546
322 753152 153858
323 674411 845195
324 125796 660788
325 758316 894440
326 67779 64185
327 114846 87485
328 902485 855027
329 259695 163160
330 482182 196585
331 724340 907987
332 302596 147953
333 583096 145293
334 757310 183722
335 772019 170809
336 432117 928997
337 888440 849280
338 81712 55720
339 638730 118715
340 398979 825540
341 425842 787944
342 485831 916261
343 201557 681035
344 440553 955331
345 364610 741936
346 597487 79117
347 57007 135797
348 80048 86270
349 884499 837027
350 893559 836098
351 731432 888844
352 701022 225391
353 51920 74648
354 644150 105885
355 279566 190554
356 443485 205484
357 187874 142938
358 186121 57671
359 184250 103527
360 888284 835739
361 742910 915401
362 439634 744648
363 53002 59856
364 448807 220875
365 62199 93705
366 426031 938911
367 395291 927333
368 713613 877696
369 296672 195643
370 705058 914260
371 781168 174630
372 242772 154751
373 137332 82714
374 840702 862931
375 716022 183626
376 423146 768889
377 874646 864402
378 682624 154195
379 713525 196051
380 378019 909614
381 68493 108470
382 121256 63572
383 120126 43273
384 772652 224913
385 641030 85773
386 595327 62092
387 736836 252095
388 392383 909324
389 303046 146131
390 610040 108985
391 147530 613200
392 472997 330768
393 48869 63988
394 626977 105538
395 86363 58382
396 467311 879907
397 699535 181928
398 748395 202656
399 143995 63795
400 194049 639376
401 464033 252447
402 813411 828416
403 716377 893054
404 454459 254007
405 752737 887709
406 420800 792933
407 865258 897360
408 142575 738726
409 598817 139036
410 787578 898719
411 300565 168901
412 115990 636090
413 801024 818109
414 107779 112913
415 428525 748755
416 157540 632611
417 254725 222121
418 167497 607077
419 353860 934843
420 473003 757542
421 180599 700110
422 300677 195800
423 459781 744595
424 460676 237886
425 404336 807408
426 47167 52049
427 64026 61032
428 819813 855044
429 707265 212551
430 844398 869075
431 37114 59150
432 83774 46223
433 614916 72419
434 148282 672177
435 70638 4758
436 95250 51422
437 728585 884106
438 461166 911070
439 49510 136613
440 879569 813801
441 439020 944428
442 421674 966917
443 47104 100542
444 210462 93925
445 456489 270342
446 459243 267811
447 880888 824701
448 41238 90665
449 207640 668248
450 404447 262288
451 319336 167245
452 431816 896971
453 787292 960369
454 736514 945131
455 137746 673050
456 380554 751845
457 867104 857627
458 273071 186731
459 143428 93397
460 783280 904607
461 800218 926365
462 401579 703175
463 74312 77295
464 453792 874479
465 475927 774186
466 404767 698344
467 84757 49546
468 747889 892401
469 765102 954457
470 158566 96674
471 90631 85482
472 86904 701286
473 398860 898505
474 162111 685613
475 125584 661110
476 852733 882990
477 438230 769528
478 713682 163755
479 196651 616637
480 198698 90880
481 732454 930435
482 451107 996440
483 409653 859745
484 740048 919866
485 128091 646021
486 905523 846438
487 104400 131927
488 126793 706270
489 97285 69292
490 844775 829822
491 416884 255573
492 444992 785762
493 25001 71175
494 256818 89772
495 128864 623434
496 457207 736811
497 80223 57074
498 52781 106785
499 409213 900560
500 435797 746548
501 608692 47927
502 416857 911666
503 394447 742001
504 155764 616311
505 872757 865157
506 158046 630577
507 845447 883856
508 150443 670958
509 188615 115535
510 298554 168987
511 160577 625402
512 282904 195779
513 162047 637017
514 235232 57080
515 747427 918545
516 290192 123127
517 102211 665914
518 572625 105872
519 276042 98271
520 747485 932454
521 423133 933644
522 432023 731020
523 344288 146767
524 738477 924200
525 291103 174863
526 721169 912549
527 353945 756387
528 205406 44690
529 230676 89913
530 20233 78081
531 924296 830367
532 620459 94169
533 421027 930007
534 734946 957219
535 827889 932059
536 684675 218072
537 463752 243176
538 722366 917167
539 757036 236724
540 432385 911221
541 737596 906749
542 611708 124782
543 49200 73410
544 854662 822849
545 411734 305275
546 301689 221727
547 247494 139634
548 302184 197843
549 422315 756094
550 486872 238407
551 355010 932731
552 505537 291530
553 308111 124638
554 142291 650506
555 694630 259679
556 236876 124165
557 424500 214378
558 679749 238307
559 444004 907520
560 435610 745682
561 717047 889866
562 458270 747266
563 185736 33362
564 290264 143419
565 405871 890103
566 417316 277699
567 372375 894134
568 434200 762816
569 423951 870003
570 403757 792388
571 207743 640471
572 140142 644502
573 846535 830364
574 43459 20247
575 482601 198028
576 226148 148484
577 160021 65335
578 440363 241408
579 250556 112062
580 59953 88078
581 230523 68121
582 111670 666644
583 69881 41256
584 484152 797228
585 736008 204834
586 197544 91362
587 435638 759122
588 737724 883705
589 466304 735358
590 761535 908585
591 919144 858152
592 169279 129349
593 494231 266949
594 212796 123500
595 594083 126435
596 422624 832491
597 169232 634419
598 413759 890567
599 433837 919450
600 885391 855878
601 42498 53876
602 408570 766500
603 616127 18376
604 125459 67529
605 238276 194706
606 903822 872606
607 744292 907870
608 738606 194024
609 397363 729986
610 123872 105772
611 714172 246342
612 162159 65732
613 426265 754412
614 123621 654506
615 580805 43578
616 884866 811180
617 735969 894286
618 760497 872293
619 125686 672274
620 687859 125518
621 884498 835376
622 758534 864778
623 453951 209462
624 109874 98537
625 45392 86342
626 167756 649148
627 324981 201214
628 414362 920537
629 415789 760867
630 758531 803648
631 712677 913914
632 449659 230151
633 276644 211014
634 283750 148620
635 869657 863102
636 906085 850565
637 422422 886811
638 422157 859583
639 67225 62273
640 11179 53073
641 735312 931145
642 806782 919481
643 776005 883178
644 161078 623396
645 229607 36053
646 769908 898823
647 730150 901643
648 401349 867768
649 447400 890271
650 212031 71828
651 170338 690915
652 77542 82480
653 866020 843744
654 142490 135893
655 36790 130497
656 853779 867143
657 403143 767997
658 419689 746582
659 202981 157941
660 61991 59448
661 440957 206347
662 867315 862506
663 188224 100541
664 318806 164029
665 393415 767414
666 873669 852453
667 407976 866723
668 434646 816332
669 543699 90443
670 721022 223612
671 458862 269008
672 431760 946684
673 408190 771176
674 408549 788022
675 712786 930235
676 297640 190226
677 702514 222017
678 387726 905667
679 726427 178228
680 448378 771288
681 729014 947203
682 414331 837541
683 144337 673488
684 396715 888280
685 141518 60130
686 672050 165946
687 414155 759082
688 580444 84243
689 75707 57407
690 751161 234354
691 897976 823398
692 114964 712887
693 462221 242078
694 728236 928307
695 76315 77354
696 296607 154573
697 244039 185740
698 480453 190607
699 860114 851178
700 718235 138995
701 737866 927126
702 421781 251800
703 302320 184634
704 855777 868136
705 631705 74643
706 135630 107197
707 484432 238667
708 312270 145643
709 157897 115503
710 741963 876540
711 180151 608822
712 801269 907935
713 182789 108257
714 809475 904704
715 421264 939049
716 260687 165264
717 184941 88510
718 484177 249405
719 605898 100074
720 737752 905472
721 638350 116383
722 619619 95827
723 202136 77790
724 125284 642537
725 615732 46533
726 218108 103401
727 602124 102770
728 751449 911201
729 262884 190919
730 735006 183471
731 460421 208217
732 231208 89350
733 417053 938235
734 429597 761093
735 159932 658776
736 694060 222238
737 635148 106415
738 186404 670464
739 195261 77126
740 463392 208284
741 755984 180626
742 468409 901089
743 125743 133033
744 68361 59828
745 287338 133186
746 755489 210080
747 406951 962782
748 253075 134483
749 180819 55547
750 564406 122289
751 147058 69303
752 586918 137791
753 869664 892395
754 621193 124034
755 488569 196800
756 310696 193887
757 870069 840425
758 740971 236514
759 296154 175522
760 373071 758810
761 396740 253748
762 133011 633006
763 718120 238714
764 771064 174011
765 180170 651540
766 353822 895331
767 162771 673351
768 438078 925710
769 277167 225665
770 135460 622412
771 841483 904738
772 38253 27911
773 743524 854402
774 839074 828471
775 419913 909318
776 257797 162644
777 252568 178030
778 406368 895521
779 36669 63035
780 107040 81412
781 146218 640555
782 628170 97583
783 471157 910884
784 278511 159638
785 639046 110395
786 648976 107784
787 303415 104424
788 442775 724821
789 624456 82092
790 429188 751176
791 743027 280444
792 868095 841109
793 217588 78122
794 153764 100545
795 446910 903261
796 283036 164516
797 179552 681934
798 906432 814581
799 316470 164241
800 147766 83697
801 431753 787480
802 588859 85329
803 639227 93631
804 86244 142710
805 435224 788935
806 849140 848645
807 867472 884559
808 82691 663308
809 95734 47234
810 448755 973261
811 852780 819215
812 742000 935499
813 601989 91924
814 449701 754230
815 220762 187847
816 612714 127419
817 800780 902944
818 198043 110852
819 86476 71325
820 293406 172091
821 129232 676549
822 922919 860792
823 181567 97428
824 706759 218292
825 446015 222686
826 180556 106189
827 423473 864839
828 454540 246298
829 454305 307179
830 470348 912043
831 444413 218392
832 447082 816820
833 746449 217187
834 754883 885913
835 611954 141892
836 357691 937122
837 51017 25063
838 477932 244262
839 169658 82815
840 734649 872056
841 117128 654559
842 413551 717640
843 341546 146949
844 828678 852325
845 373916 776448
846 577169 103112
847 848398 879647
848 612043 34408
849 269295 145501
850 147986 624069
851 157776 94942
852 450240 285302
853 433690 926205
854 318775 165349
855 52284 77283
856 494829 201301
857 394830 809314
858 700613 221194
859 216758 173914
860 33300 85580
861 226912 104077
862 793613 190647
863 226740 113523
864 417852 862936
865 412193 902645
866 467620 228194
867 508544 207860
868 706289 263157
869 715392 131858
870 475222 242469
871 686527 239748
872 234709 166374
873 74652 14130
874 610962 61799
875 711155 927128
876 77520 68348
877 821216 918299
878 170759 685079
879 475634 769489
880 337215 111957
881 849362 857705
882 559363 42097
883 220651 75955
884 72957 60779
885 392878 902546
886 749157 207623
887 895256 841880
888 223871 93208
889 824904 863438
890 160158 602947
891 184452 622780
892 695480 866662
893 728433 197616
894 419687 802194
895 165204 676077
896 184881 617966
897 486016 240551
898 426238 955904
899 129628 61839
900 502112 207439
901 7059 106763
902 615001 107312
903 888410 855399
904 396564 766419
905 37102 71684
906 162786 644229
907 155175 91853
908 861225 873361
909 555271 115378
910 49759 56170
911 439324 771411
912 733204 892475
913 451436 931246
914 481059 234681
915 170611 676635
916 593461 101870
917 426234 182962
918 144437 701205
919 478817 177880
920 484047 286857
921 232872 82585
922 409714 222153
923 138700 641522
924 230690 84099
925 374349 890465
926 754162 885967
927 731441 190335
928 611872 127138
929 423525 734507
930 583142 119333
931 555512 123668
932 718537 218367
933 731329 216872
934 70255 52867
935 761095 911679
936 554937 169488
937 724753 240590
938 196376 87710
939 738308 201648
940 279567 135636
941 398185 890188
942 125005 670768
943 276165 99878
944 478823 238986
945 793280 927493
946 903814 857438
947 520677 250963
948 452560 227235
949 450739 245368
950 484466 233387
951 404163 718760
952 416969 923694
953 145895 104969
954 737745 921841
955 721027 865721
956 720705 198212
957 128826 615968
958 723292 919061
959 254987 178200
960 370458 889554
961 55164 79357
962 311120 194702
963 373415 921439
964 888813 865277
965 574240 74537
966 901926 873552
967 712714 168536
968 768781 203628
969 82659 48622
970 203888 83633
971 452418 239809
972 714955 204298
973 733879 171112
974 437310 755590
975 595519 130971
976 883811 929811
977 185000 69320
978 747428 213840
979 847933 816756
980 410701 235699
981 418010 794583
982 770030 872340
983 759456 175041
984 787068 202217
985 736372 931731
986 754538 228407
987 749135 863434
988 912497 852274
989 127515 75656
990 878247 917111
991 439612 880042
992 800086 170719
993 845918 868458
994 776226 981041
995 579001 98216
996 440228 230929
997 218492 55653
998 390650 294250
999 632908 134068
1000 149209 117821
1001 423638 265032
1002 856678 788478
1003 412615 798748
1004 458778 251854
1005 146650 126162
1006 707333 240057
1007 429009 803513
1008 781629 223272
1009 571665 91825
1010 440221 213959
1011 467445 191092
1012 154672 670808
1013 491047 257784
1014 551623 115051
1015 434973 779801
1016 845480 800465
1017 203618 75723
1018 73342 61314
1019 123879 668136
1020 797092 919728
1021 743563 951447
1022 888538 880761
1023 119196 607498
1024 318851 148760
1025 784346 892759
1026 739192 197252
1027 770531 842479
1028 139830 671150
1029 205877 69429
1030 90437 583053
1031 429768 776675
1032 478603 198309
1033 148861 723055
1034 293755 138725
1035 480204 207522
1036 174296 657140
1037 771461 193855
1038 868903 853149
1039 77190 72518
1040 723892 207720
1041 57717 55979
1042 720847 195875
1043 196037 64629
1044 84244 65068
1045 85956 612310
1046 312181 201908
1047 730968 218263
1048 259440 159055
1049 258515 243625
1050 305064 162401
1051 12744 64109
1052 445973 202046
1053 119624 647735
1054 583141 121875
1055 215273 -18225
1056 80986 127332
1057 464245 885872
1058 306454 187938
1059 696638 920315
1060 774594 279891
1061 441478 981458
1062 187557 91199
1063 153892 628708
1064 605832 67682
1065 131074 99606
1066 793307 876382
1067 896988 850605
1068 613598 119131
1069 157162 685721
1070 442291 247156
1071 765759 953703
1072 739717 241583
1073 628428 91198
1074 180728 103701
1075 470625 874366
1076 745968 967556
1077 610635 65550
1078 589268 121348
1079 282072 171143
1080 575079 146220
1081 739864 203775
1082 111342 645382
1083 228356 608314
1084 161874 83114
1085 430593 779611
1086 745328 917501
1087 726276 200335
1088 391169 732429
1089 272360 64473
1090 405557 886712
1091 291595 157390
1092 70152 71735
1093 188147 87320
1094 423776 899167
1095 861119 914931
1096 721533 176562
1097 158441 113071
1098 772411 852018
1099 642825 97085
1100 200108 653111
