NAME : portcgen-1100-1104
COMMENT : portcgen N=1100, seed=1104
TYPE : TSP
DIMENSION : 1100
EDGE_WEIGHT_TYPE : EUC_2D
NODE_COORD_SECTION
1 150781 332808
2 478019 438847
3 923286 316826
4 259701 563207
5 431586 448265
6 960206 273209
7 576786 297903
8 102069 363919
9 247428 635567
10 684827 211488
11 192659 380833
12 274792 564516
13 1004614 229560
14 457909 433209
15 446738 415774
16 290464 702850
17 235034 718758
18 181676 681272
19 1021500 635204
20 597792 249076
21 282768 639769
22 282425 642254
23 147799 320164
24 99951 343679
25 111893 625372
26 627841 338225
27 501825 473079
28 42663 706212
29 627737 148363
30 649145 191391
31 246389 603196
32 85259 657388
33 177647 329773
34 250735 654552
35 70859 710406
36 533881 479261
37 307889 602499
38 246926 608393
39 275901 571078
40 238676 605799
41 933786 209247
42 158535 360680
43 650478 206232
44 451892 461179
45 623575 192241
46 78061 672262
47 868205 278205
48 280346 690806
49 1010206 635914
50 211969 717477
51 519012 444309
52 257146 628495
53 591580 244319
54 674554 148872
55 257872 605795
56 241562 660140
57 483709 441011
58 330744 583528
59 260715 658067
60 117212 251424
61 443262 451705
62 308487 626952
63 151227 314052
64 985117 610051
65 257889 559296
66 246494 597141
67 66249 708917
68 577821 239823
69 241818 662737
70 238323 697852
71 266198 606842
72 592773 289233
73 439533 506505
74 248731 541889
75 37734 613114
76 483703 418605
77 141526 635947
78 631253 303806
79 249076 627843
80 634618 209815
81 88902 655019
82 974638 262600
83 277125 655787
84 569356 296934
85 1005454 625935
86 165365 343613
87 440454 455883
88 277230 624123
89 321837 571087
90 217181 698328
91 277060 608927
92 246581 556246
93 476099 444574
94 62656 658856
95 315254 572288
96 456190 392016
97 577370 320007
98 964317 210427
99 996373 610978
100 557149 220275
101 658148 149783
102 266487 711166
103 926053 214437
104 242381 546076
105 577955 319721
106 234123 659743
107 638392 177160
108 335540 588101
109 228912 712994
110 643416 146661
111 287585 587059
112 689985 162253
113 944887 620930
114 314933 658117
115 250325 711123
116 636119 193883
117 133606 351888
118 67519 653568
119 586407 279170
120 944117 644132
121 228733 692033
122 470184 524573
123 14980 711426
124 283010 660423
125 452839 442869
126 115683 313826
127 645817 165774
128 299204 599598
129 557544 241989
130 952065 251069
131 270887 648321
132 267953 625745
133 234641 601795
134 156700 277464
135 154373 301950
136 1030612 635881
137 256610 623132
138 661580 181409
139 295109 621178
140 217429 624264
141 94136 670526
142 110885 666471
143 904258 271817
144 171520 641220
145 642405 242398
146 291065 610081
147 257510 682307
148 612052 165746
149 157299 306767
150 544989 247283
151 325838 558609
152 632786 123399
153 679683 214842
154 314626 596829
155 295523 633007
156 12703 662775
157 563148 260379
158 257023 603477
159 600450 249601
160 270288 582957
161 333073 589117
162 951383 566105
163 465207 450687
164 162704 347517
165 249717 623980
166 999857 611193
167 577300 294728
168 132171 324489
169 341132 554150
170 66864 716376
171 624909 162071
172 979033 644193
173 256452 607955
174 952074 307588
175 268822 610594
176 958612 312745
177 272558 599109
178 279686 606894
179 81327 685153
180 305679 562948
181 899221 264242
182 103694 638685
183 449878 435489
184 266897 621318
185 262884 603070
186 139959 261851
187 88907 660422
188 907991 252088
189 281334 679235
190 281810 586413
191 468483 506702
192 480067 459879
193 675179 174792
194 476637 482407
195 649538 164801
196 600732 188742
197 284748 576434
198 220848 715370
199 137624 361896
200 385489 615085
201 254164 564053
202 303769 597863
203 482914 464359
204 62751 628305
205 244366 656634
206 267420 601819
207 37047 609306
208 213408 737550
209 645158 181580
210 943294 252197
211 906580 263965
212 288666 631688
213 419455 474469
214 250851 613505
215 50462 647787
216 640623 174679
217 465332 418708
218 163235 662204
219 167876 376981
220 99688 612024
221 637158 182102
222 640914 209211
223 233782 730971
224 246861 613389
225 935388 252009
226 279133 624579
227 343598 627601
228 26376 693186
229 466508 435810
230 616712 285988
231 495211 460728
232 489618 409265
233 1037680 611036
234 61023 703065
235 231719 545177
236 933206 273125
237 155136 281579
238 108027 395696
239 514954 438057
240 114060 358799
241 122672 663980
242 237609 608806
243 233614 726688
244 111436 302889
245 270893 652080
246 659849 184068
247 188493 604568
248 236308 570136
249 950528 233720
250 233032 618330
251 672039 124237
252 285008 601133
253 982578 669410
254 272664 583937
255 306054 580251
256 84616 627389
257 989700 567961
258 153886 327525
259 235063 600820
260 294299 592978
261 105345 658824
262 661386 286508
263 936909 270108
264 193415 599408
265 625841 185669
266 172457 315065
267 984806 672293
268 233434 555812
269 118584 668499
270 415483 436093
271 965709 666344
272 322927 570752
273 894602 259017
274 1008231 647534
275 561099 257264
276 649112 172274
277 106700 616716
278 979915 605457
279 978131 674864
280 682790 179048
281 232066 651010
282 308702 593664
283 495756 444728
284 239227 671894
285 291510 735581
286 139673 355286
287 432773 454399
288 386916 450561
289 56366 677610
290 247661 552412
291 223940 706656
292 260771 620460
293 287903 648712
294 224239 692693
295 223121 696923
296 239418 721879
297 34213 601730
298 227966 603866
299 31719 637962
300 220456 647006
301 195326 658657
302 724921 143977
303 269795 607720
304 576443 272437
305 241130 686771
306 85535 668927
307 295825 552931
308 1015542 647268
309 982070 598978
310 211182 591815
311 452746 461342
312 227809 538046
313 560793 290178
314 459956 450920
315 636155 173057
316 257793 602848
317 248990 688526
318 963284 320624
319 637245 206572
320 135506 379504
321 166885 312156
322 280321 645295
323 979390 635372
324 286504 684764
325 613164 282616
326 99229 264618
327 48387 674381
328 451399 470415
329 519575 457208
330 60716 685213
331 246304 549256
332 281997 573081
333 244460 613216
334 928134 309867
335 288289 597943
336 948045 258831
337 67767 680974
338 481933 460737
339 258924 691967
340 101712 692907
341 214315 671512
342 228906 581836
343 86042 626472
344 259456 692845
345 81428 687645
346 594302 270661
347 317192 656556
348 628474 172728
349 333144 642733
350 419008 408345
351 928323 278674
352 971379 639151
353 624184 152591
354 602095 269801
355 230958 683353
356 152582 400120
357 540641 266418
358 283371 556500
359 431281 467095
360 267417 612374
361 92477 640304
362 228118 563565
363 647368 107282
364 194010 672944
365 944426 652025
366 274164 633128
367 304394 572707
368 157836 343623
369 276000 583889
370 250038 564528
371 873213 235738
372 105200 680581
373 604341 272773
374 610122 291917
375 676238 189841
376 1034888 571844
377 1035790 664098
378 71765 307026
379 271704 710414
380 904981 224641
381 448528 435852
382 40211 713585
383 123682 373768
384 515416 417021
385 256384 668886
386 290250 595524
387 238227 639124
388 637285 191790
389 229217 577230
390 1005455 643992
391 98292 703996
392 842117 199075
393 962392 248165
394 462714 493243
395 252024 567339
396 158924 329597
397 498347 457827
398 181530 666380
399 93701 680483
400 553941 240184
401 239687 612858
402 601877 257335
403 592900 265435
404 42412 639334
405 285088 546777
406 513459 273044
407 244866 617244
408 274461 665294
409 1016773 633473
410 639251 272014
411 303059 572580
412 214108 553810
413 951775 245120
414 281594 584215
415 254140 606473
416 458863 457744
417 105143 673101
418 298973 629529
419 281687 613038
420 292235 633170
421 72744 618311
422 230094 625794
423 269346 626294
424 604874 281583
425 239326 557606
426 186592 624340
427 243759 688883
428 176523 315834
429 982524 682595
430 665242 157907
431 249139 609116
432 274709 656219
433 552780 310974
434 1023265 624733
435 468370 459198
436 255985 607235
437 999986 611428
438 171370 354164
439 508274 431049
440 944354 228998
441 919009 202194
442 632839 219261
443 99180 692950
444 253238 613463
445 446283 440893
446 303669 608726
447 271585 641883
448 95832 634812
449 295165 581916
450 631488 295074
451 111892 298468
452 606938 285935
453 444199 459881
454 613631 268643
455 144451 328646
456 143742 302670
457 283284 625414
458 578286 260361
459 671415 201802
460 968152 293297
461 288453 546157
462 603357 332692
463 624045 244358
464 996748 580528
465 210212 611731
466 129080 676998
467 70539 618929
468 900718 252627
469 1033414 609648
470 330470 620089
471 266367 609117
472 291636 595097
473 241539 549191
474 48696 633768
475 14200 682104
476 1033440 643351
477 287310 625630
478 206401 665567
479 294401 581477
480 278336 585107
481 316045 633861
482 284342 547080
483 616344 310099
484 56915 634286
485 300131 698664
486 132871 708535
487 558428 296088
488 253409 631652
489 580784 294408
490 237170 674902
491 279419 617918
492 256041 587570
493 506943 259465
494 940426 239907
495 273430 593166
496 631105 168584
497 268369 569287
498 939567 206979
499 260711 622469
500 602547 238445
501 242075 634898
502 573775 213895
503 182576 664290
504 693139 124811
505 288402 625349
506 292441 637310
507 274403 594485
508 57393 661714
509 267480 578292
510 241484 680590
511 901752 263271
512 954884 238530
513 163778 619672
514 260736 590163
515 75902 659705
516 297570 644115
517 624521 297950
518 250409 666363
519 322044 691070
520 469518 416278
521 56896 680281
522 1005927 611142
523 437072 479229
524 974794 201405
525 219034 668271
526 441783 451026
527 118338 353046
528 688844 191483
529 276926 597821
530 105581 321937
531 609900 255598
532 1000102 269377
533 70918 671902
534 274092 661501
535 587407 258211
536 906958 225280
537 265332 698865
538 241404 569580
539 152513 283154
540 243240 524074
541 473943 461633
542 120580 357826
543 744086 181607
544 952086 194774
545 981750 625600
546 563245 255169
547 244337 720546
548 266707 543042
549 214845 662397
550 929451 280612
551 596452 249557
552 946811 280100
553 185985 291839
554 620799 350018
555 258772 620064
556 1028160 699857
557 272532 625643
558 311760 605010
559 256213 626381
560 292661 584213
561 302701 580894
562 472586 498951
563 216448 682603
564 131405 698428
565 352996 552728
566 662445 166468
567 80416 689152
568 490022 476057
569 267809 610805
570 659688 170856
571 653709 232964
572 911857 192946
573 149845 338027
574 60927 649420
575 633923 171841
576 142854 322101
577 253154 632438
578 134294 290348
579 159531 374301
580 244359 624019
581 602611 283624
582 254384 667901
583 271641 641430
584 457867 471968
585 270448 621043
586 925859 234339
587 37817 746354
588 103220 351676
589 238524 671988
590 976102 635028
591 640971 278239
592 60749 644358
593 954679 279180
594 256384 575674
595 208106 636893
596 1009046 642962
597 209192 682790
598 290941 567986
599 145320 291406
600 998122 221371
601 1011384 599298
602 671006 177088
603 263424 582029
604 612067 311656
605 150439 327368
606 245917 635645
607 254498 694920
608 996659 580049
609 600832 178208
610 261298 596303
611 207549 679708
612 601850 211925
613 671621 158486
614 273144 601084
615 698144 203939
616 278023 614960
617 551711 285216
618 284365 628583
619 63412 715203
620 913886 267984
621 249068 593105
622 159578 356619
623 596697 281678
624 596215 297385
625 321042 589430
626 75873 723016
627 265824 642245
628 482575 450579
629 228261 597739
630 257764 587620
631 974766 260875
632 931511 249994
633 660733 204655
634 277794 645654
635 922610 252851
636 992011 573766
637 915408 240628
638 245702 683556
639 288941 640937
640 976286 233262
641 613101 254312
642 190436 284280
643 576123 270520
644 937553 286859
645 437596 440414
646 268159 538779
647 334343 642985
648 442864 507333
649 252678 584028
650 267566 566634
651 504836 457430
652 114851 323526
653 688499 133228
654 554929 290963
655 594672 115252
656 238880 671968
657 272416 613789
658 62612 709451
659 71422 662218
660 921002 247384
661 93463 295411
662 941671 218451
663 1043696 634261
664 988256 581825
665 1029067 652247
666 479984 504850
667 597380 292277
668 945043 592392
669 1052815 617916
670 151679 304525
671 129823 340238
672 417972 436213
673 217602 592657
674 280480 731510
675 123300 326546
676 551814 291122
677 247663 640003
678 295059 564223
679 634880 181458
680 492184 468308
681 636562 171058
682 626395 124450
683 412112 473371
684 704600 213322
685 987325 627863
686 324594 579774
687 251576 593998
688 906896 272545
689 472465 442480
690 982508 628463
691 997417 614092
692 487439 437920
693 623823 146686
694 557402 311243
695 445259 496343
696 319124 571368
697 611971 275163
698 61243 684209
699 269576 604521
700 901810 247963
701 42403 621400
702 221374 624229
703 127607 396469
704 74527 758610
705 931313 300049
706 31972 692691
707 568411 260056
708 208147 646040
709 605562 293696
710 587038 267039
711 627646 194617
712 480001 434540
713 922677 239849
714 985877 216764
715 260898 583931
716 1007396 647921
717 155588 318829
718 511386 436530
719 339436 559988
720 901436 259199
721 279892 613222
722 419327 417972
723 926180 206151
724 268989 591482
725 675374 142071
726 284106 658890
727 309845 570147
728 246936 681969
729 263186 612565
730 1008536 644136
731 246668 581510
732 237678 630150
733 910599 219932
734 1024792 654585
735 612325 171195
736 328402 614615
737 318818 594606
738 198576 596409
739 285813 612833
740 81755 609335
741 921737 253536
742 567776 161712
743 620740 233100
744 975661 604084
745 269167 583681
746 547472 257804
747 941283 229560
748 632249 251375
749 281691 646144
750 650340 173250
751 974411 598834
752 550520 322683
753 573976 256150
754 327417 561137
755 130985 668489
756 211472 632157
757 229985 647331
758 949275 292887
759 361011 621004
760 892295 215953
761 270819 618171
762 117546 309131
763 252095 690093
764 88248 663956
765 953877 259871
766 242403 668171
767 994170 579875
768 506756 451827
769 976371 625930
770 232607 721149
771 995273 619651
772 324995 617228
773 1049311 655058
774 658871 126632
775 144872 351479
776 269635 548773
777 995254 566753
778 286172 536183
779 145311 378164
780 432839 478345
781 601690 234406
782 103472 329902
783 330046 577696
784 244928 588759
785 179480 315741
786 274187 602477
787 240821 585118
788 643574 179826
789 593154 238907
790 943750 638939
791 912991 314011
792 676653 159021
793 990407 597782
794 262665 624009
795 602809 310520
796 529970 476751
797 179518 339482
798 955375 660357
799 300194 611520
800 25452 720115
801 716136 203778
802 241208 549681
803 173836 318288
804 491260 477851
805 962801 293381
806 318610 640282
807 245586 623843
808 456451 472520
809 260479 586960
810 442565 454266
811 659929 174632
812 270744 662791
813 125907 299845
814 290476 620145
815 875811 258749
816 72254 711496
817 971744 555361
818 188114 337170
819 640912 196460
820 305876 616090
821 120535 702082
822 995454 607027
823 947728 631169
824 222919 602458
825 309901 516461
826 919097 254913
827 952039 217856
828 977498 645594
829 279744 606706
830 939759 219534
831 261502 555774
832 43888 624693
833 267301 570070
834 91459 330346
835 289800 590835
836 587614 280456
837 269970 566287
838 923681 238480
839 294870 535448
840 574993 305014
841 236298 681624
842 220552 667957
843 942682 625906
844 570787 331318
845 962959 643084
846 609173 285979
847 643326 171418
848 246316 614726
849 677872 162276
850 259980 616808
851 29746 661960
852 954139 618944
853 557366 250918
854 276119 626551
855 1011341 644558
856 436525 445307
857 243237 575292
858 84912 717331
859 224247 579557
860 610283 264000
861 680443 207621
862 661994 226409
863 407508 468162
864 633646 274779
865 247501 718056
866 956284 209682
867 1016887 634304
868 302060 549926
869 685632 204374
870 233268 595950
871 631606 184222
872 249319 670471
873 612360 247615
874 911505 231376
875 84436 392307
876 997668 596679
877 462274 477524
878 121464 681964
879 623509 221223
880 85913 311641
881 323415 612600
882 1005617 601627
883 129115 303742
884 968321 599891
885 282563 554843
886 252601 645318
887 566145 298902
888 119086 681318
889 220477 591858
890 321923 586625
891 290097 598345
892 28926 670308
893 580331 243720
894 281027 652733
895 253861 609393
896 72990 720493
897 181968 310725
898 267246 573422
899 126315 334820
900 916619 267591
901 266205 620618
902 568811 311101
903 499281 416481
904 884955 260168
905 193359 634767
906 923557 250298
907 627178 181029
908 622385 165190
909 465864 482518
910 527834 259391
911 279858 562213
912 149197 364329
913 245086 586445
914 264696 556634
915 570160 287768
916 576803 285765
917 227480 706132
918 926550 271165
919 268617 624698
920 295479 647802
921 938875 240274
922 638278 197545
923 919747 258409
924 216531 666446
925 288327 557215
926 593137 323495
927 333446 571067
928 221161 714168
929 267931 677262
930 1029060 655309
931 1009503 609976
932 95792 351006
933 316590 644183
934 287067 586357
935 924400 263679
936 611305 277317
937 233913 635170
938 431441 461135
939 1033073 637391
940 620432 218625
941 369111 657504
942 269155 623286
943 644710 213385
944 429367 446991
945 274915 599314
946 157269 351228
947 654342 108387
948 295998 563674
949 961384 212603
950 1010670 621865
951 640491 163272
952 426063 415348
953 155307 350952
954 988897 650159
955 594953 111811
956 540471 349725
957 953888 566315
958 239825 614880
959 241746 655139
960 931396 264006
961 254976 554625
962 288286 571790
963 293832 567690
964 1059296 650620
965 889401 256624
966 287828 634757
967 265947 572338
968 568951 253289
969 574793 296322
970 234595 611906
971 225771 698244
972 476253 447844
973 99508 334950
974 296727 612672
975 908809 270546
976 136302 344244
977 605972 254064
978 280401 568415
979 19952 697279
980 227499 526032
981 417011 449117
982 982508 663185
983 286351 545992
984 902305 203800
985 698450 110388
986 148916 315648
987 203311 331758
988 160103 304536
989 247731 680992
990 267155 709675
991 230716 627660
992 295274 589302
993 221252 581527
994 895892 249786
995 239311 567988
996 60297 700121
997 255908 634904
998 89910 298126
999 233778 645572
1000 95128 632635
1001 1012972 605380
1002 92397 352133
1003 73027 340015
1004 300376 614877
1005 113033 360249
1006 242885 568367
1007 639851 108542
1008 131366 283138
1009 614810 136525
1010 307905 586126
1011 301622 597969
1012 983068 611125
1013 633576 134543
1014 299342 601583
1015 212670 605950
1016 642520 149485
1017 282227 686036
1018 550055 253003
1019 244220 695039
1020 457286 425167
1021 683767 174472
1022 164669 341081
1023 944901 208636
1024 144962 648007
1025 462381 468604
1026 649189 177729
1027 225483 633071
1028 154946 327264
1029 293933 600727
1030 112742 292940
1031 194387 689218
1032 633017 188085
1033 970600 226841
1034 662033 190878
1035 122232 341646
1036 293043 603388
1037 97304 678485
1038 466388 434028
1039 451579 417686
1040 267948 650724
1041 988610 607760
1042 996032 630819
1043 30377 609239
1044 282436 552626
1045 76236 423988
1046 996629 240797
1047 572099 319566
1048 249935 564279
1049 77797 667534
1050 436367 427082
1051 944119 586118
1052 156267 361809
1053 513368 452815
1054 423646 415925
1055 235173 660396
1056 119267 648460
1057 280739 572178
1058 303916 643969
1059 133108 342945
1060 81156 337930
1061 169248 294762
1062 264679 686234
1063 289548 578373
1064 258379 643275
1065 654901 258630
1066 493420 470411
1067 107977 595020
1068 291206 603073
1069 126284 302517
1070 607881 197980
1071 443447 469495
1072 114225 687337
1073 450757 447957
1074 884068 269677
1075 151811 290735
1076 321004 561635
1077 606530 237801
1078 215195 585910
1079 526308 226337
1080 639724 180444
1081 937317 241395
1082 60055 712491
1083 658749 153049
1084 125351 339860
1085 1007552 633606
1086 38253 715914
1087 487884 404935
1088 1009257 613938
1089 227177 562371
1090 233311 567360
1091 959413 252520
1092 957610 638991
1093 579024 273808
1094 918924 226229
1095 698096 235917
1096 516562 428789
1097 652000 187314
1098 156624 270046
1099 684625 195995
1100 107752 317541
