NAME : portcgen-900-907
COMMENT : portcgen N=900, seed=907
TYPE : TSP
DIMENSION : 900
EDGE_WEIGHT_TYPE : EUC_2D
NODE_COORD_SECTION
1 556 942542
2 120526 605852
3 321079 740922
4 633421 621791
5 24684 441232
6 85577 971278
7 596489 657801
8 812884 151029
9 87382 457744
10 1036434 748586
11 961209 673050
12 156863 525879
13 316074 739221
14 141252 564529
15 14928 959764
16 245761 666102
17 682591 627173
18 799432 154309
19 774863 114372
20 592106 648346
21 63501 948787
22 58053 1024255
23 821364 104604
24 50928 1017061
25 219154 688717
26 965023 840205
27 268010 616416
28 105890 595095
29 681702 620104
30 62081 486338
31 164506 704186
32 273653 737333
33 1007626 739537
34 773289 136895
35 264832 684079
36 14198 447152
37 346758 732616
38 1016528 729047
39 109205 597167
40 -29937 926468
41 234619 729832
42 15451 479077
43 67049 978411
44 15613 451785
45 1005013 743347
46 178154 689612
47 278987 742188
48 318640 688814
49 915083 759616
50 202148 725064
51 253391 691875
52 -49872 938914
53 52644 558332
54 24631 945985
55 166822 700546
56 3852 907502
57 246040 714984
58 237237 703193
59 798103 110318
60 952845 757473
61 47003 404670
62 958823 723691
63 68420 502368
64 106803 467299
65 -44736 997318
66 962422 729566
67 42405 492662
68 -8822 959750
69 47718 445218
70 98978 477877
71 752962 143906
72 88621 558579
73 74989 550554
74 -19255 965574
75 165014 700976
76 21984 559627
77 66746 439022
78 309430 740143
79 252185 719913
80 994017 714776
81 1023653 636306
82 112499 555646
83 3087 942986
84 964140 757098
85 235996 714913
86 194557 690438
87 341707 768015
88 13133 879169
89 273529 674500
90 92375 594715
91 119806 623855
92 838281 76781
93 243729 752589
94 315638 731521
95 45361 974895
96 274843 772031
97 634742 642392
98 199843 743582
99 689651 638708
100 1003815 788234
101 1013481 745250
102 65993 601459
103 637011 639028
104 256798 786407
105 836989 166039
106 245730 729917
107 248994 707123
108 830233 127759
109 31367 924924
110 60193 479231
111 249625 657261
112 249009 653385
113 840142 152116
114 37684 412206
115 2161 957667
116 278663 704427
117 81064 932852
118 240768 665925
119 255653 698256
120 647655 668200
121 620470 648655
122 82951 579315
123 270856 701782
124 1007207 798673
125 71957 985856
126 243426 680810
127 9495 958734
128 7348 921203
129 205044 732516
130 982590 713569
131 214528 670898
132 948980 712811
133 610088 619444
134 826291 147725
135 192916 670574
136 50550 515513
137 22057 418631
138 770101 126259
139 954661 697989
140 952465 757738
141 609071 607924
142 339046 803121
143 77655 474156
144 305139 724805
145 75891 436663
146 264810 707000
147 92872 632882
148 192259 694453
149 818900 89893
150 651220 660123
151 976320 693941
152 60841 556065
153 323821 729560
154 -13106 971572
155 1035482 781625
156 61631 559076
157 21608 1008811
158 121660 388364
159 64486 461638
160 210803 700242
161 216501 733805
162 286582 697904
163 659237 681653
164 -4922 990272
165 673526 606154
166 23691 468144
167 643420 646788
168 270442 779941
169 833750 176929
170 773510 125397
171 248966 698218
172 963026 763075
173 73604 470762
174 787139 106949
175 48690 975515
176 213061 715951
177 224683 745296
178 160203 715730
179 239406 824779
180 318322 755465
181 951957 758568
182 750918 48608
183 26858 982605
184 704887 660861
185 665092 659690
186 248118 663767
187 664750 652091
188 617188 699961
189 10831 878959
190 260606 718788
191 326055 737406
192 237513 650295
193 965089 788722
194 788519 150448
195 954404 766990
196 824917 132538
197 188808 701135
198 630501 708666
199 665862 667419
200 162026 702012
201 787192 157077
202 258085 733411
203 801933 183848
204 553513 627160
205 54893 466422
206 813347 173566
207 297126 715427
208 231178 612762
209 236466 746358
210 134664 551437
211 198831 755308
212 267601 726238
213 1017360 715324
214 223779 761958
215 281719 708441
216 274620 756628
217 1016487 715800
218 628463 663836
219 711680 673132
220 142192 722634
221 38338 928901
222 74181 424054
223 279166 763280
224 253443 685045
225 113876 655384
226 568292 588106
227 952055 795170
228 15774 943456
229 850974 161846
230 127687 584406
231 654354 676231
232 18645 979732
233 44761 938211
234 938977 666323
235 291486 773151
236 326858 766846
237 44264 945405
238 224522 695561
239 216210 663474
240 303546 648318
241 111538 581332
242 637523 659005
243 303772 725871
244 276436 718354
245 144981 698342
246 267386 693189
247 907664 719827
248 146107 665200
249 60401 573613
250 629482 660385
251 216452 702901
252 -31778 415347
253 775051 168822
254 143442 607570
255 956289 741070
256 729505 147506
257 961510 745249
258 851094 178081
259 797943 105701
260 594121 658650
261 115678 473598
262 675554 614447
263 638030 590325
264 275702 710285
265 -8007 894954
266 984305 741664
267 40744 980351
268 92443 914347
269 34015 428661
270 94754 943435
271 638645 697230
272 17664 476076
273 982822 692631
274 170560 776955
275 239241 671300
276 222485 741359
277 194339 707566
278 1007078 686781
279 77333 608768
280 291480 791316
281 8294 949245
282 991235 710037
283 226956 764599
284 204153 717288
285 291599 736445
286 -15920 941007
287 171618 685894
288 233328 667568
289 158827 672265
290 89774 582206
291 14328 954549
292 128359 438096
293 62772 497260
294 -11615 994611
295 985930 702263
296 58949 419200
297 99671 492049
298 983575 704124
299 17148 1003767
300 623012 652955
301 184417 739850
302 263219 721633
303 258188 699892
304 204081 674249
305 792469 167007
306 35357 559162
307 235713 674374
308 791385 143284
309 637543 616958
310 145639 637532
311 316977 708009
312 636856 610454
313 298262 707765
314 175135 751831
315 316832 768358
316 829742 86154
317 109526 924792
318 656158 616821
319 96431 489125
320 277604 764470
321 90700 435432
322 141326 548252
323 53539 459419
324 67086 625172
325 46827 994809
326 597490 595024
327 813418 151466
328 280544 766139
329 245830 761128
330 56506 539295
331 237028 702942
332 58873 514521
333 200492 711595
334 74207 939933
335 40297 446565
336 1019966 811414
337 834100 180567
338 670357 669552
339 943696 705610
340 36163 959005
341 26812 914190
342 116365 533199
343 761604 164900
344 211824 714490
345 27299 926783
346 87304 481862
347 61833 486356
348 937430 721972
349 1024234 750019
350 98690 951976
351 165497 683860
352 89480 503699
353 216377 695108
354 45839 634001
355 851415 121826
356 127963 576054
357 958184 731520
358 647735 664443
359 774595 148214
360 77322 569808
361 296443 767867
362 799690 108553
363 269797 638499
364 191103 673028
365 26087 1003460
366 264861 697643
367 924757 734676
368 278035 797319
369 19423 408367
370 51960 458186
371 43097 423967
372 12782 651007
373 979052 742892
374 812961 96507
375 92598 606700
376 275038 730350
377 205031 543452
378 306802 757303
379 1011343 815575
380 662566 702049
381 201002 740151
382 841764 165638
383 198705 669620
384 622759 702919
385 91440 474758
386 278501 665979
387 268326 691880
388 34823 516464
389 947648 819855
390 289503 674157
391 272649 813680
392 104014 494820
393 851209 152623
394 105657 541272
395 1017644 761314
396 198881 676600
397 258570 687145
398 644931 655415
399 1011666 716227
400 55833 606159
401 45114 917666
402 243741 717271
403 25851 932799
404 990435 758595
405 793347 146113
406 21885 463826
407 252484 664687
408 808388 201114
409 -2729 556820
410 1046290 738824
411 106292 567303
412 987712 758464
413 655062 665041
414 658485 732788
415 77874 462016
416 955618 785409
417 136849 624478
418 137141 433093
419 225573 688649
420 850975 132449
421 45818 947751
422 115331 460949
423 273227 691401
424 809054 129233
425 595432 650433
426 224332 675812
427 973770 774544
428 653589 653352
429 72310 970985
430 784985 94840
431 95610 616852
432 146393 702161
433 966280 729338
434 230478 734414
435 60 956925
436 82817 470382
437 170860 600278
438 107399 496460
439 63906 451095
440 1011473 705528
441 289737 722195
442 933162 704804
443 828786 160031
444 51244 966334
445 78803 486341
446 270805 649160
447 975117 713647
448 76283 464180
449 -12788 957412
450 259986 650114
451 227823 615110
452 325199 696138
453 951681 753280
454 84441 401608
455 161876 678628
456 629630 666054
457 96898 607165
458 1004935 689791
459 65881 437234
460 206980 758274
461 677161 591581
462 302717 758092
463 56109 572533
464 70922 423233
465 1062237 808459
466 231531 687580
467 879122 110782
468 78077 607317
469 637720 636391
470 221655 680081
471 332861 721067
472 68704 399239
473 697903 627364
474 202745 640598
475 66928 956759
476 277263 616954
477 986782 763890
478 77701 463655
479 289500 750067
480 49958 977777
481 238420 725694
482 725645 138756
483 708807 610402
484 662520 685205
485 218857 701835
486 11893 534452
487 989166 739015
488 625355 650421
489 305603 635439
490 90083 417785
491 309008 744521
492 161155 686475
493 37217 450036
494 223028 736962
495 105528 684410
496 645993 696382
497 105904 520088
498 994956 754380
499 -742 925291
500 -18085 922662
501 279598 752230
502 170877 708354
503 63348 584354
504 77494 593185
505 234222 710249
506 244681 697175
507 800423 142850
508 763520 155677
509 182823 672285
510 84500 624614
511 307297 656892
512 89643 508562
513 267241 707874
514 55331 424263
515 13686 971524
516 312011 707283
517 12031 420112
518 79438 484857
519 189708 699413
520 963421 751009
521 33086 962756
522 646720 663757
523 608622 645031
524 39292 917442
525 296761 790553
526 342702 731681
527 239232 656722
528 159229 739096
529 342093 745053
530 643553 661786
531 227245 686019
532 300608 761339
533 276074 643946
534 195132 718908
535 281696 701290
536 295631 745664
537 59653 422772
538 801727 136723
539 268213 610166
540 17928 483086
541 679045 657953
542 957267 682398
543 378114 740389
544 21044 426588
545 101900 590329
546 294037 727820
547 276292 693573
548 75229 999676
549 293984 679764
550 90173 450152
551 810947 110622
552 968284 726364
553 172333 723177
554 154694 684814
555 71832 470614
556 208924 710692
557 252745 759781
558 183480 711968
559 54994 447051
560 112342 413298
561 290742 706194
562 142148 570961
563 255680 687926
564 215783 695029
565 19650 952310
566 15709 901637
567 246388 760467
568 57301 458200
569 75250 604676
570 605260 685754
571 109359 551474
572 1041788 775056
573 127110 571161
574 59677 957909
575 257046 777346
576 737125 99145
577 644217 658994
578 81907 426927
579 52974 633335
580 333850 720631
581 203030 688715
582 981521 669022
583 79979 576488
584 1038508 730698
585 67107 465799
586 986473 701286
587 -19531 926140
588 303241 739249
589 75021 927800
590 685695 703124
591 905415 708130
592 822388 129791
593 182467 682152
594 316448 679568
595 197887 703360
596 771413 136699
597 284648 691478
598 22955 988852
599 690475 659017
600 236516 686392
601 288118 692269
602 57713 454542
603 56550 946277
604 667552 660305
605 73736 436099
606 163660 714082
607 656271 602035
608 650686 609898
609 -979 930975
610 323331 822686
611 1006484 769556
612 633800 677044
613 93915 998165
614 77436 488936
615 214815 678396
616 80755 633517
617 834989 127342
618 55038 431469
619 955043 768411
620 208817 690948
621 619901 639311
622 770950 164135
623 96532 396713
624 237715 693722
625 173013 652797
626 275003 685890
627 59593 916942
628 82229 413143
629 215698 719518
630 643387 684460
631 63589 485690
632 202637 688985
633 319102 755531
634 4751 414120
635 983137 772922
636 901888 668802
637 120933 562657
638 652961 661088
639 291135 740621
640 583219 633206
641 230400 758591
642 605114 632491
643 59132 372191
644 281607 719949
645 52421 984698
646 249773 740372
647 868628 186264
648 80823 462426
649 797977 109774
650 337271 703961
651 -1296 905266
652 787314 132257
653 961588 724946
654 1002934 709561
655 171327 719612
656 960228 719572
657 808256 133859
658 25544 1010862
659 362751 726979
660 649604 680684
661 -52404 974188
662 80079 477873
663 74813 531088
664 810041 126590
665 797145 120572
666 1011257 740318
667 294715 696306
668 53755 523321
669 199103 683452
670 285309 703068
671 151209 643593
672 291572 670327
673 122119 541679
674 307722 772633
675 980642 704217
676 70743 981387
677 603773 694533
678 261452 720184
679 187626 690434
680 278605 655962
681 84109 560307
682 794734 181736
683 79872 397422
684 689203 599896
685 665331 615600
686 135899 614587
687 64714 546895
688 989855 692980
689 634813 565798
690 593316 654112
691 984156 780868
692 87855 513064
693 834619 117203
694 999650 728380
695 569657 647499
696 101463 407580
697 271231 742463
698 596062 674401
699 282258 744744
700 15739 401161
701 827075 129120
702 974085 768458
703 606189 670123
704 11660 973928
705 236405 708109
706 933361 763426
707 961610 692112
708 1002484 745307
709 275311 695720
710 745352 89388
711 1060 1012551
712 96018 590093
713 324406 739226
714 785891 143302
715 648501 697200
716 86506 592126
717 40139 620545
718 54772 428974
719 7642 999553
720 278831 818017
721 891431 184875
722 766969 182280
723 951133 743052
724 -11262 932819
725 104528 439499
726 97779 563404
727 624367 620252
728 136253 682447
729 335508 734237
730 278232 739268
731 84560 550046
732 39932 474064
733 163341 702001
734 256072 639319
735 206161 694318
736 96312 584303
737 621588 622077
738 -13862 444026
739 241468 668182
740 237906 753186
741 252497 741331
742 307009 647672
743 56473 498325
744 951966 764064
745 88952 555759
746 785522 153566
747 340826 716461
748 104802 573649
749 120384 406808
750 110690 601938
751 47515 452881
752 913743 719097
753 814925 113557
754 206264 699182
755 678557 714043
756 108494 606538
757 885020 755541
758 236945 661943
759 625219 703289
760 229523 633442
761 71780 472474
762 275022 709454
763 1010463 735119
764 51847 999465
765 70479 591071
766 984038 741319
767 91396 498439
768 75028 579129
769 660795 622181
770 90775 567365
771 821221 154146
772 212661 602854
773 50739 563906
774 765349 164899
775 235396 656566
776 757963 130548
777 65926 422571
778 794270 106101
779 310241 686413
780 679119 596402
781 252095 744258
782 616647 633312
783 272581 670550
784 66996 990160
785 672017 637992
786 94681 625556
787 290029 819602
788 996830 730415
789 52398 447183
790 39723 591910
791 658310 605578
792 857164 156022
793 127031 698163
794 685961 678078
795 891736 128395
796 91345 613196
797 223644 672969
798 65162 446418
799 266806 712622
800 941784 736335
801 938578 673138
802 281560 676750
803 642846 650031
804 60644 415706
805 77317 402247
806 91988 508532
807 57460 634497
808 43107 1007868
809 50830 586615
810 571596 670990
811 177685 749943
812 27399 949257
813 643676 702261
814 970021 764513
815 285139 762589
816 200602 702821
817 624674 644368
818 31028 461602
819 722493 568117
820 82039 457457
821 307317 770107
822 36004 968157
823 298742 739889
824 163171 810904
825 615609 635531
826 278602 698359
827 953068 730915
828 950024 751462
829 290017 711580
830 -82685 909989
831 752531 125118
832 101170 426654
833 86901 427348
834 976576 706239
835 596736 595890
836 220306 695225
837 47379 439615
838 167403 782616
839 1029583 725508
840 59668 507007
841 -34318 950808
842 250878 723367
843 980183 732306
844 795373 117338
845 299469 726846
846 1013359 693720
847 258124 612792
848 313419 664406
849 240920 671350
850 148238 745001
851 855975 122129
852 37120 566703
853 251119 738185
854 260169 836379
855 292221 589919
856 172916 714171
857 206494 714738
858 181575 705117
859 669359 656930
860 119252 621282
861 89101 602515
862 34569 414056
863 15770 952407
864 304343 628816
865 271567 710082
866 131661 681766
867 685923 638944
868 92737 466545
869 632604 693451
870 635505 643562
871 277766 749068
872 225793 723531
873 266931 761946
874 819222 172374
875 76703 397335
876 652437 683138
877 245451 689512
878 825865 165133
879 177497 727465
880 273546 653485
881 185806 709133
882 957400 693888
883 129555 582305
884 853126 168950
885 603179 621508
886 126053 436790
887 831940 147060
888 233580 578629
889 665544 643492
890 321901 823829
891 290559 659696
892 24270 574029
893 885516 720266
894 631454 575404
895 763710 94795
896 850425 110653
897 99185 1014425
898 155772 445105
899 942448 767124
900 766824 137710
