NAME : portcgen-700-703
COMMENT : portcgen N=700, seed=703
TYPE : TSP
DIMENSION : 700
EDGE_WEIGHT_TYPE : EUC_2D
NODE_COORD_SECTION
1 154270 225596
2 117046 159454
3 88678 198772
4 703047 886159
5 593942 210452
6 295260 410624
7 665180 -21587
8 72221 192926
9 810880 897531
10 237037 420157
11 233985 329089
12 72602 205257
13 763320 863902
14 203262 324879
15 593311 223339
16 111682 250577
17 71410 252984
18 396396 82067
19 300616 499003
20 224659 500397
21 689285 15971
22 266480 336919
23 389689 28638
24 741963 -24473
25 224883 435856
26 215127 530752
27 764483 862523
28 260544 473040
29 740827 859736
30 609235 265708
31 239252 251278
32 283602 464939
33 731803 -9305
34 657932 74298
35 208407 327324
36 204180 261934
37 746521 892700
38 662067 28843
39 573980 284358
40 180888 485495
41 671113 -65929
42 585661 267188
43 219305 439760
44 84811 227973
45 583169 271228
46 80112 199895
47 741734 837760
48 784419 812190
49 787205 830725
50 780665 852556
51 300151 319466
52 534756 226510
53 206269 320200
54 606830 252536
55 679860 11067
56 595541 269488
57 238893 346316
58 765551 897121
59 92595 200894
60 604872 186139
61 227283 480881
62 283954 413841
63 722143 814623
64 707970 4967
65 549012 240999
66 96077 242377
67 386970 75464
68 117918 180931
69 577916 197545
70 663052 45632
71 307946 428882
72 194584 371583
73 251828 459926
74 688244 42578
75 235613 471552
76 609225 237982
77 429626 -2534
78 123965 181305
79 352925 20332
80 566179 275929
81 295635 491955
82 135933 190592
83 620750 -18622
84 139801 163287
85 594835 299492
86 230916 273038
87 55214 150807
88 668594 12510
89 729217 -3711
90 384779 -43906
91 748071 -10561
92 714975 834136
93 80227 248470
94 396743 -53880
95 125147 183125
96 290306 452053
97 758012 795466
98 611809 239080
99 669049 835763
100 728972 875679
101 75733 191470
102 785255 29314
103 726321 36624
104 575714 336664
105 389195 -43057
106 710568 36024
107 298756 476068
108 208750 289762
109 677009 41998
110 670530 -36309
111 739440 -21662
112 76147 230689
113 557394 229753
114 736769 883948
115 253579 471700
116 561569 184565
117 263563 415117
118 391465 85513
119 174783 537910
120 295526 327884
121 512804 195274
122 770470 834801
123 749572 39255
124 799241 894915
125 797134 853468
126 28696 239358
127 287633 549165
128 76198 201492
129 639710 184122
130 541375 154784
131 238200 329529
132 716287 54865
133 424726 26698
134 440464 13693
135 731474 834934
136 75152 211919
137 142659 186044
138 665947 -95495
139 343313 -9481
140 569483 267671
141 351342 -11223
142 759045 52948
143 349627 25849
144 548042 285451
145 243165 477222
146 553334 230008
147 601293 215319
148 750359 -8686
149 405035 30775
150 296266 468467
151 726829 823191
152 636409 41680
153 379323 -43399
154 222931 311117
155 451388 69867
156 569713 199607
157 599610 193732
158 671546 62169
159 412535 27774
160 637593 -26812
161 695754 969057
162 749768 812047
163 265321 495809
164 185103 316328
165 432571 60116
166 248708 422082
167 389808 -34874
168 329844 9188
169 124385 247853
170 185228 434066
171 301624 349996
172 760262 883397
173 342248 10109
174 691715 58423
175 29389 245028
176 104369 262713
177 275185 304893
178 434094 4412
179 581524 145286
180 220064 314811
181 710594 921362
182 746054 -24692
183 69973 176161
184 203683 304080
185 391845 52885
186 -4485 194578
187 754931 852677
188 183039 275701
189 508185 227518
190 645677 -18608
191 555255 262584
192 596793 303922
193 779374 -41188
194 396748 7800
195 284915 454219
196 373124 -61387
197 109449 197571
198 792699 883305
199 79126 233931
200 716804 7530
201 749387 783847
202 251760 363935
203 652370 223242
204 642413 77981
205 36376 221623
206 96271 279768
207 229974 301970
208 486989 221138
209 250798 346674
210 256621 272578
211 125447 191798
212 806973 872058
213 588207 240431
214 253144 570812
215 407871 -12560
216 583254 167909
217 700461 847835
218 251577 518633
219 711557 22642
220 246013 457737
221 208761 341233
222 283774 487108
223 731772 920232
224 482626 14369
225 293371 498364
226 70657 199102
227 749040 53263
228 389293 47289
229 364203 505028
230 599240 255782
231 240633 329921
232 188501 339407
233 393314 -1151
234 356696 22989
235 750462 862440
236 416042 12062
237 405876 -11288
238 588669 231621
239 498128 296766
240 502370 -9667
241 110352 157187
242 679313 -20034
243 261425 342247
244 444794 2734
245 682649 -51442
246 753267 888565
247 112466 209486
248 343733 18119
249 200397 485987
250 774010 868112
251 356630 26392
252 210873 334195
253 389773 29261
254 559352 252196
255 243392 325894
256 437679 -47697
257 759065 -30041
258 770311 846518
259 257594 352544
260 695320 861436
261 366287 -49769
262 248611 459877
263 434527 7757
264 641889 199851
265 389120 13896
266 667885 794706
267 257032 271381
268 322936 27950
269 115211 242809
270 280336 317928
271 458365 -17653
272 408074 11344
273 537309 245520
274 97952 141296
275 548802 275092
276 791414 836690
277 168445 292098
278 522091 233037
279 704122 41455
280 377495 -33911
281 222472 346488
282 625849 22136
283 66810 238302
284 572391 212119
285 705367 4797
286 726380 877334
287 242967 542258
288 699378 20770
289 392591 -12548
290 731022 17011
291 648984 -49597
292 504897 242540
293 274176 491200
294 641373 198306
295 91521 149523
296 139240 269364
297 746674 815350
298 771737 876790
299 770475 18902
300 245870 303117
301 655068 201823
302 310887 433872
303 570938 261986
304 359113 29795
305 232473 486684
306 752902 847408
307 374113 50227
308 116571 186912
309 564667 214303
310 218516 331566
311 308927 421693
312 791227 854438
313 300502 461466
314 204261 420974
315 248219 426143
316 186078 172826
317 235628 370156
318 361701 41835
319 385437 18687
320 698130 -940
321 402441 -42958
322 277411 355534
323 384882 19978
324 647914 300176
325 383629 87607
326 290726 500200
327 111119 179690
328 237332 308799
329 299532 453449
330 168759 332078
331 758680 893813
332 773436 852539
333 719626 2413
334 768858 864526
335 743660 820123
336 603599 289612
337 612483 252714
338 754870 -51432
339 90883 262093
340 120499 245929
341 606495 233305
342 668748 -16572
343 760582 816542
344 784668 816319
345 581679 220440
346 282861 334469
347 692908 781706
348 244507 325575
349 239444 359368
350 620330 211916
351 384752 503147
352 772768 949246
353 299044 475450
354 702539 30775
355 586970 240678
356 379131 -74043
357 398348 -34583
358 719286 857475
359 307868 363711
360 229078 319396
361 164056 353011
362 333918 463743
363 261801 326720
364 608419 223122
365 771434 897242
366 160467 444523
367 304194 497680
368 741270 905151
369 597139 344174
370 674815 -23727
371 74061 192182
372 30236 201426
373 214500 453829
374 335700 14134
375 565352 295943
376 279265 314731
377 685341 -29206
378 702133 7979
379 556691 341504
380 558570 316457
381 234670 446654
382 598260 224831
383 214745 477127
384 583917 285270
385 92250 211996
386 388947 36406
387 716597 835747
388 214175 442070
389 147206 201997
390 736810 64192
391 740928 812049
392 387817 -4593
393 394721 -17534
394 204972 274768
395 254756 466450
396 222658 439691
397 214199 289389
398 610003 249238
399 95967 245432
400 275804 521689
401 739144 846219
402 91938 219012
403 176586 319499
404 204775 305378
405 290389 297536
406 762126 10391
407 769236 878816
408 876779 898501
409 398126 41100
410 561560 225735
411 252791 324389
412 649102 400
413 324521 375235
414 421084 -2432
415 398477 41427
416 263979 450130
417 507664 263966
418 313583 445633
419 232147 299525
420 767964 31824
421 234903 350211
422 245054 496475
423 83441 227952
424 818015 873797
425 241311 303908
426 561005 221757
427 820881 882502
428 236327 256289
429 97683 210687
430 133756 244763
431 202006 397396
432 561662 246730
433 107617 172481
434 699564 -86096
435 425153 -22320
436 221973 314608
437 617206 -51676
438 72364 203503
439 97868 212706
440 378875 -6811
441 325714 493618
442 58298 215429
443 661349 35192
444 724153 888254
445 722128 49817
446 102775 233898
447 605144 183945
448 209150 379081
449 693672 77964
450 210963 423857
451 246610 350105
452 746971 879510
453 410681 -15016
454 435014 37564
455 580929 212149
456 113220 197975
457 429619 74091
458 622920 192574
459 144789 222338
460 258351 508884
461 265853 321118
462 531273 244112
463 377775 -36965
464 747809 888942
465 318677 272674
466 577094 285946
467 548953 267220
468 102520 270931
469 101944 209616
470 399354 2085
471 131574 198402
472 665251 22045
473 67078 236682
474 399349 7769
475 69121 262189
476 381900 48220
477 648024 28888
478 653563 -60110
479 572523 261340
480 401197 88410
481 553063 250753
482 46663 214199
483 213883 485938
484 694229 58841
485 249508 456497
486 200232 297279
487 306262 440139
488 114751 190351
489 685712 877771
490 213670 446882
491 205433 337368
492 728463 115321
493 390924 55628
494 339208 359093
495 402664 -6263
496 280377 522381
497 253385 456750
498 123318 242091
499 741694 809510
500 596263 254020
501 576065 211651
502 588557 215531
503 19739 209387
504 744650 967760
505 261867 273399
506 399796 48334
507 252041 288885
508 347094 -4238
509 264374 431430
510 450589 -246
511 404168 9201
512 88949 223475
513 180553 260199
514 209187 506374
515 275328 554254
516 188971 318657
517 347709 42745
518 559362 251221
519 -709 315812
520 179823 280211
521 721073 -4492
522 724320 858765
523 761457 -33812
524 412324 22669
525 212994 298088
526 624085 239950
527 170271 439191
528 706565 -6500
529 55368 208448
530 637287 269039
531 101709 160812
532 704475 885790
533 742414 -34798
534 129216 244823
535 225778 365147
536 213457 430781
537 141405 238028
538 746715 -37376
539 382001 92428
540 179811 468172
541 784859 852323
542 500962 250982
543 559336 311398
544 154762 266617
545 665921 5687
546 127582 198767
547 99174 316454
548 575174 272292
549 721596 866185
550 279443 363559
551 425305 17749
552 742913 11882
553 15234 186723
554 765653 7977
555 601805 214870
556 269470 275833
557 397820 894
558 702371 -2306
559 864496 782706
560 625223 204282
561 504060 257024
562 759505 864091
563 760309 904919
564 104413 158065
565 412518 7352
566 390303 11296
567 708685 -42774
568 731818 838370
569 234544 326241
570 436628 -6267
571 578560 216536
572 804909 859045
573 267756 530883
574 422056 31321
575 748243 886702
576 405465 -23256
577 398540 54500
578 154559 232424
579 530103 294958
580 727617 835511
581 748995 -67999
582 106067 185486
583 518680 303861
584 693422 -3093
585 227214 474606
586 259196 317481
587 62201 230370
588 579480 289715
589 673220 883645
590 412145 -20228
591 403944 -1328
592 392436 44263
593 658097 76964
594 275403 416419
595 765578 860663
596 680077 845764
597 72686 250498
598 692008 -23600
599 255924 526441
600 69361 196713
601 684412 20977
602 767303 866609
603 429670 47528
604 126027 188053
605 318611 345146
606 605092 229586
607 252238 500033
608 545294 307424
609 429852 46262
610 303480 298556
611 308114 471545
612 298946 387194
613 287597 429257
614 702828 846971
615 815423 923739
616 767191 930160
617 92419 240505
618 122231 188647
619 64651 270057
620 576983 230957
621 198796 228717
622 278931 453909
623 753398 864100
624 713097 50953
625 609610 244799
626 732367 781770
627 516027 318110
628 275164 469080
629 269907 377950
630 231770 465130
631 134911 228555
632 253947 304124
633 675055 13188
634 786902 862909
635 699185 865264
636 389541 -19347
637 286471 470827
638 412150 -20856
639 239869 288754
640 689157 69507
641 738692 -13831
642 406646 10444
643 361571 -88115
644 220061 335779
645 75266 220365
646 238401 459871
647 233509 474139
648 214624 304166
649 137832 277410
650 536160 193871
651 710454 17480
652 496159 223461
653 291268 332158
654 623567 227097
655 767366 850042
656 568127 247091
657 51991 239736
658 837876 853551
659 239192 499404
660 479839 296471
661 776574 831452
662 726857 27905
663 425710 -49820
664 800221 857257
665 797721 915460
666 647466 295647
667 265013 458607
668 670533 -6170
669 397601 23065
670 812602 782049
671 302441 -10414
672 248874 317453
673 97546 232303
674 400446 -4611
675 203691 310395
676 714941 858232
677 727052 9277
678 211566 331438
679 187150 234298
680 271294 288959
681 435196 4950
682 599577 256091
683 787544 798074
684 740451 934564
685 719493 867503
686 620387 262927
687 510114 -65050
688 225057 479637
689 563090 266077
690 639486 185382
691 302012 477027
692 268427 225874
693 743595 793594
694 230073 264151
695 130291 216806
696 92341 274821
697 129416 165683
698 577160 218139
699 725107 17217
700 238717 446736
