NAME : portcgen-1300-1303
COMMENT : portcgen N=1300, seed=1303
TYPE : TSP
DIMENSION : 1300
EDGE_WEIGHT_TYPE : EUC_2D
NODE_COORD_SECTION
1 624538 20170
2 574147 54237
3 782566 233639
4 117268 57818
5 818106 223771
6 679297 987339
7 858405 32126
8 77271 400573
9 449900 373389
10 860662 290192
11 2216 103598
12 640925 27022
13 278993 628098
14 848123 470379
15 462150 634804
16 39157 -4164
17 351999 447829
18 256481 659240
19 802096 92775
20 43920 17627
21 818668 43021
22 592276 70419
23 83016 378831
24 837876 461617
25 651680 287795
26 1970 107436
27 627986 15064
28 709549 966874
29 680545 287505
30 639067 43314
31 628446 8879
32 645087 245466
33 822277 485508
34 699820 41186
35 804962 74115
36 883034 207266
37 796416 65152
38 293455 664909
39 622942 179217
40 842799 516711
41 313393 701846
42 632653 19004
43 403566 434780
44 619170 227634
45 52300 161693
46 741690 961118
47 56046 2996
48 617208 55145
49 615275 9854
50 659576 1004912
51 -7965 175730
52 637148 29125
53 14633 138479
54 313030 624026
55 429345 441335
56 651994 42400
57 820613 275656
58 459507 647326
59 613802 53212
60 604502 44885
61 775220 491203
62 770674 70674
63 660446 277256
64 395789 422333
65 652648 987999
66 117842 13616
67 57118 51963
68 777950 487558
69 94904 -1055
70 363724 368884
71 82311 353061
72 828387 265995
73 820822 474621
74 694029 998442
75 268786 629152
76 107263 343113
77 857249 309875
78 286105 637546
79 578369 38737
80 474067 672385
81 583083 19929
82 58237 25864
83 94770 344711
84 111677 290359
85 836057 249592
86 432575 386043
87 834061 31485
88 866639 211452
89 71669 25651
90 656030 35142
91 621040 36843
92 373168 403128
93 846044 498340
94 658009 41967
95 676295 956665
96 590545 87510
97 678030 952200
98 69943 38915
99 442808 621569
100 770869 439510
101 814975 276846
102 645929 62934
103 786707 59250
104 770910 932013
105 112730 338728
106 886916 291945
107 48959 138222
108 749740 80222
109 298330 659963
110 719048 1001392
111 895291 454162
112 243499 700763
113 851577 265016
114 462412 679071
115 90416 318582
116 488050 638031
117 85694 92201
118 692769 961639
119 666653 68430
120 853143 259257
121 843185 299715
122 880669 232454
123 683690 39640
124 428636 683089
125 113871 332344
126 606743 15005
127 278310 690455
128 775075 116849
129 838508 480617
130 370642 371829
131 445157 599838
132 78565 -46667
133 812594 61909
134 726665 961716
135 413426 429374
136 620507 8351
137 660516 -17478
138 639397 279756
139 385431 395825
140 350752 328075
141 625501 233530
142 646590 15466
143 25550 122348
144 33445 53343
145 844234 307680
146 831169 111923
147 -1646 137371
148 809067 461186
149 141005 324503
150 271759 676639
151 75498 351037
152 365208 386678
153 81790 -24548
154 92224 303438
155 663606 49401
156 466659 666715
157 656224 281661
158 709116 990907
159 725133 944292
160 299889 729984
161 592763 243042
162 568205 71313
163 804628 139937
164 791004 497520
165 886133 260923
166 905811 215237
167 621739 22020
168 807645 270206
169 607815 -7278
170 79936 335006
171 89080 -29397
172 68622 20050
173 70297 38321
174 389731 395877
175 75170 19664
176 307112 674784
177 838994 285820
178 84790 26267
179 432764 390814
180 402614 416484
181 707248 952756
182 694528 1495
183 491401 706011
184 590252 36225
185 595594 17616
186 616681 25439
187 86704 17870
188 111969 357098
189 726045 998589
190 629904 234562
191 447727 652319
192 30266 98242
193 633146 186831
194 839949 475075
195 467663 698040
196 689438 977066
197 621480 253831
198 847954 526910
199 818845 494097
200 650644 995914
201 811163 97170
202 660525 286893
203 623036 38000
204 806922 110111
205 739088 26558
206 120225 311858
207 787334 62161
208 680193 78946
209 809184 465054
210 680809 24839
211 780409 73978
212 69527 -26898
213 695051 -7631
214 380771 659814
215 390535 434980
216 85789 371240
217 805854 461703
218 110601 7083
219 866322 254924
220 622558 -27190
221 65123 323057
222 686951 51717
223 428548 590460
224 829228 474719
225 496011 689298
226 38966 293629
227 317877 703217
228 325564 696793
229 357796 396693
230 586842 284466
231 722251 1054496
232 779 100876
233 53779 54762
234 -73575 152325
235 698298 1014912
236 822329 492287
237 846202 261616
238 9072 167870
239 290334 624105
240 788315 61278
241 78704 341680
242 283284 621533
243 446774 652581
244 703334 3951
245 100499 34091
246 305290 676038
247 769867 452586
248 97274 340821
249 -33643 133123
250 67958 341592
251 278849 706914
252 690344 -11599
253 611482 31831
254 679663 939552
255 858839 286435
256 294276 662622
257 375888 363003
258 820006 450702
259 889471 214670
260 121789 316420
261 634456 264516
262 804833 209853
263 43425 334114
264 677588 22483
265 616750 200399
266 100451 335324
267 45515 122438
268 586292 230244
269 712660 1034013
270 67745 10286
271 -9412 160564
272 408452 395636
273 116561 308977
274 562545 28452
275 820374 229896
276 279268 666525
277 389350 374764
278 86852 310558
279 785109 515714
280 619745 266303
281 793653 54059
282 -4244 151053
283 629627 -31283
284 568031 71890
285 663242 95029
286 82404 314473
287 9833 162542
288 82798 382974
289 89701 353111
290 484476 606663
291 817720 121054
292 -44590 150479
293 621416 38370
294 774297 109254
295 604163 5049
296 641668 13559
297 408785 412456
298 684417 954185
299 43111 -6717
300 263794 667023
301 -26727 184197
302 685178 -67826
303 574997 47834
304 869093 273151
305 789472 56932
306 678685 250851
307 456353 653857
308 -30095 71258
309 598090 206138
310 74672 -18051
311 828733 464963
312 280148 658610
313 705294 970641
314 465369 704956
315 91730 1925
316 867178 266396
317 368926 392232
318 630469 275681
319 761807 58300
320 577174 12447
321 119979 340145
322 337865 678221
323 371023 425645
324 81980 -3089
325 11011 170638
326 491883 703432
327 402029 394164
328 317676 669632
329 99734 304211
330 72661 364819
331 386369 410310
332 -7455 176361
333 790744 107560
334 15861 141990
335 466834 657495
336 798952 76329
337 649045 79237
338 637359 937609
339 -3188 167464
340 828839 269396
341 685863 38027
342 276713 633182
343 2168 174895
344 360885 402837
345 862872 463379
346 -11239 206900
347 785333 83326
348 55266 379284
349 844473 489006
350 430804 654428
351 844456 205700
352 262566 622043
353 78756 29078
354 305605 713391
355 815586 236939
356 289815 623344
357 400877 676873
358 582190 37992
359 620034 53640
360 682580 983101
361 790518 462478
362 415269 410370
363 31536 158803
364 94390 354837
365 729703 999022
366 435557 397349
367 -8442 154697
368 778468 96169
369 673594 966018
370 561491 68534
371 836438 260213
372 87454 327970
373 890429 262114
374 7218 133676
375 -22461 128103
376 852436 487829
377 827865 473105
378 717480 919252
379 333655 705358
380 384157 381874
381 117171 29940
382 825658 226394
383 640999 62185
384 632355 215501
385 633927 220853
386 802014 88601
387 323296 653466
388 637905 262107
389 56058 17016
390 2041 183616
391 820683 447849
392 102914 357506
393 47476 19701
394 696412 234947
395 665404 -38235
396 807099 49261
397 627662 255279
398 77553 330411
399 800371 125402
400 96277 367404
401 53268 321280
402 399929 343659
403 498196 673899
404 691349 19459
405 55638 139680
406 88171 362634
407 874437 266920
408 835496 54602
409 587129 85964
410 88908 376161
411 573825 200660
412 709453 983009
413 859163 236220
414 859797 238355
415 739253 7542
416 65927 -6588
417 337707 681342
418 605598 248794
419 457823 666884
420 311006 625217
421 409242 398981
422 592619 41186
423 86772 368501
424 254038 700065
425 265294 624276
426 841249 239818
427 803538 100888
428 61949 352797
429 79364 17283
430 587227 218398
431 715538 988390
432 781680 104667
433 826817 57220
434 651556 11980
435 734562 970785
436 502598 653159
437 632916 34295
438 730736 988467
439 394136 392627
440 828111 234943
441 801505 429881
442 89255 336016
443 821294 484615
444 125909 330211
445 243736 678641
446 699401 960449
447 718065 939435
448 829809 490264
449 692418 23891
450 134221 345084
451 598570 37131
452 373248 380745
453 43708 2956
454 831891 60383
455 63551 3485
456 722129 13034
457 879542 242920
458 674280 43167
459 420716 666956
460 142310 340801
461 822922 465342
462 707093 941004
463 635797 255622
464 623119 223066
465 69167 309076
466 429411 393634
467 438731 654228
468 717895 941313
469 460656 617526
470 816724 276483
471 27846 108897
472 447981 654648
473 795118 508555
474 -11420 79311
475 73798 53948
476 588770 67070
477 803462 89692
478 282306 626162
479 691362 -8501
480 96579 323905
481 479298 665709
482 63398 -19504
483 329813 638748
484 876314 281238
485 399703 460751
486 46039 -40886
487 900783 267397
488 710222 976129
489 804946 483693
490 774604 50049
491 470458 637566
492 418375 367273
493 90768 294715
494 372757 407472
495 842273 276468
496 662640 -31881
497 60609 1458
498 749123 946643
499 573500 23293
500 389337 423165
501 435363 659498
502 854591 244359
503 518264 688593
504 626436 66407
505 55055 314800
506 304478 627107
507 551450 52349
508 667413 35619
509 775443 79288
510 289802 624289
511 -54429 173587
512 463771 700746
513 880692 238028
514 273147 695525
515 648395 228602
516 461367 617799
517 533629 51342
518 402279 362456
519 682052 34413
520 265941 691920
521 866973 254674
522 401584 401312
523 334389 645530
524 259721 665141
525 827683 262974
526 366446 418833
527 683548 266819
528 648592 251302
529 659291 992761
530 215687 671563
531 717496 963527
532 668266 35011
533 886319 260305
534 759625 61147
535 799517 492288
536 637613 46259
537 98324 333981
538 108656 280846
539 -11899 135381
540 689026 988746
541 86538 349793
542 583440 220921
543 803093 255537
544 42147 16524
545 696738 998881
546 868618 220870
547 30616 193045
548 840119 465368
549 101856 329662
550 809794 119211
551 749295 505580
552 807207 474301
553 850694 264078
554 578240 1103
555 378063 398763
556 81857 -6121
557 868103 320171
558 64944 4905
559 648140 226854
560 57176 38471
561 721805 960156
562 580465 38479
563 792544 458906
564 683046 -23715
565 408927 696917
566 596973 6704
567 84258 -8983
568 621726 42310
569 808660 510761
570 773302 50563
571 479768 661304
572 78816 -29784
573 680486 6151
574 579715 23675
575 278424 682250
576 639955 208747
577 826086 259327
578 776271 502930
579 794431 82895
580 841821 489748
581 784949 971268
582 40904 165666
583 38590 176424
584 -590 143482
585 49981 355504
586 89660 314248
587 872617 294862
588 617187 220017
589 828086 238582
590 424360 418886
591 695366 32000
592 617855 307042
593 823435 265084
594 576192 45638
595 25380 119376
596 740726 57529
597 771844 468935
598 493104 656046
599 644174 231740
600 79558 87999
601 814059 420444
602 578948 57087
603 410350 346313
604 864384 482302
605 824676 230169
606 117667 298425
607 -25482 157295
608 779242 50884
609 76777 69688
610 771630 500122
611 119248 12728
612 -15532 157468
613 601122 231037
614 732652 940719
615 685900 988918
616 820481 474850
617 822674 466511
618 52283 35301
619 359302 399352
620 624599 12507
621 381042 370068
622 332580 659987
623 98410 18757
624 244919 682071
625 793505 53433
626 27664 53130
627 389117 389325
628 57493 285519
629 -19345 138482
630 614080 37681
631 -8510 121905
632 465019 422732
633 807800 86653
634 691338 922610
635 663798 974656
636 400954 394890
637 826222 241351
638 853730 488484
639 663976 958567
640 -26516 121123
641 586620 83955
642 591168 214738
643 152169 331104
644 109247 381967
645 780243 34586
646 813882 41041
647 84227 31635
648 22091 38790
649 825103 248861
650 595367 288938
651 17640 33572
652 838361 269284
653 -16950 112938
654 77907 340880
655 289805 689494
656 457925 370158
657 320322 647469
658 -22737 124013
659 627026 -1052
660 474492 702807
661 897841 480240
662 659967 -26134
663 72742 19192
664 62555 -24841
665 764191 88377
666 362389 444281
667 859231 543807
668 742707 960999
669 657823 950863
670 274369 692928
671 771264 247557
672 885127 291436
673 649174 24144
674 88081 364075
675 283102 632615
676 66476 21056
677 482821 667011
678 636353 -33038
679 134368 346355
680 693262 27791
681 718427 1005178
682 628212 200180
683 47979 20898
684 672133 260233
685 479513 687105
686 673122 956305
687 662307 -38601
688 666454 37559
689 312929 700463
690 596634 23150
691 402982 437033
692 675531 7138
693 822281 272526
694 282963 639546
695 470563 627118
696 602099 212623
697 839962 290589
698 859882 231359
699 123042 332384
700 263131 675763
701 597636 -20159
702 605125 57220
703 339247 666646
704 32900 86274
705 832291 230467
706 499451 670620
707 771635 92288
708 452503 645403
709 235181 691617
710 787337 494984
711 651703 255595
712 419141 420687
713 377000 396938
714 826244 505485
715 475180 687508
716 638008 201410
717 41447 114703
718 382668 412947
719 698848 9855
720 32825 144152
721 477801 669939
722 681266 956298
723 692324 -2929
724 144656 333019
725 840523 283417
726 707163 976207
727 674672 63367
728 642545 259966
729 102419 355318
730 841312 479766
731 674816 955683
732 396675 397081
733 66457 55052
734 667252 38466
735 108557 357100
736 275662 639323
737 37891 9456
738 851789 280471
739 62805 333485
740 65362 18741
741 848958 265795
742 663745 -22963
743 269819 649918
744 669164 247178
745 432900 631250
746 831687 472996
747 272024 654455
748 685413 988843
749 787177 537641
750 609852 299259
751 632098 194217
752 74031 332986
753 382488 443510
754 340457 412963
755 784470 462680
756 855425 504793
757 104875 340197
758 54142 265415
759 390754 428995
760 473004 663215
761 330444 671375
762 382217 394655
763 626892 26611
764 407191 455532
765 468537 683213
766 685621 977403
767 646826 2226
768 689023 973235
769 823738 475986
770 46336 151624
771 468662 658706
772 872619 275295
773 573608 17028
774 258527 660895
775 438833 390574
776 592649 268738
777 664778 -12986
778 385424 382214
779 437229 342402
780 449747 653352
781 393946 440423
782 741377 1004871
783 599467 238766
784 671210 -25178
785 436562 659760
786 2053 123359
787 843764 418634
788 655974 21896
789 471666 715624
790 620727 -2807
791 4290 132979
792 869813 324503
793 593024 17381
794 48776 -12223
795 718777 958606
796 414040 393332
797 105451 355856
798 62692 23425
799 251991 669010
800 789952 58028
801 704276 980148
802 612896 31571
803 338277 684491
804 820624 47557
805 76968 45005
806 235979 684185
807 710712 1005538
808 68255 122621
809 821201 104846
810 634052 45522
811 792698 255797
812 387176 351840
813 5778 163376
814 605103 23574
815 661444 227682
816 618915 -10678
817 105053 330381
818 599323 231738
819 653654 258714
820 -24973 123237
821 661286 280676
822 22466 154958
823 839826 524862
824 649515 1040179
825 258251 664258
826 20129 26942
827 802158 86959
828 650759 36154
829 6049 139177
830 -17921 116714
831 785472 86463
832 657700 29524
833 621534 193447
834 89607 347136
835 124302 354830
836 825518 261681
837 55902 69128
838 452803 416993
839 474905 685896
840 -69939 152947
841 756355 474611
842 805636 492592
843 461724 674719
844 792727 95005
845 621617 262748
846 95325 14667
847 341839 457239
848 376780 380407
849 787013 544845
850 868373 225076
851 706786 983912
852 817017 38870
853 484782 627112
854 589521 242119
855 21457 766
856 112498 351793
857 668915 972310
858 828600 90936
859 629534 223768
860 320242 655102
861 691174 1033138
862 481447 662731
863 707251 929708
864 475619 668481
865 830566 266391
866 436701 652760
867 98598 366809
868 302140 669086
869 814335 476308
870 411562 688469
871 829201 434211
872 -11562 19546
873 865839 214839
874 733527 66329
875 797801 473227
876 815619 103922
877 -8379 207215
878 26171 127570
879 638702 -29190
880 407185 453124
881 908119 302724
882 776828 104508
883 334291 420076
884 828886 466664
885 793754 101766
886 802734 90449
887 590664 24009
888 32616 163195
889 796633 77108
890 306845 674429
891 629582 -6511
892 853238 274000
893 70900 329468
894 793528 425003
895 538239 36832
896 67320 38711
897 303320 684865
898 -10996 101845
899 287828 621780
900 836292 224444
901 119095 357852
902 721511 964725
903 592871 45199
904 638204 41564
905 363614 425328
906 4183 168267
907 821350 276151
908 877393 282150
909 886768 270434
910 1231 106300
911 693270 954666
912 658786 214112
913 664833 -25154
914 294842 643729
915 115206 58127
916 729805 80993
917 -29358 152006
918 681114 943211
919 655580 7916
920 834268 105384
921 846175 223927
922 598943 50237
923 355475 686051
924 300770 634480
925 445813 626050
926 843119 489925
927 838162 275185
928 59329 356276
929 7251 143442
930 275790 722298
931 774705 84817
932 368870 425119
933 772772 80759
934 775906 97609
935 88507 332376
936 671879 39077
937 74319 382231
938 703969 990168
939 165852 299318
940 77355 335046
941 309005 636395
942 491049 646841
943 32086 150423
944 625613 244478
945 658002 -28912
946 848239 272872
947 596074 17642
948 66026 151809
949 775703 79060
950 787975 307341
951 454897 346852
952 624905 38688
953 572477 9262
954 4044 148986
955 471789 691636
956 847365 283123
957 449840 687584
958 118804 356317
959 840965 253075
960 551134 257110
961 559045 -26050
962 116843 373275
963 768081 64406
964 803937 219818
965 619465 287692
966 342274 395492
967 5377 177268
968 624369 75440
969 617052 57040
970 92289 334565
971 906839 263192
972 647095 433
973 850627 472441
974 838925 274049
975 855575 509671
976 443238 703072
977 75313 323190
978 28031 109751
979 626833 34831
980 222716 678747
981 601152 17636
982 850461 475347
983 84440 410
984 843731 476221
985 65672 2117
986 418609 362991
987 702138 54070
988 88129 -22871
989 316330 684137
990 134110 325603
991 113702 331252
992 837745 109875
993 10059 147501
994 93287 -16204
995 620219 206264
996 741316 980946
997 682625 1016448
998 89106 355499
999 607185 62935
1000 847418 495010
1001 704675 972064
1002 728458 981318
1003 587376 244331
1004 638691 58034
1005 432800 669033
1006 687752 974049
1007 847695 523658
1008 281163 681359
1009 44751 103187
1010 476983 661476
1011 826536 248358
1012 758594 84296
1013 807772 517644
1014 593967 63086
1015 118015 333860
1016 496793 646415
1017 33979 121028
1018 623146 21496
1019 670342 230102
1020 632990 1001060
1021 119005 320916
1022 279722 677410
1023 771910 42763
1024 611180 43062
1025 662469 280148
1026 620253 82487
1027 690587 954938
1028 627674 27922
1029 818329 476187
1030 750158 63549
1031 743277 980167
1032 691999 956143
1033 629720 -10906
1034 108664 359443
1035 776001 529000
1036 307707 689697
1037 828945 95150
1038 36597 153556
1039 643044 217129
1040 649076 33448
1041 823697 512892
1042 109130 341588
1043 614983 266485
1044 51321 333558
1045 20296 188158
1046 699680 988212
1047 777328 515390
1048 492251 685434
1049 828028 67773
1050 624578 -8734
1051 725377 991448
1052 605208 229569
1053 295413 642721
1054 376687 411350
1055 100867 354122
1056 442474 635075
1057 656136 217090
1058 366215 393994
1059 81112 11968
1060 310984 649874
1061 685592 958115
1062 618826 246836
1063 504256 570330
1064 586362 -24870
1065 -35055 150468
1066 552568 60554
1067 791814 472737
1068 678047 -55945
1069 88827 -10281
1070 746212 956449
1071 84254 313845
1072 695543 944575
1073 803395 448678
1074 284166 663699
1075 795213 444210
1076 99400 343319
1077 373146 381563
1078 799814 503119
1079 642793 227334
1080 818175 261859
1081 4073 132235
1082 467518 678335
1083 649343 -19180
1084 637910 245537
1085 838604 291357
1086 898148 272590
1087 608553 12138
1088 456139 675906
1089 582369 15665
1090 -4910 187049
1091 877096 470390
1092 317340 674274
1093 770113 986551
1094 94344 335443
1095 702785 1012732
1096 698672 18926
1097 268239 672432
1098 4157 184739
1099 662031 34006
1100 31074 4486
1101 500846 648509
1102 675493 34381
1103 780392 47310
1104 20996 125429
1105 598873 65313
1106 644089 3607
1107 368477 384861
1108 377119 347992
1109 649593 -9100
1110 746424 993258
1111 568159 71018
1112 640550 233514
1113 15135 18313
1114 855244 270778
1115 871979 258895
1116 329044 699797
1117 384144 393027
1118 842282 460572
1119 99846 -13652
1120 482955 653068
1121 599840 54391
1122 306643 633309
1123 594660 27117
1124 360809 436841
1125 821691 489913
1126 267615 669522
1127 19655 86518
1128 78695 377438
1129 753348 985691
1130 -906 92481
1131 50426 349745
1132 809624 487447
1133 678766 987787
1134 488140 650868
1135 22443 114527
1136 53031 348205
1137 851274 471062
1138 809884 245385
1139 316492 636497
1140 -10174 124865
1141 680637 930332
1142 271947 700347
1143 111305 -31934
1144 774733 80463
1145 75980 6823
1146 317468 649178
1147 377173 415805
1148 720123 983018
1149 594159 35177
1150 106704 70962
1151 771656 974769
1152 794964 540528
1153 680010 944935
1154 858004 255892
1155 65896 302819
1156 464566 677204
1157 893116 230417
1158 586013 14232
1159 667721 -5462
1160 684660 985661
1161 681828 36323
1162 445278 668065
1163 730091 978357
1164 578466 2704
1165 798367 86292
1166 761198 468934
1167 334506 666624
1168 18535 131822
1169 673483 -2730
1170 297134 673953
1171 81427 338151
1172 809383 73151
1173 793724 534375
1174 561147 33086
1175 376341 441127
1176 841124 143157
1177 400132 421310
1178 132763 47340
1179 634562 192408
1180 598411 33686
1181 348700 713012
1182 418124 368736
1183 98775 316082
1184 451719 688793
1185 79889 362491
1186 682850 961550
1187 741940 87252
1188 351404 440822
1189 131462 345690
1190 712450 991254
1191 272510 666216
1192 788531 55432
1193 855572 263861
1194 877276 243527
1195 701457 937371
1196 846625 479746
1197 295781 700246
1198 776904 256929
1199 395541 383949
1200 98674 30981
1201 412908 394959
1202 368718 410722
1203 692755 978625
1204 434868 407128
1205 244031 636631
1206 267585 689217
1207 255761 699548
1208 644887 -35592
1209 112403 363347
1210 678401 997239
1211 643070 -19182
1212 637017 10581
1213 862071 446906
1214 516925 700321
1215 642812 39473
1216 806236 124415
1217 723117 926792
1218 -2150 97244
1219 649029 28842
1220 631686 269631
1221 603994 233435
1222 675625 38769
1223 109690 329944
1224 29241 18281
1225 598517 222742
1226 737327 947637
1227 833406 244574
1228 39457 175588
1229 553777 625728
1230 75900 378077
1231 93385 53698
1232 43729 154148
1233 9659 173835
1234 651267 220781
1235 510789 685519
1236 636032 296949
1237 577032 30666
1238 417463 408879
1239 872164 457647
1240 466842 659081
1241 648180 -12067
1242 828540 100907
1243 18806 85219
1244 709678 956686
1245 715160 994639
1246 81213 42641
1247 104466 -5065
1248 361519 434260
1249 796903 97264
1250 378207 382817
1251 606522 -4401
1252 718838 1018449
1253 593787 60784
1254 59102 360813
1255 884441 291578
1256 622610 41250
1257 741922 993845
1258 521857 611683
1259 68654 63939
1260 622026 242437
1261 -8081 159446
1262 632200 266645
1263 8307 160575
1264 831550 473638
1265 569467 63670
1266 46627 132988
1267 794983 56631
1268 625757 27504
1269 661351 961522
1270 90169 296970
1271 628988 198883
1272 296875 667928
1273 378721 437720
1274 45266 114626
1275 361784 400702
1276 84244 23759
1277 812510 265759
1278 643692 54930
1279 4203 144938
1280 125735 352042
1281 629733 187642
1282 819054 61962
1283 275095 624239
1284 850660 446438
1285 -23812 169540
1286 79326 35169
1287 636206 231894
1288 460120 653471
1289 485913 634638
1290 102125 21082
1291 412868 449936
1292 830120 251469
1293 635808 284760
1294 625651 244140
1295 620066 48183
1296 775134 76064
1297 629104 47649
1298 691379 935998
1299 -548 84644
1300 86947 27111
