NAME : portcgen-1400-1401
COMMENT : portcgen N=1400, seed=1401
TYPE : TSP
DIMENSION : 1400
EDGE_WEIGHT_TYPE : EUC_2D
NODE_COORD_SECTION
1 341666 102286
2 746315 542509
3 584019 703069
4 709633 624871
5 502880 -31090
6 166328 29974
7 166576 47454
8 510601 20994
9 383446 440155
10 428632 89178
11 427448 451882
12 741188 260826
13 424712 63535
14 734481 532873
15 766983 245213
16 886224 458071
17 209611 84271
18 202676 9205
19 377832 108169
20 719499 204578
21 751203 496526
22 734583 477503
23 880545 513626
24 730407 588285
25 163133 19512
26 787517 793900
27 250135 125670
28 715168 608064
29 466577 30609
30 145032 76467
31 389492 44635
32 821260 499559
33 809481 709679
34 254162 139619
35 398495 457854
36 743227 645853
37 361960 86355
38 362474 373222
39 717689 208970
40 756399 248498
41 538215 664476
42 919843 516541
43 580834 645921
44 385841 74267
45 585448 658873
46 249132 138272
47 675690 690068
48 246200 138108
49 391191 120890
50 385320 371741
51 419413 -16104
52 748146 549088
53 609985 680396
54 775373 510176
55 378096 421818
56 711676 528706
57 371928 131734
58 451775 432143
59 720302 659068
60 820431 761428
61 587822 685357
62 211977 146737
63 753534 657715
64 685815 620243
65 848919 556028
66 550461 685465
67 568287 681343
68 797517 720014
69 376866 312084
70 630541 663201
71 428283 69670
72 771004 245994
73 210456 16292
74 189386 95422
75 575159 652201
76 460383 6105
77 335174 104534
78 394671 352187
79 783973 229891
80 844009 776170
81 795099 769803
82 768913 231909
83 749270 682414
84 502573 25320
85 569477 715099
86 467870 37131
87 458356 40248
88 899032 459153
89 736138 239894
90 345670 457649
91 201910 99211
92 423148 40590
93 172212 102257
94 190835 102671
95 740416 538247
96 368131 116770
97 710088 694884
98 167570 80991
99 587446 646398
100 242068 164075
101 764574 212372
102 154083 66888
103 451094 45234
104 206261 52358
105 148594 10291
106 144880 28549
107 728719 653853
108 147879 38497
109 210787 111587
110 237333 113351
111 741225 249248
112 106862 50733
113 720316 646057
114 568342 710179
115 188999 81654
116 557024 675916
117 237679 170720
118 224645 153951
119 489865 44295
120 152666 12919
121 727160 699243
122 231489 135644
123 891231 499768
124 788728 536336
125 345719 414305
126 321992 415123
127 578388 702153
128 824264 528952
129 408264 373377
130 214546 161905
131 824177 718340
132 732485 210199
133 689061 646950
134 358415 129284
135 746509 230972
136 277407 185945
137 218745 167315
138 206248 88852
139 715481 662751
140 452087 -10340
141 359401 75152
142 324395 91898
143 393239 366766
144 886766 506589
145 593061 678724
146 686164 266172
147 372313 108798
148 763542 247328
149 853439 769649
150 439146 -1198
151 376269 373413
152 780373 788221
153 132616 58325
154 346076 161841
155 760477 540905
156 449526 -583
157 464298 13245
158 377179 405221
159 774194 241243
160 163860 127764
161 772827 214961
162 160927 102609
163 906194 502342
164 384981 64128
165 826219 798618
166 306390 399856
167 444526 339957
168 486581 47995
169 782331 572288
170 863393 496895
171 383517 64214
172 377884 51793
173 379893 443473
174 872837 455525
175 727666 508332
176 174248 109313
177 242499 116505
178 397123 462205
179 477891 27177
180 180967 104377
181 722193 225059
182 672648 725814
183 130514 50727
184 364718 108362
185 787757 738451
186 410112 47577
187 95976 69271
188 480244 39233
189 788548 282165
190 419816 356060
191 315287 378104
192 402959 374465
193 198989 62735
194 851122 537350
195 742741 544905
196 233833 151858
197 699947 631647
198 353365 443738
199 357784 383465
200 506073 82674
201 151361 75074
202 715016 270445
203 213152 126406
204 438747 69232
205 370539 400811
206 689387 685099
207 402728 437
208 569676 674603
209 862042 483767
210 732436 257010
211 586881 711667
212 889729 424154
213 336128 79271
214 401697 447376
215 686732 303142
216 400050 435436
217 343173 96457
218 390624 372702
219 334163 95223
220 845496 784111
221 896175 504076
222 343595 76405
223 511613 446
224 539681 698197
225 182751 49255
226 703735 625576
227 646476 714131
228 740258 519890
229 713480 649162
230 860915 499606
231 762683 247655
232 407865 425105
233 183472 32062
234 386027 359471
235 713158 644688
236 367178 425404
237 785858 560229
238 801966 232212
239 369751 338036
240 170161 113501
241 723070 501430
242 359157 413775
243 360535 382272
244 864303 494934
245 889921 464449
246 121151 92081
247 740460 699441
248 889578 539090
249 543826 28151
250 380046 487638
251 327909 399803
252 211914 166790
253 182489 -2331
254 228973 136336
255 385959 419238
256 151606 4553
257 392029 407512
258 229398 132303
259 825520 818047
260 184221 96227
261 713139 673309
262 420676 452549
263 388335 470877
264 755641 519052
265 797350 784059
266 181035 38607
267 226519 146959
268 748843 210027
269 356778 144623
270 425876 472656
271 192431 88339
272 390596 62761
273 209466 69015
274 151174 6785
275 363245 453400
276 717699 678406
277 847185 510526
278 406306 447296
279 165081 93482
280 899226 522590
281 760413 482176
282 509756 74505
283 388046 42083
284 345838 332466
285 415438 21181
286 879313 531658
287 368971 12078
288 364801 344830
289 421970 441989
290 198822 69415
291 402905 28229
292 383371 84875
293 554996 11664
294 548615 689334
295 211433 32893
296 223732 117040
297 884564 477905
298 374972 121036
299 850916 430316
300 443077 42336
301 861553 532564
302 732719 216931
303 358269 96173
304 842964 495897
305 433704 412660
306 840553 777406
307 386366 429397
308 475930 83828
309 444317 63384
310 193074 45089
311 440182 452818
312 823392 543345
313 845739 425642
314 427187 50068
315 362527 411745
316 352859 84865
317 229210 161546
318 357088 354568
319 200645 90905
320 820298 458274
321 132248 34587
322 200884 39075
323 509754 21566
324 493987 27578
325 360520 360848
326 437635 453131
327 807492 793863
328 773312 244955
329 809943 778598
330 144419 -9377
331 451417 63401
332 821671 760183
333 380178 37009
334 758376 249337
335 220279 150722
336 866804 507447
337 485754 75137
338 502352 43771
339 526882 20387
340 376460 104658
341 123919 44356
342 407589 440876
343 163374 112090
344 802700 790303
345 459548 -2855
346 777296 735912
347 891749 748231
348 470340 50910
349 752920 641204
350 461938 96116
351 155336 111083
352 348199 405594
353 217287 105517
354 749932 494370
355 782207 556160
356 526637 33102
357 798503 730636
358 502766 51410
359 136128 56252
360 790083 561852
361 816507 742154
362 520946 15872
363 389633 504940
364 158893 74650
365 440613 -15479
366 414681 56138
367 406492 33908
368 384747 69211
369 719950 244329
370 687012 515394
371 832882 745834
372 390093 473056
373 428919 405910
374 142681 23909
375 510854 37132
376 188513 -43787
377 905740 524380
378 743428 551257
379 710293 661428
380 754692 233171
381 767434 590095
382 216080 41028
383 775085 299304
384 560839 657203
385 172744 1883
386 672159 634796
387 356612 116003
388 121797 22999
389 520991 29055
390 171131 55976
391 893265 478191
392 336546 368029
393 468856 50251
394 429622 66579
395 740408 531496
396 471744 80759
397 193533 -25120
398 800743 741528
399 866233 540854
400 720606 291996
401 541572 69553
402 777934 275012
403 436517 20355
404 225693 131113
405 190169 47853
406 233154 158289
407 795805 791253
408 490952 76655
409 758867 454115
410 409553 12616
411 362618 373984
412 412813 20496
413 384519 447497
414 125594 11216
415 170512 103609
416 581420 671115
417 741607 549048
418 573068 659654
419 410370 479636
420 541588 670852
421 739518 608768
422 797146 805068
423 756045 279498
424 420784 51798
425 423060 10172
426 160827 105850
427 881621 507050
428 831204 496321
429 366865 407151
430 458801 83036
431 904717 480253
432 208342 -40085
433 863820 472248
434 860730 468955
435 593626 649391
436 803217 731185
437 400599 434691
438 759102 240571
439 257072 82573
440 335199 30875
441 529499 32429
442 507284 74238
443 148612 39951
444 156077 -2765
445 346479 370269
446 163813 8463
447 426426 467786
448 198268 171432
449 180350 43673
450 925936 442001
451 407712 483774
452 367943 137176
453 439863 25139
454 143633 8821
455 728330 622717
456 203088 3589
457 401888 450764
458 170299 22155
459 351557 90680
460 160519 109945
461 145706 82843
462 763768 517182
463 821725 497917
464 725235 655962
465 371026 71698
466 218439 37058
467 493279 50313
468 381567 436040
469 727493 477475
470 436509 36232
471 97754 30322
472 692371 652194
473 156531 66298
474 401652 50637
475 482518 30795
476 527469 659827
477 435969 79382
478 360180 426326
479 386398 475542
480 613306 623436
481 393855 167160
482 158359 29811
483 565528 657315
484 411204 466619
485 826611 731068
486 567573 706964
487 807609 736652
488 178010 86291
489 842213 759723
490 358150 383119
491 805191 777873
492 420240 45257
493 354818 89401
494 874174 513561
495 388693 358325
496 395576 421960
497 682768 683152
498 879276 513259
499 425112 459391
500 227960 90321
501 553036 658105
502 482004 63783
503 439876 413076
504 385014 20688
505 427392 444467
506 155836 8569
507 154415 68627
508 759319 566117
509 363489 412376
510 475089 7824
511 575040 626849
512 141896 23011
513 718479 659015
514 232026 123986
515 739099 659525
516 163197 97374
517 335116 81781
518 118713 71039
519 627206 665758
520 757661 263057
521 703659 643258
522 364327 369539
523 601021 700237
524 402154 158195
525 760214 256168
526 392070 91350
527 394932 354399
528 815924 506422
529 156790 6743
530 449964 76680
531 421829 475851
532 461928 12009
533 368042 398349
534 409898 118554
535 392783 126843
536 853057 505649
537 707260 602399
538 790171 166519
539 665078 685588
540 605537 677991
541 174523 24592
542 771281 753017
543 157205 116493
544 338526 358006
545 790511 755056
546 352522 386938
547 405900 30704
548 706394 467379
549 333311 460568
550 705433 526199
551 373109 461400
552 734124 479280
553 837893 774524
554 680455 534148
555 217924 163048
556 155239 69311
557 784469 753467
558 860106 519454
559 167642 46106
560 579202 650787
561 716797 518113
562 364205 424820
563 799642 739837
564 251931 114392
565 394354 453516
566 357778 396890
567 788588 729769
568 758471 183597
569 410494 71889
570 762819 748190
571 352203 59644
572 601394 677636
573 478409 55842
574 759686 239917
575 221935 119950
576 520752 703611
577 817140 774774
578 751719 204272
579 152243 61240
580 762021 793345
581 875372 492015
582 350581 67048
583 332769 92203
584 723213 236234
585 607382 702148
586 355235 391311
587 534049 30394
588 428270 75660
589 559555 653061
590 571887 634245
591 134322 89638
592 174842 -6046
593 181119 55320
594 761821 212377
595 734702 241134
596 126938 114581
597 183917 57215
598 205544 111432
599 379530 324382
600 419063 461184
601 747689 553489
602 349906 126019
603 378268 407432
604 860034 766426
605 768645 209593
606 499654 70607
607 132130 -6661
608 786781 267031
609 737878 544252
610 355175 91590
611 493538 7132
612 810390 753874
613 373039 350683
614 398233 33659
615 821834 734843
616 361644 41686
617 831733 759063
618 697610 646930
619 771801 245894
620 560435 661872
621 475676 39501
622 352665 492374
623 368545 404386
624 767956 249720
625 301444 87389
626 798900 745155
627 748644 510830
628 850443 488594
629 868189 431183
630 250817 161935
631 543747 687541
632 239726 80733
633 191666 20461
634 187149 37060
635 739599 257306
636 230019 178847
637 247093 97992
638 185257 19547
639 752957 266392
640 402447 409722
641 782401 536029
642 908042 423508
643 180708 94337
644 129394 55334
645 411643 356019
646 539140 705214
647 439152 48442
648 388367 443389
649 357495 371536
650 854747 468610
651 374184 501466
652 834721 779714
653 599513 664923
654 868838 538140
655 350920 339232
656 753002 657766
657 318296 346308
658 733064 639806
659 236431 141376
660 208785 54121
661 234615 135173
662 731910 551446
663 503644 64696
664 150301 102721
665 766097 257731
666 781807 565099
667 760400 549008
668 347189 93727
669 748907 652181
670 768699 210125
671 790341 281952
672 722469 253016
673 406244 398383
674 419435 74506
675 356325 328044
676 574251 718004
677 189350 51728
678 155095 88941
679 334234 107523
680 338889 191501
681 200980 128243
682 688035 508459
683 724057 651941
684 468394 22531
685 331629 79978
686 550865 677232
687 396134 -6559
688 359565 341025
689 394833 487971
690 732086 469004
691 545656 691832
692 582674 638294
693 389052 370676
694 187670 109724
695 552844 706475
696 519679 16878
697 906644 470359
698 729140 656467
699 476212 48632
700 622737 635197
701 412897 1577
702 164531 106354
703 237564 97516
704 377633 87042
705 164973 -9276
706 819301 774006
707 409289 84072
708 515840 22190
709 716228 667196
710 162599 9286
711 165854 95128
712 843145 736896
713 802628 742459
714 472314 80163
715 790372 230219
716 340550 402139
717 562805 684937
718 314965 375721
719 764989 564987
720 705657 494978
721 352723 357164
722 377518 444009
723 223827 71207
724 583428 733222
725 389044 466605
726 146893 29644
727 372800 128366
728 539283 22251
729 809776 742947
730 705267 557964
731 755904 709258
732 778778 255296
733 379431 88956
734 376257 396447
735 909919 494693
736 204492 143010
737 532138 52789
738 814284 774032
739 735852 216969
740 912961 470638
741 354527 369956
742 821018 750200
743 128217 46460
744 712177 552830
745 713853 251493
746 496154 30734
747 435442 53840
748 139816 35033
749 871410 452153
750 769108 514827
751 731451 212569
752 396017 471785
753 749949 519119
754 380796 417554
755 572341 688494
756 792394 762965
757 745200 213709
758 356730 494979
759 884026 512522
760 166272 18746
761 819734 733890
762 731223 248678
763 404057 27489
764 386903 141446
765 751788 216019
766 753824 269219
767 195495 73239
768 361679 379705
769 155638 36001
770 151357 60022
771 848953 462423
772 310298 148934
773 739415 630033
774 174072 109505
775 714681 489201
776 801862 758449
777 339535 407787
778 795066 246665
779 200623 47744
780 375608 133217
781 722964 232907
782 346491 400797
783 369407 345546
784 613709 690290
785 434060 54041
786 838462 779687
787 801736 768736
788 839380 750579
789 323674 88944
790 446062 78941
791 140721 38930
792 581133 670633
793 465737 16720
794 506691 38208
795 531764 56948
796 767329 253098
797 515090 43980
798 426248 33242
799 754636 561135
800 404534 92249
801 805660 795151
802 559185 639161
803 679583 640840
804 822556 500914
805 453654 4731
806 151682 36871
807 824470 754870
808 589907 691434
809 421097 95524
810 686204 657376
811 459591 57384
812 349019 107217
813 376393 379705
814 773242 254218
815 233520 123114
816 815132 754132
817 716731 466458
818 351314 371919
819 588558 689705
820 206105 135312
821 724839 569792
822 201650 91520
823 827930 743359
824 475584 5779
825 827298 764444
826 763812 665049
827 592383 669773
828 710100 686913
829 788514 747791
830 161005 17893
831 719469 518246
832 806648 744933
833 796015 773824
834 703547 498992
835 739644 543423
836 156138 70254
837 191598 27212
838 518872 98883
839 387402 346715
840 415025 22698
841 436236 508322
842 766775 552936
843 370700 294519
844 527781 73917
845 235137 144002
846 180366 39560
847 727300 508517
848 475364 52760
849 735359 671140
850 513866 20425
851 721912 608826
852 758546 525419
853 240026 143794
854 463246 3824
855 488032 88217
856 482262 28103
857 351318 64441
858 386777 392945
859 225125 41741
860 190929 1798
861 759395 268699
862 685411 556969
863 217274 86179
864 812308 808464
865 201629 124372
866 516032 45368
867 175247 109638
868 548214 627886
869 714916 668466
870 830149 767583
871 721838 533638
872 740754 507568
873 483412 26957
874 149865 56788
875 352679 397321
876 856319 451876
877 567658 656058
878 141865 -2700
879 491971 60817
880 416814 53416
881 731753 510343
882 847220 756959
883 402404 408378
884 456120 57980
885 555344 742418
886 224790 96000
887 573436 645411
888 176658 74356
889 710275 543358
890 684198 641722
891 838627 477039
892 368837 94304
893 482346 35658
894 855658 472112
895 416307 399041
896 323505 110936
897 835836 440404
898 196218 49281
899 216991 38839
900 324423 114403
901 131972 54545
902 441324 10748
903 188905 -17628
904 806847 253712
905 521711 32742
906 790630 764980
907 745662 231284
908 524006 55592
909 423540 415695
910 372077 91891
911 197579 92408
912 796831 781194
913 723309 217644
914 749805 682630
915 370768 418834
916 706413 237845
917 135150 66525
918 402480 466456
919 376690 374726
920 746412 227153
921 625675 669981
922 430523 19062
923 487587 75018
924 362255 391533
925 391243 441280
926 168126 73517
927 808986 815528
928 317039 370993
929 733465 634542
930 715310 515524
931 361391 391880
932 188586 145291
933 848364 487693
934 339215 28871
935 390138 30882
936 421042 54831
937 383543 369896
938 847534 504016
939 371878 391396
940 337420 118673
941 880235 476427
942 172111 45236
943 380902 408347
944 413736 412113
945 383029 348248
946 801187 785113
947 151053 -26986
948 383289 447945
949 190088 108716
950 174110 34147
951 363111 61678
952 851754 744603
953 143654 89648
954 357494 349895
955 796207 495231
956 610167 683762
957 744389 563464
958 688510 567485
959 359560 461633
960 163955 66825
961 350766 102565
962 457526 75827
963 710629 647585
964 852591 514383
965 777242 816402
966 600128 680016
967 432226 420483
968 216797 84341
969 182785 27008
970 729868 657448
971 791910 500830
972 778769 239659
973 865935 502666
974 830715 730480
975 156806 56790
976 564774 660425
977 196677 80513
978 378172 53374
979 348147 362839
980 343894 367028
981 704984 616409
982 352952 348607
983 783114 792944
984 413087 -3463
985 186061 147991
986 212384 130136
987 467100 62675
988 693178 531727
989 217863 4998
990 500008 45648
991 345307 388113
992 166592 29751
993 716177 545803
994 770327 535916
995 233128 100083
996 149333 68047
997 706108 653425
998 420806 75963
999 225710 158050
1000 359456 122774
1001 732503 560848
1002 740799 775783
1003 279770 70023
1004 782859 761584
1005 910754 425611
1006 273809 123424
1007 682800 548704
1008 710247 281782
1009 176383 107082
1010 380538 133169
1011 576788 654658
1012 426543 -1487
1013 136661 60190
1014 859599 494878
1015 468760 41423
1016 417641 65583
1017 760818 214658
1018 680595 640249
1019 868449 500158
1020 723070 580343
1021 499320 16707
1022 829575 753313
1023 480295 -32984
1024 355320 355024
1025 746365 549596
1026 725570 212372
1027 767437 778649
1028 786958 798204
1029 351671 372314
1030 724551 291203
1031 754156 272578
1032 745490 154085
1033 254196 138255
1034 233738 148534
1035 624889 667102
1036 250679 24326
1037 702980 618963
1038 357374 444213
1039 324533 346101
1040 404504 382331
1041 564086 660870
1042 384858 290846
1043 432924 62096
1044 403038 411765
1045 617778 685823
1046 228558 108901
1047 563371 680160
1048 304666 85728
1049 156089 136832
1050 787685 753234
1051 328848 126543
1052 215410 156385
1053 411747 55186
1054 818939 756840
1055 495650 28742
1056 232426 111690
1057 847092 509415
1058 248111 138198
1059 412043 -14589
1060 738445 473995
1061 746399 620207
1062 764873 244217
1063 700170 612475
1064 572102 647827
1065 395904 28546
1066 182105 96644
1067 361614 386555
1068 246359 113979
1069 165755 59936
1070 207026 -931
1071 601765 669200
1072 131476 36919
1073 745151 217153
1074 744636 217408
1075 774967 244358
1076 188767 123655
1077 741966 503746
1078 226904 101349
1079 290051 46016
1080 834638 776821
1081 367083 93448
1082 418739 75344
1083 740432 658319
1084 374282 58439
1085 771945 262603
1086 199196 20937
1087 329536 372128
1088 709419 552198
1089 173577 30716
1090 485334 42761
1091 342920 107335
1092 306350 106500
1093 897637 462258
1094 217650 146269
1095 203578 44452
1096 402584 409977
1097 782699 758924
1098 550312 26332
1099 228215 103494
1100 713069 541457
1101 795836 796164
1102 799375 261143
1103 490555 21949
1104 322860 74318
1105 892596 490299
1106 331609 453374
1107 791762 247421
1108 703166 518543
1109 384313 429666
1110 376777 451154
1111 709199 247632
1112 365303 383196
1113 574843 616188
1114 348665 371244
1115 713731 246056
1116 780096 785827
1117 398699 381442
1118 731467 512546
1119 489996 23540
1120 700516 629806
1121 807086 275350
1122 878786 506857
1123 317051 125608
1124 178410 93303
1125 361155 452261
1126 429938 14473
1127 384749 477569
1128 597720 699342
1129 548761 21509
1130 450809 37966
1131 209470 2255
1132 235587 79077
1133 902961 511715
1134 737896 678920
1135 357859 366293
1136 495454 71964
1137 361383 355073
1138 317027 90526
1139 317585 127350
1140 731526 646799
1141 843024 781501
1142 725211 655766
1143 391513 320554
1144 759884 509895
1145 239708 141389
1146 413848 37936
1147 455664 15006
1148 403818 66596
1149 865841 471224
1150 412599 31150
1151 441115 34197
1152 528052 9120
1153 390601 365429
1154 208078 126908
1155 353822 63688
1156 344017 475740
1157 769760 236295
1158 394221 62356
1159 893935 530190
1160 694890 665589
1161 775551 247836
1162 492039 104915
1163 469181 36490
1164 696938 510733
1165 371644 409815
1166 499864 58583
1167 160626 61179
1168 876856 459304
1169 482041 34281
1170 767222 480846
1171 502859 20850
1172 801426 741121
1173 898759 507795
1174 154123 77206
1175 346014 368153
1176 281979 152153
1177 392801 432870
1178 501950 42477
1179 402156 369515
1180 192762 72777
1181 145452 75136
1182 223593 128134
1183 401723 472993
1184 700093 663171
1185 396713 453772
1186 820792 767517
1187 176960 65376
1188 183829 58293
1189 211843 160129
1190 235359 108564
1191 386499 421725
1192 745490 620833
1193 739331 657854
1194 792461 248931
1195 901390 511016
1196 781938 190723
1197 722616 619740
1198 726314 531084
1199 141354 -153
1200 514980 18743
1201 225814 133791
1202 403688 58903
1203 594285 710245
1204 196151 77594
1205 491908 106781
1206 778092 205089
1207 605036 632819
1208 344385 362479
1209 762279 565538
1210 397371 475534
1211 774359 733751
1212 841952 493002
1213 154189 81890
1214 217668 149796
1215 679116 681262
1216 578193 671301
1217 873262 536084
1218 799624 261119
1219 447068 78595
1220 381195 351682
1221 137989 88476
1222 678108 665346
1223 172894 -4813
1224 406637 392356
1225 405864 43555
1226 378188 34809
1227 407726 467586
1228 803666 745710
1229 189018 90584
1230 385101 441461
1231 748266 483786
1232 231467 180969
1233 567153 692074
1234 215730 60254
1235 112963 22106
1236 513766 35474
1237 885558 751098
1238 240409 153721
1239 577394 726885
1240 696527 695575
1241 345649 382370
1242 156967 52663
1243 404603 398092
1244 137571 101952
1245 581891 689457
1246 502743 37529
1247 755672 292555
1248 568139 698257
1249 262183 121430
1250 730108 649018
1251 560520 658524
1252 244175 128041
1253 844729 494036
1254 592672 683565
1255 730893 257287
1256 186659 155231
1257 766774 223245
1258 412295 436071
1259 829816 761206
1260 879607 474390
1261 720736 526816
1262 740233 303634
1263 163747 53222
1264 464948 56152
1265 493199 36743
1266 361157 102161
1267 810194 249030
1268 794175 766681
1269 769397 251836
1270 746476 512974
1271 747494 516039
1272 578461 665201
1273 923931 514773
1274 389070 91107
1275 411018 25434
1276 743444 665772
1277 699045 530013
1278 587289 693525
1279 235830 102794
1280 374709 31973
1281 786359 529125
1282 341286 391071
1283 214097 110507
1284 759471 571366
1285 877342 521366
1286 683753 621058
1287 375671 345083
1288 357070 404614
1289 248218 102262
1290 519836 20308
1291 766558 533874
1292 767236 526526
1293 545382 715119
1294 230687 116738
1295 239295 89489
1296 870076 534437
1297 682618 529346
1298 509591 55897
1299 758187 539757
1300 805013 754973
1301 561860 686162
1302 270598 121979
1303 741005 523654
1304 165471 42685
1305 754967 497226
1306 353057 65346
1307 415572 378711
1308 484488 29021
1309 732730 657168
1310 821399 729949
1311 866280 722253
1312 808019 778623
1313 412372 54658
1314 332904 53287
1315 382012 93724
1316 398363 331447
1317 872875 496445
1318 361775 310738
1319 375860 429843
1320 178774 40261
1321 776727 787708
1322 370612 37439
1323 785146 776785
1324 515280 56633
1325 770138 536668
1326 159824 68606
1327 612930 695759
1328 166026 59268
1329 416412 47601
1330 232763 124427
1331 213231 10850
1332 482924 25767
1333 365209 47884
1334 350549 378656
1335 327411 50108
1336 469423 41060
1337 181241 38358
1338 529832 89703
1339 342623 375709
1340 382594 353301
1341 802845 799790
1342 394800 33289
1343 934714 457056
1344 212251 154056
1345 190808 83698
1346 718929 658085
1347 390698 84254
1348 355454 114580
1349 388925 458439
1350 733145 569163
1351 332241 127631
1352 571557 673587
1353 311634 106655
1354 754134 542772
1355 398810 386277
1356 436803 16280
1357 162644 91496
1358 149757 61567
1359 160907 83124
1360 388105 400166
1361 374840 48008
1362 374797 368167
1363 857784 483663
1364 401048 370496
1365 411841 24250
1366 338685 463900
1367 239307 125382
1368 401446 428878
1369 231126 82666
1370 429206 42856
1371 260853 45894
1372 162689 90648
1373 421236 465773
1374 465992 48067
1375 215636 27579
1376 739908 225151
1377 717613 614532
1378 734531 669485
1379 413314 449422
1380 348703 91950
1381 712438 528242
1382 572175 679163
1383 264690 167026
1384 189607 32027
1385 730759 496785
1386 409047 388212
1387 756075 667631
1388 199279 110527
1389 837257 780318
1390 444591 86258
1391 863287 455997
1392 174840 41709
1393 872121 747172
1394 392032 435505
1395 764419 540550
1396 699418 649273
1397 752436 509888
1398 235381 125647
1399 417839 40288
1400 848456 458373
