NAME : portcgen-700-701
COMMENT : portcgen N=700, seed=701
TYPE : TSP
DIMENSION : 700
EDGE_WEIGHT_TYPE : EUC_2D
NODE_COORD_SECTION
1 485261 862683
2 45107 731961
3 797764 87912
4 749430 148597
5 802870 105003
6 451246 845099
7 768168 194309
8 85047 695529
9 898185 495782
10 758234 695862
11 790126 566850
12 774379 145896
13 819441 525757
14 870737 540060
15 816781 189450
16 819063 520537
17 796559 619076
18 856359 466773
19 790064 463176
20 796794 548698
21 783605 481781
22 427721 816360
23 754438 99128
24 857619 552336
25 750576 569591
26 775759 606051
27 -20930 616114
28 733404 182880
29 845901 522199
30 860316 661404
31 802378 619357
32 839950 513495
33 489167 424170
34 360845 383884
35 332421 394338
36 400871 440412
37 788003 667848
38 780074 559544
39 767345 218513
40 797406 575105
41 772232 793552
42 761659 499909
43 446636 417874
44 774959 588145
45 688947 82579
46 796386 505388
47 807481 51544
48 488558 413563
49 462135 824374
50 445654 817882
51 442860 787700
52 442835 828680
53 336908 419352
54 818129 554152
55 428584 840053
56 761459 204693
57 819075 683764
58 827165 514212
59 34304 686602
60 811189 545695
61 826021 590576
62 463508 815522
63 792652 552206
64 824591 160557
65 858243 623208
66 441 647973
67 851628 124996
68 818153 95515
69 793356 518578
70 387946 792111
71 779896 687006
72 15886 687349
73 749157 75089
74 447171 435569
75 866881 521035
76 471392 828086
77 822157 638523
78 847360 584246
79 743758 488100
80 833466 700659
81 740363 535951
82 730265 611302
83 469013 478613
84 808200 656881
85 450902 383914
86 806130 624833
87 440320 486785
88 850539 430593
89 773314 509729
90 403845 810260
91 80695 670649
92 751286 140233
93 407845 367579
94 -4316 681693
95 782012 617840
96 787644 715667
97 786487 138138
98 407599 847433
99 412711 719680
100 443724 770496
101 820624 591876
102 423507 403987
103 334438 827510
104 817010 524701
105 790220 516676
106 364514 479469
107 778647 51307
108 779928 548323
109 779162 511524
110 -37824 671116
111 496874 745236
112 832086 568626
113 805523 617036
114 800626 494724
115 799629 489184
116 803913 701995
117 797341 745616
118 763365 510849
119 766588 576371
120 765367 199440
121 848146 564630
122 817368 571405
123 394725 507075
124 810622 570902
125 10524 681059
126 406419 760763
127 27959 666131
128 831389 156500
129 782122 678562
130 767165 549005
131 836559 179910
132 469372 448297
133 445266 821369
134 467049 440714
135 742390 140820
136 848997 556205
137 413497 423390
138 786735 593102
139 785418 700056
140 462483 370520
141 815292 657344
142 776440 690395
143 777557 216730
144 824706 581864
145 809467 135969
146 782175 537655
147 766594 66661
148 38434 659496
149 35843 656676
150 797540 683368
151 789027 662064
152 44263 653965
153 436315 468979
154 360313 479389
155 430083 830019
156 835470 509092
157 807520 188773
158 781625 677085
159 867668 643562
160 815676 577030
161 448558 778441
162 779254 553647
163 60009 608618
164 747963 575415
165 856006 750582
166 41445 667937
167 776019 596653
168 55238 669556
169 819537 695436
170 781333 617320
171 842688 105512
172 817113 67527
173 462926 814503
174 438832 434431
175 -26654 703444
176 444492 854140
177 811652 517905
178 761792 542402
179 778939 627985
180 813595 597002
181 418605 783008
182 450157 859615
183 790244 592035
184 486063 766409
185 803530 531817
186 833750 169285
187 435150 789062
188 442432 812288
189 419335 912798
190 366889 500708
191 750387 120054
192 815184 712311
193 758022 475281
194 781190 484981
195 795332 96796
196 485593 427923
197 809603 472162
198 813699 155676
199 773519 107210
200 798791 483098
201 823221 588777
202 445411 438302
203 466635 808141
204 825565 679418
205 -8304 594754
206 723662 606338
207 39449 701169
208 775113 598330
209 425745 852183
210 470871 376648
211 792265 525172
212 427636 797518
213 799781 464201
214 795670 193942
215 346392 799445
216 456688 856687
217 79422 739180
218 426121 398483
219 55593 600317
220 458314 836432
221 792574 504484
222 439979 791599
223 850948 729232
224 741829 598360
225 399695 452199
226 846068 525711
227 805876 523650
228 812170 482122
229 916974 558592
230 780453 600008
231 423846 844365
232 479933 815126
233 797100 559928
234 768419 597272
235 801487 664164
236 767349 601367
237 447928 447232
238 443977 818799
239 808282 196245
240 344382 506502
241 427325 801705
242 453721 376321
243 400093 394092
244 784674 455180
245 731257 613609
246 62632 697152
247 836792 79291
248 352662 452085
249 743246 676258
250 831267 754621
251 39558 633085
252 4660 674442
253 403143 387803
254 447765 788683
255 749256 160776
256 794640 560510
257 816676 569881
258 774879 468485
259 883695 714526
260 780121 767834
261 389725 391872
262 62806 662407
263 776982 602199
264 806880 428729
265 -18868 637680
266 841667 548851
267 813054 640782
268 795027 706606
269 801200 514613
270 54450 694975
271 445443 462369
272 831592 152228
273 822919 646191
274 798418 444008
275 415491 861655
276 379153 464206
277 796747 547424
278 851829 503354
279 789636 482991
280 393458 401766
281 870081 677920
282 885379 608274
283 775419 474406
284 -8101 655850
285 784521 489682
286 433620 837130
287 802181 558396
288 473447 777684
289 46076 654846
290 818123 463906
291 808060 98617
292 884881 691940
293 370674 407567
294 800947 723881
295 58957 647740
296 736221 551633
297 397432 392255
298 784570 479286
299 374574 452574
300 859487 515761
301 830305 523580
302 853827 616941
303 813781 527958
304 426528 438924
305 365545 409444
306 811532 641962
307 435411 493332
308 748474 84205
309 804139 540596
310 407366 437015
311 786164 145523
312 803996 472271
313 763845 122749
314 398894 801704
315 -33225 576673
316 387303 466469
317 821675 531533
318 756112 583442
319 797524 525265
320 43403 656688
321 781794 477506
322 51643 686714
323 -67210 630621
324 404483 405842
325 902030 126445
326 809075 463208
327 422374 835979
328 822855 163642
329 75502 665624
330 783197 539814
331 44462 668157
332 788634 520800
333 83192 618847
334 763038 528411
335 759970 712365
336 880549 479455
337 751236 461434
338 769095 437295
339 805715 494541
340 896470 574638
341 369889 479282
342 753546 531900
343 794897 700624
344 446030 404737
345 845974 496900
346 709153 485330
347 770676 121041
348 809039 514742
349 749784 712460
350 800923 599962
351 807219 527328
352 397802 842352
353 828220 750935
354 861901 467451
355 751531 728247
356 825703 537657
357 849417 538607
358 719133 166030
359 750057 181565
360 764278 645495
361 788408 152289
362 820600 534362
363 39216 624829
364 760239 160360
365 377796 407924
366 782169 684778
367 859322 499411
368 838797 628976
369 855540 765703
370 824578 62063
371 840375 537739
372 804857 434720
373 773121 624141
374 486149 902589
375 810960 508221
376 877470 518722
377 442719 470500
378 459282 446785
379 57061 680357
380 441808 467339
381 797812 114644
382 761986 135736
383 449861 393593
384 33189 605516
385 869750 507276
386 872209 574772
387 489019 798175
388 70224 665731
389 324677 410394
390 44042 677962
391 753367 74181
392 755254 522372
393 23467 629008
394 375497 399898
395 68006 625279
396 88887 619042
397 22601 724221
398 490549 784783
399 352561 385536
400 774391 464101
401 825078 574586
402 823051 690601
403 843306 514716
404 729774 132287
405 -4477 716342
406 759641 549995
407 824298 553232
408 450811 859828
409 799281 538218
410 407510 432811
411 827733 723934
412 788531 555979
413 55403 670936
414 812422 158589
415 864827 670757
416 94137 690246
417 759685 708779
418 850338 499321
419 343720 846775
420 398026 442781
421 817039 531067
422 761197 601187
423 438226 819452
424 464992 451611
425 804909 713040
426 701583 483206
427 833332 629053
428 66737 668981
429 31008 611223
430 852990 669854
431 794656 637285
432 798607 670557
433 420621 790335
434 800421 200546
435 29740 748403
436 795666 180263
437 470161 770668
438 424227 377965
439 67513 549495
440 29612 682565
441 38753 684428
442 772738 598220
443 760159 511909
444 769969 121101
445 367259 438743
446 805773 593780
447 815348 647857
448 741262 530532
449 469010 457709
450 863920 724738
451 395933 383221
452 394111 763721
453 755110 84369
454 753037 145139
455 831456 719861
456 451880 799881
457 437576 792626
458 821351 502044
459 435158 891098
460 811154 104665
461 819176 513703
462 755956 613997
463 437307 808713
464 835777 472803
465 836435 503525
466 49530 644251
467 440928 397262
468 458909 827086
469 859968 566562
470 417153 864191
471 452320 375190
472 84117 711519
473 55352 612550
474 769051 549703
475 401427 782758
476 808585 510820
477 397032 370069
478 735807 110386
479 28826 734251
480 471786 847802
481 27815 633070
482 383041 877078
483 822763 575777
484 826521 579885
485 444770 725580
486 808352 619245
487 486141 744284
488 770588 477023
489 437898 768014
490 71889 661821
491 452651 842208
492 844415 658863
493 730658 147553
494 797787 666578
495 -23403 679674
496 38539 686210
497 843727 536378
498 403703 408120
499 407307 456768
500 802624 535822
501 753356 571417
502 67294 679570
503 793757 122888
504 443353 438858
505 796422 543260
506 442733 799522
507 455898 831694
508 767318 560028
509 411953 803953
510 857866 700944
511 445794 424116
512 790140 134859
513 759915 538147
514 98443 610068
515 51799 702883
516 804339 745909
517 792459 559303
518 789016 125981
519 813344 575827
520 892441 708494
521 861796 498138
522 50822 588802
523 758107 136948
524 857481 111016
525 431465 826461
526 719913 528533
527 425569 417545
528 784368 143304
529 817144 102112
530 435206 360301
531 369787 508373
532 407824 482701
533 378189 427696
534 850942 661861
535 465395 422994
536 401772 785906
537 812261 653892
538 835651 685266
539 414221 770544
540 371838 444214
541 408982 759920
542 485824 800129
543 816767 440184
544 745971 543672
545 833429 508086
546 431097 759787
547 842202 161849
548 352097 781934
549 -1190 617493
550 766440 517399
551 519808 484809
552 844588 524407
553 830579 528927
554 382208 498642
555 32019 588040
556 21461 670472
557 386486 821291
558 826076 663086
559 437437 368787
560 60021 678202
561 480212 786791
562 394308 784970
563 426540 841044
564 765828 562371
565 856514 32685
566 793507 168449
567 794122 646172
568 788530 424377
569 814180 557806
570 857364 559571
571 830534 563469
572 688 681408
573 840341 611202
574 362120 874496
575 24332 656926
576 439691 418675
577 804304 570502
578 761399 651382
579 374009 783778
580 343599 397218
581 486676 817403
582 754755 660264
583 108049 662000
584 776579 573573
585 780373 660420
586 754750 503810
587 101146 698095
588 777558 513290
589 796619 652293
590 440126 845864
591 49733 646293
592 854001 596891
593 815613 769809
594 851069 126269
595 840683 658530
596 921509 537147
597 780208 607985
598 861141 501571
599 836806 621236
600 786170 137484
601 456699 796593
602 799010 149278
603 769531 582197
604 824186 585335
605 855460 488090
606 471626 756035
607 110506 669136
608 432646 350789
609 79134 624684
610 760167 501240
611 424253 934228
612 846715 689085
613 816810 464379
614 434283 328135
615 818349 74235
616 801729 137585
617 79952 681656
618 760685 172750
619 806983 573223
620 846760 499124
621 782547 116642
622 64956 687361
623 459472 472810
624 507001 844016
625 69728 686513
626 826534 688089
627 411587 800416
628 878083 739431
629 790438 651504
630 812855 521427
631 460316 879383
632 399147 458898
633 442630 375169
634 390857 334918
635 10591 686295
636 391034 416464
637 839850 682696
638 920601 99759
639 849839 687343
640 820844 77604
641 431658 793399
642 332671 510453
643 888157 552198
644 775866 531573
645 481312 782654
646 385633 461063
647 449454 826419
648 819796 542543
649 413919 827694
650 403856 450222
651 778427 126827
652 473675 915215
653 425916 813422
654 -26959 672213
655 809551 126034
656 416472 405646
657 816019 654418
658 738343 604953
659 -23876 664099
660 98841 706244
661 738049 524070
662 429659 875931
663 785037 529383
664 16127 620937
665 734819 568225
666 869160 682976
667 377305 773769
668 375943 780075
669 809336 482416
670 863007 493854
671 804245 624607
672 67041 650347
673 845889 578097
674 455271 785600
675 485920 885687
676 807186 635235
677 88533 669774
678 852600 556566
679 377820 400170
680 12628 650370
681 704675 500338
682 465795 806039
683 439974 864245
684 812014 714929
685 479160 831466
686 786112 684683
687 831728 120035
688 764382 544663
689 805916 482913
690 381775 797338
691 23475 676958
692 66919 728845
693 863926 514903
694 759821 153798
695 441552 374436
696 392767 832574
697 799757 525515
698 800029 542946
699 793914 465014
700 806515 598356
