NAME : portcgen-600-603
COMMENT : portcgen N=600, seed=603
TYPE : TSP
DIMENSION : 600
EDGE_WEIGHT_TYPE : EUC_2D
NODE_COORD_SECTION
1 505490 758418
2 698092 686990
3 733399 740500
4 657386 646133
5 600509 752697
6 567593 825800
7 606577 857410
8 654069 628569
9 101935 119439
10 590457 869308
11 690469 630635
12 142752 228949
13 110534 79188
14 86162 1042672
15 134840 203289
16 205654 153739
17 398505 793017
18 578198 803718
19 143712 116432
20 512290 879305
21 112985 1016861
22 495537 827860
23 66469 121839
24 47140 926439
25 538721 795542
26 129291 131628
27 560135 833512
28 127278 1037101
29 12563 201113
30 110843 983075
31 79816 123673
32 120125 143071
33 718896 713013
34 716783 637743
35 187376 126235
36 645919 717470
37 506030 828879
38 128106 954533
39 55904 927708
40 582763 799973
41 15436 979693
42 651867 767510
43 664858 770694
44 44826 980371
45 695099 736853
46 598123 730818
47 81166 997358
48 185317 206063
49 18323 177655
50 121314 175585
51 739184 699443
52 518345 785265
53 626880 717235
54 723447 695742
55 80928 1043318
56 17947 949280
57 500410 733487
58 207807 210390
59 83403 179691
60 524745 883615
61 81954 183992
62 571640 814804
63 145713 167455
64 523144 750624
65 536820 776906
66 461916 845083
67 438106 854447
68 123201 145061
69 43938 97584
70 52063 992599
71 580473 896647
72 101231 101865
73 687763 697326
74 542189 802034
75 20234 954585
76 53881 1017240
77 78003 142215
78 42419 964732
79 135937 109478
80 520513 782560
81 125261 149988
82 430524 825369
83 57784 169260
84 45872 956948
85 669166 730830
86 558663 672786
87 -24163 1055257
88 123732 138542
89 544758 795255
90 134244 191220
91 179274 189471
92 530624 785491
93 29179 194917
94 721597 780450
95 56427 1023932
96 181505 278044
97 494191 755510
98 66887 990836
99 490297 758710
100 73987 68041
101 49615 202474
102 585979 850095
103 604456 903138
104 61190 179275
105 711920 708511
106 224572 192663
107 631614 675513
108 612362 793283
109 450659 806758
110 80956 134923
111 116152 1003039
112 702798 802401
113 688250 686251
114 698944 788140
115 210109 179521
116 190540 197644
117 50789 164002
118 84480 175268
119 643289 768108
120 640083 677934
121 735050 750332
122 512988 723961
123 634373 753351
124 64595 185918
125 132482 123898
126 35981 117846
127 606522 765229
128 484684 862458
129 192219 109406
130 524714 810481
131 568117 766217
132 18636 1039114
133 529901 834640
134 97210 967077
135 676192 718980
136 175744 109801
137 719352 686348
138 479347 880963
139 92044 1070537
140 87566 62193
141 149535 87866
142 56691 77039
143 577648 753567
144 218030 134637
145 582298 712192
146 542710 803143
147 34474 984780
148 485015 790201
149 98357 1019200
150 504719 794721
151 694597 721806
152 620224 694863
153 84923 1027781
154 8173 156839
155 519582 855812
156 476463 728495
157 49666 119179
158 579132 843171
159 172749 163122
160 171804 260036
161 605843 700380
162 17734 896486
163 127851 184480
164 556062 850399
165 529607 836672
166 689718 734014
167 501874 847475
168 543158 837830
169 69090 907348
170 83515 149444
171 724120 694248
172 477464 847311
173 630412 725310
174 502766 829952
175 505437 844262
176 -8208 73493
177 531677 807926
178 763485 676014
179 550647 805637
180 138280 1039607
181 560736 816038
182 129842 1043146
183 207351 157567
184 625864 707654
185 88464 1038920
186 509318 795348
187 78231 950317
188 83331 957974
189 129075 972684
190 86932 60010
191 69134 100204
192 91750 993222
193 168465 72530
194 530839 767579
195 651106 750735
196 101208 132619
197 120709 128959
198 107835 968724
199 559226 829348
200 582797 793133
201 567932 827442
202 99700 131660
203 64328 140110
204 564498 780693
205 678374 764825
206 551688 704345
207 492602 808718
208 194774 143260
209 116835 39922
210 162188 149025
211 222892 207404
212 476362 868764
213 9217 158277
214 70253 169257
215 477400 777294
216 536640 758647
217 75220 84315
218 615171 686161
219 559195 815528
220 535124 886220
221 100650 135860
222 501436 777371
223 78483 156257
224 31293 128946
225 645433 733304
226 654016 768805
227 196819 156260
228 495195 806026
229 129455 1047592
230 152482 161325
231 147025 143387
232 688889 816825
233 63714 945704
234 634220 683474
235 491632 843661
236 495134 785161
237 187575 196562
238 106009 154692
239 705167 731397
240 85745 968885
241 496837 834083
242 202558 135294
243 596573 792114
244 63651 149000
245 83442 105500
246 76890 143533
247 634238 709223
248 126156 984995
249 78859 917541
250 458736 902204
251 491889 894930
252 561224 734049
253 694659 780288
254 20691 967159
255 653107 771626
256 496568 874270
257 92343 1017761
258 142122 145908
259 691040 782984
260 482285 843622
261 553890 772481
262 221927 207911
263 569102 797266
264 156354 169475
265 164905 94583
266 114770 116320
267 22238 136910
268 655988 774557
269 145262 138517
270 543238 796218
271 103318 985790
272 78054 123034
273 101591 111479
274 561032 796834
275 614396 683411
276 662893 688093
277 138335 167458
278 461112 787835
279 523161 855136
280 593804 683114
281 543496 800347
282 98358 902551
283 96385 955526
284 176416 132829
285 638700 741811
286 497923 787316
287 454031 820495
288 545609 808850
289 39663 65878
290 650864 692611
291 474659 830466
292 421509 811088
293 149722 169581
294 81130 92023
295 3722 990451
296 502922 832206
297 515012 856645
298 18821 123007
299 476843 851839
300 493226 852215
301 -9835 91101
302 746928 812014
303 672005 702137
304 530656 828722
305 72845 127703
306 647708 765526
307 548775 822692
308 75324 944111
309 529903 812528
310 111942 948173
311 692963 706921
312 28612 83080
313 76501 1005478
314 685215 732430
315 511657 829675
316 117928 989092
317 52244 968892
318 85576 143231
319 169022 200168
320 668213 734042
321 506914 788884
322 654020 696648
323 45177 161227
324 532890 869177
325 705121 716675
326 124797 148918
327 29236 999960
328 613664 749958
329 53451 98735
330 61039 205688
331 517638 857036
332 165141 170641
333 83853 1025053
334 142195 194574
335 537435 856083
336 117198 102248
337 138930 105973
338 490083 821725
339 473042 785373
340 80750 122184
341 586828 830180
342 212452 192255
343 134312 137288
344 48272 75000
345 196806 131681
346 131726 110735
347 92393 150721
348 124510 188744
349 644150 728935
350 39050 992562
351 539646 755084
352 493634 883073
353 453780 796075
354 674548 703435
355 550137 789140
356 623918 735321
357 11214 139835
358 146305 99390
359 82535 979818
360 198648 203448
361 638901 766953
362 176551 148063
363 -1289 1003073
364 510050 813704
365 158460 191081
366 616299 747354
367 640325 745905
368 695567 771318
369 118058 990332
370 94572 94344
371 580259 828238
372 166655 166740
373 41441 1041383
374 640954 653026
375 110654 939395
376 124437 225700
377 537609 856100
378 80083 976907
379 569161 844248
380 42949 1036233
381 470266 857950
382 39346 911838
383 536502 821603
384 82729 166049
385 67203 176167
386 90290 216174
387 76389 1036867
388 546992 763806
389 728628 760060
390 59396 970741
391 66290 1060008
392 83835 155745
393 622253 697125
394 559300 757208
395 60847 966294
396 83640 94984
397 503297 755670
398 514896 854327
399 84017 131970
400 518361 821485
401 135293 948221
402 549602 843919
403 414733 815941
404 96539 992034
405 573080 763387
406 526938 860260
407 186879 174995
408 546098 788147
409 490075 805135
410 684974 742886
411 72949 115165
412 45051 1010063
413 65099 1030705
414 431328 841573
415 133182 996441
416 647041 735113
417 169768 162366
418 74784 143078
419 125009 123310
420 123655 135655
421 516045 828440
422 518511 862745
423 555963 866646
424 691923 715322
425 610609 679645
426 594154 806671
427 52444 1017219
428 570054 776255
429 493872 863387
430 146331 185099
431 33807 923605
432 220069 242397
433 172745 127010
434 121889 196491
435 564188 823749
436 57441 1010446
437 133981 141874
438 575562 767211
439 601909 878852
440 35658 979908
441 95620 877139
442 56692 958462
443 613862 739987
444 514554 857240
445 674331 700083
446 104292 173212
447 697789 676029
448 565227 815496
449 149520 166544
450 712658 634773
451 428922 824431
452 538498 779955
453 699489 690648
454 450388 788742
455 692242 768996
456 112735 144631
457 99917 1067623
458 47497 961417
459 698979 745356
460 181784 253280
461 707476 645434
462 546441 838584
463 575450 768042
464 641692 722851
465 706328 767984
466 556215 833276
467 167028 203267
468 33058 156404
469 8105 79492
470 124221 923372
471 96669 998011
472 504809 876867
473 27752 963800
474 54911 198995
475 530644 811555
476 35357 997833
477 553109 802971
478 495303 853267
479 107578 175362
480 92479 936972
481 550929 816814
482 154407 112356
483 79918 160816
484 118808 995688
485 227474 240813
486 113716 974280
487 552896 751422
488 661632 744224
489 669578 654850
490 674838 712496
491 57563 183254
492 645909 732000
493 562816 827702
494 504067 864612
495 85343 938674
496 113808 979219
497 537577 763630
498 414520 860383
499 545523 848514
500 78685 908637
501 688885 721665
502 531478 855091
503 621051 797718
504 62672 957529
505 536279 813932
506 924 908377
507 583111 735435
508 563396 770651
509 671820 680959
510 618088 744036
511 231720 69933
512 80843 1016841
513 568457 791639
514 616671 742483
515 -25305 868120
516 439409 819639
517 655900 706352
518 100564 1008921
519 699796 718287
520 192296 183591
521 495019 876350
522 194387 124015
523 473688 875918
524 665133 700677
525 702279 716842
526 193529 193591
527 661278 685244
528 81621 936585
529 509415 782042
530 697736 721209
531 12644 139890
532 148280 134124
533 661955 721077
534 599099 747193
535 50957 88610
536 563314 864965
537 67557 199437
538 508875 822888
539 538217 865619
540 665270 781644
541 550356 824086
542 472811 737849
543 657314 750325
544 471534 840375
545 129590 183626
546 611968 777420
547 175548 84952
548 490382 832463
549 22820 104267
550 150129 118675
551 139260 82464
552 517998 840583
553 104978 169457
554 706630 715985
555 122825 126179
556 47461 1053504
557 126641 192269
558 693323 733264
559 439097 856525
560 149849 172708
561 648993 796959
562 563181 803284
563 526919 786707
564 145419 133698
565 499480 807691
566 485520 817920
567 721734 809347
568 107906 907959
569 24750 1010918
570 711966 745045
571 506536 833269
572 529200 793308
573 161919 176923
574 499505 874696
575 523852 834433
576 52081 987921
577 19406 961762
578 66102 140185
579 77949 171219
580 70189 83485
581 94819 985624
582 174723 143545
583 476536 732017
584 689472 665100
585 -28192 166635
586 682799 790541
587 64815 1010262
588 640427 725426
589 32808 139197
590 708510 803408
591 154081 976819
592 555025 781201
593 513247 846401
594 650287 627810
595 525685 784715
596 734363 719250
597 26624 107318
598 539811 821468
599 541651 871200
600 208036 107726
