NAME : portcgen-1100-1107
COMMENT : portcgen N=1100, seed=1107
TYPE : TSP
DIMENSION : 1100
EDGE_WEIGHT_TYPE : EUC_2D
NODE_COORD_SECTION
1 544112 533059
2 231690 180259
3 161280 805589
4 798470 734674
5 657197 722236
6 794776 776740
7 501779 349648
8 518581 123934
9 448003 263802
10 378913 384458
11 600521 685651
12 816995 763550
13 796643 830758
14 552891 197207
15 466661 321058
16 222561 772491
17 156689 811657
18 557460 129728
19 379624 395126
20 648391 717400
21 434279 278181
22 861438 743589
23 915904 931784
24 530940 546596
25 789043 851120
26 382303 400116
27 699025 704311
28 416904 422234
29 196133 178166
30 472702 241725
31 538168 156521
32 192567 171518
33 549750 577410
34 841120 757308
35 121155 795155
36 24252 193336
37 764662 881823
38 912877 924957
39 889318 928018
40 822340 766820
41 834277 799685
42 602931 130122
43 766894 850345
44 -15365 179922
45 925169 954949
46 545005 563975
47 184544 156326
48 716649 897171
49 825004 850421
50 742097 837807
51 139305 747943
52 674658 714186
53 54109 126734
54 780417 696808
55 624165 140895
56 566246 525912
57 551618 568942
58 541111 526680
59 750650 807793
60 542329 187679
61 166826 819613
62 851264 876494
63 209378 132952
64 575312 190168
65 559081 611043
66 447235 437424
67 541297 196712
68 131027 131668
69 791968 734149
70 543852 147151
71 165289 147291
72 343081 369898
73 432375 272030
74 490253 170819
75 127036 797075
76 31281 83918
77 508869 165236
78 771471 876884
79 -19878 130352
80 517803 160966
81 181385 210827
82 921724 959534
83 756346 816603
84 193390 835590
85 829422 761712
86 940763 951397
87 521827 553939
88 465190 293161
89 174371 840550
90 836880 780568
91 699523 768296
92 562862 123978
93 496133 270540
94 151374 173822
95 380408 377098
96 709255 756706
97 371006 358615
98 527115 212425
99 13600 105282
100 657772 699777
101 185769 767761
102 458029 345070
103 426212 442922
104 393327 413343
105 941093 874095
106 500468 120601
107 75839 92787
108 525297 96972
109 762525 848034
110 407151 409317
111 536359 550149
112 919963 951432
113 724870 838099
114 392292 409260
115 855322 808159
116 155411 755428
117 -12645 118652
118 491916 366548
119 907880 977876
120 141667 831658
121 448342 320523
122 562278 558446
123 46457 120054
124 24291 139064
125 529367 119439
126 379000 450531
127 538636 197930
128 573212 557070
129 224154 179905
130 749343 894471
131 801190 732204
132 64768 142902
133 469183 303539
134 138411 109357
135 822246 735219
136 144280 797528
137 555710 533105
138 549446 569283
139 596184 797598
140 15390 137772
141 859180 777752
142 955864 994547
143 513697 192329
144 170408 138145
145 806729 758809
146 546098 156314
147 834393 780966
148 787243 767733
149 381789 421721
150 900399 939858
151 218259 142400
152 192862 153892
153 140142 855529
154 -3398 135154
155 672174 711512
156 949027 898528
157 59522 154638
158 766852 874635
159 243465 160523
160 -12407 115408
161 584872 556861
162 825031 829673
163 487065 284874
164 217943 147608
165 534525 163115
166 790921 844155
167 569303 108652
168 956962 1020324
169 225194 154137
170 497661 283576
171 620039 535563
172 391521 468721
173 508375 184569
174 673392 694155
175 518548 263301
176 658327 725197
177 650403 680096
178 678379 735088
179 698935 688602
180 806227 855292
181 779323 883633
182 463402 324553
183 -12061 149826
184 619929 725296
185 863649 929488
186 480689 309751
187 147213 829734
188 584299 66414
189 822877 850876
190 506417 117148
191 400266 415408
192 404343 442851
193 491608 316729
194 10825 157403
195 504256 126583
196 171820 126915
197 -12988 132422
198 436298 304207
199 804974 836509
200 543862 101313
201 32212 166090
202 944237 950760
203 584662 595368
204 388646 438622
205 631358 742470
206 134475 142697
207 182330 789228
208 544573 565786
209 391757 304506
210 556894 547399
211 138734 785028
212 397016 409921
213 205382 173924
214 563718 114126
215 738652 697496
216 812541 801845
217 183601 806056
218 663658 769842
219 502539 147735
220 618887 158680
221 466019 117056
222 397439 422321
223 459998 340588
224 940192 932120
225 635788 682630
226 684099 709224
227 148500 809592
228 668866 694491
229 537037 161555
230 10115 117635
231 519573 570870
232 -18400 146542
233 968722 884092
234 441875 357122
235 515052 624910
236 907967 1006094
237 212989 128263
238 197705 111723
239 786451 793615
240 570127 581288
241 712516 703143
242 397003 442726
243 849051 805211
244 947433 970554
245 191947 137756
246 512987 159786
247 459418 266468
248 787400 850549
249 676764 732703
250 800846 912979
251 842116 803577
252 227875 125672
253 576582 177377
254 628232 732840
255 383551 453528
256 480766 301798
257 162431 89679
258 688495 704080
259 443258 403432
260 751261 837366
261 463696 556946
262 679189 732575
263 767635 847430
264 670702 723106
265 764289 823897
266 787522 861815
267 798641 791291
268 773310 847602
269 224022 170673
270 790123 730593
271 961916 939054
272 637913 723774
273 900934 992080
274 546481 539660
275 442550 313158
276 135366 156114
277 977791 927161
278 914805 910343
279 360906 409279
280 830939 786128
281 50806 92176
282 771379 714470
283 -9733 153316
284 186090 812215
285 615886 826141
286 -2148 97302
287 54332 148637
288 756249 715746
289 184442 770266
290 434007 304300
291 954837 957218
292 757420 852569
293 798615 851026
294 739119 889771
295 516182 535041
296 808400 807790
297 774909 902320
298 763314 831449
299 192327 801846
300 815835 857909
301 156845 147396
302 821984 758158
303 794486 838118
304 158957 762119
305 611071 130403
306 656635 759748
307 500308 118365
308 562240 587107
309 934248 934386
310 793243 744634
311 123284 775957
312 925001 959671
313 795343 911800
314 179220 790876
315 -868 101969
316 396668 413180
317 -1535 171124
318 822765 813989
319 122473 812930
320 155196 810056
321 407210 443788
322 675765 711869
323 737520 879237
324 808201 765683
325 368477 469696
326 73110 141430
327 459199 323728
328 787004 849600
329 939396 959901
330 798456 874826
331 968748 968228
332 514011 136028
333 195568 118628
334 511528 150760
335 12397 154955
336 822291 822393
337 596793 496566
338 803759 815242
339 153262 189833
340 667541 715790
341 923138 895528
342 459780 355418
343 546425 168593
344 196133 161985
345 481806 317970
346 378913 372975
347 797443 831558
348 126529 793667
349 748450 857258
350 -12391 169305
351 921053 909258
352 457244 236376
353 715925 887647
354 235259 140032
355 686670 733395
356 667436 735204
357 493988 135318
358 563818 561253
359 390361 422255
360 795287 755190
361 701768 786536
362 918185 934284
363 792558 787919
364 548330 550409
365 505448 111575
366 895343 935922
367 590450 514575
368 508291 137925
369 150020 766312
370 822076 800398
371 826266 741823
372 842231 760966
373 574847 565698
374 764153 841332
375 771272 860366
376 582237 556061
377 902696 942502
378 767597 874364
379 786663 767986
380 834390 727621
381 405518 423540
382 543877 559113
383 710778 696373
384 189815 776531
385 138010 795572
386 665852 674195
387 437887 307591
388 572949 583885
389 743623 728981
390 136948 803183
391 348916 389686
392 589488 580482
393 540479 308744
394 516116 559057
395 836658 775804
396 779509 787810
397 808307 763186
398 208714 786984
399 917291 947590
400 646533 731262
401 151296 780778
402 820646 772142
403 716622 746744
404 958826 909795
405 179885 804239
406 25083 192770
407 601719 583426
408 190308 138444
409 697814 734180
410 495439 308734
411 372062 454756
412 526999 100556
413 498167 153071
414 -679 102950
415 475597 129408
416 44785 161809
417 861587 716168
418 528720 561715
419 51886 157313
420 640570 716169
421 803199 827431
422 13849 153297
423 551810 137912
424 209106 762969
425 522924 610254
426 144560 838451
427 159684 865499
428 704417 764610
429 756121 919261
430 506910 288333
431 440683 364413
432 485170 277401
433 227817 96620
434 540191 135455
435 25248 115491
436 865134 758449
437 481158 259072
438 932452 918803
439 525556 137248
440 616714 605231
441 688362 744353
442 496037 319792
443 554084 173006
444 954572 1012394
445 557493 531294
446 171629 221237
447 815473 784805
448 17949 117076
449 934639 923969
450 128149 147282
451 14595 186811
452 434694 302742
453 523879 548032
454 198790 202198
455 592396 582696
456 461910 392185
457 186537 136057
458 778304 746273
459 115063 819998
460 820119 732455
461 774750 877736
462 165405 154280
463 336678 388711
464 543557 560794
465 14356 112659
466 416774 408603
467 31719 153943
468 403020 428835
469 -12850 155287
470 463525 268830
471 476479 303446
472 605532 546749
473 130790 789105
474 -34195 89986
475 453606 245819
476 14682 165345
477 658425 728067
478 379898 417409
479 182100 805115
480 -5933 113113
481 937316 895081
482 552793 552501
483 728668 867382
484 901844 928663
485 969238 980779
486 663753 700002
487 517553 96531
488 421733 255260
489 666367 684864
490 233597 121192
491 693366 747783
492 591497 545907
493 795819 814184
494 782757 882801
495 699802 693446
496 571999 530176
497 420750 420318
498 137696 173288
499 742956 875751
500 666786 693787
501 740022 853694
502 363901 382403
503 463093 289719
504 -5585 183486
505 198193 809795
506 598506 551478
507 15835 159376
508 229333 150541
509 554761 497464
510 484684 102410
511 182199 815666
512 691296 691536
513 701250 724495
514 658192 733809
515 377957 420586
516 137734 175099
517 140260 796961
518 -16849 178504
519 763701 874269
520 537906 554235
521 444481 254784
522 365180 404880
523 161844 178528
524 264495 182890
525 835222 767016
526 198339 787187
527 451728 307487
528 489680 290393
529 925528 949295
530 813101 838469
531 797897 741671
532 552085 528675
533 648421 703819
534 128683 813802
535 173480 162374
536 945963 961733
537 7302 135876
538 544676 172566
539 884982 909041
540 847774 823287
541 160147 789004
542 803348 775076
543 159035 830684
544 479229 277297
545 31292 168862
546 532838 558329
547 382283 427560
548 803067 781399
549 625584 719179
550 785129 735229
551 833620 711403
552 743278 825981
553 391321 441129
554 811082 823987
555 27991 146624
556 971173 964930
557 759534 846206
558 874638 930770
559 767519 855668
560 715820 865693
561 908606 918547
562 539840 539523
563 532637 140322
564 195104 153373
565 408027 398743
566 764733 878621
567 214093 137302
568 942512 978167
569 910838 947646
570 494755 298849
571 119414 824285
572 -43837 135125
573 478713 550627
574 922110 932458
575 174871 99481
576 487814 346278
577 235221 134726
578 663084 750461
579 576361 629049
580 532057 580377
581 9034 138247
582 620381 725674
583 756831 794546
584 597854 781070
585 405046 384806
586 43933 151825
587 654051 745193
588 533719 562166
589 673200 682999
590 762354 889837
591 773374 852022
592 935779 951876
593 574511 540692
594 171036 147728
595 872428 766777
596 450424 262514
597 494684 251644
598 668539 677725
599 534174 532937
600 852865 808879
601 644346 670166
602 474508 268961
603 459610 311894
604 489178 329488
605 657480 685196
606 152016 830683
607 794643 701039
608 499553 304600
609 788598 753611
610 523994 135217
611 583554 598700
612 181884 824582
613 554903 129287
614 129146 813676
615 118793 733310
616 901668 905927
617 40093 135558
618 760845 889609
619 156597 809339
620 814650 707212
621 920553 991752
622 538505 511131
623 517618 262405
624 578760 159753
625 441860 335912
626 682062 668396
627 806918 762150
628 29639 204885
629 387932 433004
630 810937 775698
631 927644 898694
632 706739 871546
633 913637 938225
634 548737 513124
635 513400 134944
636 890423 987097
637 809158 762376
638 489509 299905
639 768414 741908
640 30337 128758
641 391953 378186
642 129181 809476
643 385768 458651
644 441513 249151
645 510550 333390
646 568743 555764
647 155401 836648
648 457952 307928
649 496077 292943
650 665702 737497
651 934807 924998
652 922864 918733
653 529083 146959
654 119191 816141
655 186540 774908
656 924167 943074
657 774316 763211
658 632097 696839
659 623631 689578
660 766066 867686
661 172840 811670
662 842692 707748
663 483315 146893
664 145160 798091
665 -988 151266
666 532090 148761
667 382947 424550
668 137578 780491
669 672827 724715
670 19426 168138
671 479159 282499
672 458647 331201
673 514469 139711
674 897917 901478
675 42031 155516
676 604749 724250
677 777747 849016
678 818527 826853
679 452736 325223
680 652926 747734
681 946435 922515
682 770906 870798
683 753502 864878
684 673484 705185
685 793106 795735
686 -3300 114693
687 152323 794263
688 910642 905166
689 697620 761351
690 660947 747676
691 773107 784259
692 32660 117909
693 639368 702351
694 576852 118678
695 575031 625464
696 559035 557549
697 351285 411616
698 612134 752827
699 661235 705923
700 164749 798548
701 981960 934960
702 463621 331510
703 175361 164895
704 564229 614342
705 167343 155324
706 754865 768792
707 630671 697037
708 761207 808399
709 225388 169290
710 453388 323804
711 915466 950769
712 165774 142287
713 227133 176585
714 935380 926820
715 584265 594004
716 832620 779582
717 -20219 108589
718 425832 321276
719 662578 737607
720 557528 603011
721 365373 418641
722 725074 864832
723 -18171 129912
724 153540 850945
725 143997 165581
726 791598 827740
727 831391 751364
728 414628 415588
729 613212 567602
730 450381 300137
731 173939 190182
732 535317 123984
733 -20913 75557
734 231274 211002
735 577355 549267
736 754651 885967
737 935976 953007
738 529570 173127
739 776454 749768
740 461434 303737
741 598700 145480
742 2838 124845
743 439626 258861
744 957011 894952
745 227397 149274
746 668369 758943
747 535385 136340
748 842667 832118
749 632654 731206
750 167045 827600
751 528481 585346
752 468220 308331
753 626189 698358
754 528094 136587
755 530056 567707
756 381316 396317
757 177487 118230
758 571246 521049
759 856286 756127
760 193491 772520
761 620633 751096
762 586997 136083
763 526011 534327
764 803613 800766
765 924972 984896
766 186641 173061
767 184928 130458
768 366379 381956
769 499824 147051
770 184719 785743
771 913857 938289
772 908281 975725
773 174631 136048
774 30746 103823
775 821012 810937
776 659012 660285
777 170975 767605
778 801054 801870
779 684918 671296
780 629231 721547
781 440101 276851
782 538162 159941
783 130427 821932
784 461555 322423
785 -5101 194459
786 585356 600838
787 806699 890193
788 578123 576113
789 591705 173698
790 813697 838479
791 694137 718502
792 554243 182885
793 553209 585204
794 152249 815838
795 573831 164845
796 34298 115609
797 492189 319105
798 416319 444200
799 860775 736303
800 555001 139183
801 783226 829228
802 -2108 175482
803 952615 963523
804 176323 165233
805 516045 141436
806 763119 863468
807 376092 451987
808 729634 861189
809 573140 122012
810 670494 748850
811 534030 86223
812 479842 281980
813 166237 806612
814 671478 724200
815 773266 823309
816 -7320 80252
817 11388 54548
818 566012 586980
819 759166 852143
820 813183 803511
821 676036 701466
822 143502 766406
823 600846 549448
824 778435 791724
825 396665 408871
826 824407 862881
827 760461 886615
828 212848 752759
829 975345 944834
830 901645 885467
831 143268 161123
832 954811 921488
833 190328 125852
834 523783 592759
835 804430 791281
836 710758 734694
837 357420 439422
838 680731 711347
839 595454 561953
840 154340 825078
841 800370 777888
842 803146 803291
843 -30391 195710
844 465242 278594
845 977179 937764
846 905102 886685
847 496420 293811
848 806736 794063
849 668953 744737
850 574073 534200
851 -9783 108419
852 448568 384936
853 209060 160538
854 207686 114636
855 6051 141072
856 524810 175421
857 917613 955393
858 66266 167377
859 550693 128448
860 651755 762661
861 186157 145074
862 128370 109982
863 519609 155908
864 748190 853711
865 -14839 150375
866 174971 164964
867 504300 295343
868 141398 169058
869 653402 761185
870 719552 860152
871 159862 818308
872 914402 920862
873 550635 574639
874 521450 178598
875 8399 141150
876 134533 803995
877 232275 147684
878 218607 162885
879 821387 883033
880 668082 704324
881 368466 405598
882 508972 294708
883 852784 970937
884 189661 139236
885 803286 825788
886 636231 708014
887 399838 385632
888 583461 596063
889 785016 820926
890 551665 578744
891 200812 190065
892 404012 390404
893 610156 715670
894 793288 864815
895 750059 831662
896 383628 419101
897 -15852 131351
898 554965 582427
899 128102 795676
900 518415 282474
901 395664 262204
902 951985 959979
903 555788 86649
904 526119 289346
905 514669 562498
906 846373 711491
907 917689 914338
908 214842 182740
909 536294 112102
910 493543 193952
911 -10806 143221
912 -13199 155549
913 452080 314581
914 540575 549824
915 480550 297946
916 561501 534822
917 128370 766948
918 809443 776915
919 645710 704263
920 183191 157197
921 650317 702582
922 155067 825851
923 943421 989927
924 454735 308864
925 193434 784690
926 917152 979200
927 813544 757405
928 560828 579201
929 196234 782854
930 455557 314790
931 381806 385630
932 596975 604016
933 387678 478101
934 682294 675437
935 849490 750975
936 161140 749065
937 108360 147330
938 752032 844819
939 370440 380897
940 171411 793811
941 567402 130349
942 652244 684811
943 406958 450302
944 990735 945612
945 34214 168036
946 168717 132345
947 871809 946441
948 160368 819313
949 147272 758670
950 827006 737617
951 516912 299056
952 543558 515574
953 898683 964139
954 84558 788117
955 822116 780461
956 520869 560740
957 523064 318992
958 221711 118842
959 539979 329603
960 593295 139709
961 966282 917585
962 615722 700278
963 657441 688247
964 182862 174642
965 946205 940191
966 832560 836280
967 575742 560132
968 550456 151726
969 761861 860594
970 127867 142441
971 164283 800431
972 700501 750324
973 559678 181731
974 504074 562561
975 191955 811980
976 440683 300718
977 -28289 153404
978 116884 749909
979 674660 728860
980 477360 292143
981 181310 124364
982 174298 188482
983 171928 826992
984 676118 744294
985 395525 361247
986 956858 922566
987 648238 712482
988 900488 783416
989 966643 912634
990 750052 841461
991 919819 927812
992 909627 958084
993 821680 731801
994 519010 85844
995 -811 118367
996 905689 946142
997 651137 725484
998 705569 735093
999 208354 101525
1000 782743 822318
1001 511419 168320
1002 385801 397039
1003 800094 765736
1004 516018 161191
1005 646450 740954
1006 521685 305288
1007 771614 875285
1008 13903 171547
1009 177900 163142
1010 919871 916277
1011 432650 431250
1012 729367 814183
1013 189625 150066
1014 147334 822376
1015 678621 770760
1016 176916 207738
1017 -11639 78056
1018 377724 419172
1019 227858 154183
1020 701476 694720
1021 218401 145261
1022 144644 818204
1023 110165 835003
1024 481382 312758
1025 477006 296253
1026 212373 166971
1027 690090 826475
1028 654753 748361
1029 238436 165771
1030 992410 980579
1031 754690 827129
1032 709632 823182
1033 535641 589040
1034 145004 784300
1035 379817 427516
1036 433278 271283
1037 474990 362160
1038 196521 185276
1039 241507 166223
1040 737123 821880
1041 472230 145078
1042 6632 148478
1043 524848 557159
1044 145710 755931
1045 -11703 142411
1046 785595 771867
1047 384597 414999
1048 393172 459707
1049 590151 577060
1050 177172 161109
1051 566444 528758
1052 227520 166409
1053 511606 193345
1054 637214 741958
1055 460370 363599
1056 902082 963665
1057 25824 155859
1058 514709 78289
1059 587217 179778
1060 585360 622910
1061 832695 750285
1062 216198 163972
1063 780722 856739
1064 549154 144923
1065 594239 577168
1066 18152 182915
1067 -40494 149927
1068 557636 625469
1069 139893 803132
1070 -7055 143698
1071 501186 142346
1072 379997 415006
1073 608610 732633
1074 527587 157843
1075 793274 890890
1076 89634 177290
1077 846373 741563
1078 858628 792682
1079 549746 174441
1080 364960 433356
1081 383866 396570
1082 171922 813833
1083 167323 817368
1084 907545 935726
1085 138236 93381
1086 116386 843279
1087 30028 158290
1088 506610 268340
1089 49430 188846
1090 549718 111298
1091 504976 590931
1092 506077 106999
1093 450558 265405
1094 941868 937103
1095 475739 288137
1096 580404 106935
1097 766371 883832
1098 796450 810065
1099 194992 118459
1100 731611 921903
