NAME : portcgen-400-406
COMMENT : portcgen N=400, seed=406
TYPE : TSP
DIMENSION : 400
EDGE_WEIGHT_TYPE : EUC_2D
NODE_COORD_SECTION
1 1106462 271278
2 206697 340975
3 951756 272822
4 424596 815648
5 354736 799557
6 337003 708315
7 979636 277551
8 79780 279470
9 114676 276815
10 348505 404794
11 372955 319375
12 1043613 215204
13 361506 298510
14 1037469 286666
15 396470 240785
16 76946 313274
17 268506 313309
18 17289 209464
19 318148 826467
20 1019470 277813
21 362585 323933
22 298649 242229
23 328481 851124
24 84259 321549
25 351203 799162
26 261947 298378
27 430516 301251
28 274330 306229
29 396800 399550
30 971537 352417
31 363659 340834
32 118568 307188
33 319371 834120
34 315955 876595
35 1020247 295110
36 275332 371791
37 402057 317438
38 357041 310201
39 1089899 279226
40 188919 346119
41 287079 778374
42 917915 323920
43 454757 328791
44 1052534 305147
45 102462 308278
46 422795 333288
47 407721 259136
48 994212 287238
49 976839 399005
50 370910 294847
51 241249 830185
52 987237 365027
53 411073 352007
54 356567 880649
55 108425 250407
56 422206 313888
57 1007205 331964
58 350390 817857
59 411734 323393
60 372327 281769
61 903168 285931
62 374641 802868
63 471733 321892
64 156414 381039
65 995993 266952
66 914924 320091
67 138508 224535
68 266181 784582
69 355666 368464
70 345612 323048
71 1070144 181977
72 960253 269748
73 284580 861272
74 936625 289421
75 341208 803989
76 953758 262813
77 382517 310189
78 298439 261807
79 521000 808099
80 388956 303288
81 49799 259621
82 45196 323604
83 1042144 308031
84 76250 227819
85 421098 375275
86 48192 261716
87 354406 831281
88 359251 359975
89 312084 863272
90 992863 268954
91 312202 820489
92 10710 288425
93 373936 854012
94 46632 254091
95 85209 298894
96 276887 320401
97 341533 799041
98 367355 779154
99 312681 783478
100 367049 779448
101 910049 246372
102 42922 339645
103 332453 342865
104 307284 777981
105 1013571 305842
106 992732 239412
107 52192 380969
108 348689 718118
109 346517 288587
110 358887 820980
111 133887 267952
112 422922 274834
113 10503 371428
114 143700 337905
115 315802 774555
116 264001 320614
117 1050862 290438
118 409078 302618
119 420723 804328
120 1039696 315973
121 78531 285244
122 364028 822958
123 347558 810615
124 978462 225629
125 263078 801900
126 315683 285083
127 1081825 299033
128 1033576 224735
129 1102755 380648
130 112274 341130
131 274568 303317
132 382417 299786
133 76695 231431
134 294629 391660
135 36050 283151
136 297759 812455
137 280130 292167
138 372545 272882
139 404039 267605
140 383082 338240
141 1094904 247763
142 270589 882525
143 387154 759877
144 1043315 276180
145 99920 313111
146 136869 269622
147 92687 277551
148 1031382 298409
149 321852 859986
150 957593 363434
151 985558 330369
152 276277 875907
153 139251 277006
154 1007238 310282
155 389643 373826
156 408367 345135
157 66517 270814
158 322290 303042
159 392389 933773
160 175705 333223
161 58271 206179
162 343893 774248
163 265836 810074
164 424061 319412
165 1025796 361787
166 353141 851691
167 309413 349653
168 377955 921119
169 284431 849389
170 320049 725874
171 333072 805696
172 355356 244333
173 348571 354392
174 347064 773936
175 354175 333761
176 146408 237245
177 245235 871438
178 358081 810533
179 340567 362094
180 363122 252256
181 346322 914064
182 305847 754723
183 430262 365600
184 286290 794659
185 1085445 322079
186 908690 244525
187 339774 240418
188 106047 232619
189 143961 342418
190 163081 278720
191 348452 289211
192 429798 305322
193 136515 216678
194 356093 338204
195 1022764 351075
196 83432 327176
197 406511 889569
198 264050 817744
199 364345 338388
200 251614 870760
201 278391 831008
202 395617 363955
203 941768 316361
204 119051 406325
205 282596 367264
206 966761 301329
207 278846 826475
208 59645 283110
209 362529 349809
210 162692 291155
211 949854 210621
212 334812 336651
213 282862 325501
214 299184 327119
215 391681 355988
216 325728 301853
217 139053 308545
218 328447 279044
219 155091 307362
220 1046542 353240
221 1004731 292635
222 131541 382465
223 82901 321390
224 358755 786413
225 360231 793550
226 1070046 322926
227 934223 273847
228 203616 825652
229 403403 294008
230 84797 295857
231 102315 347035
232 385562 264129
233 73764 312788
234 963422 339240
235 1041304 321932
236 1026181 318836
237 299979 353689
238 263503 778378
239 359542 315794
240 106581 284169
241 13829 366569
242 925584 234043
243 450418 195322
244 419295 269516
245 929826 363918
246 181420 224492
247 898034 238816
248 253041 338059
249 240736 295330
250 362152 863324
251 391709 285551
252 379587 854388
253 92362 245068
254 1010487 219844
255 362433 797800
256 324459 844498
257 1007177 230559
258 976236 268839
259 311282 930225
260 321321 297149
261 135974 289288
262 69622 269363
263 358353 210788
264 281621 745964
265 258047 325351
266 357866 811300
267 352654 417113
268 377713 279550
269 319228 370239
270 341204 368222
271 1035720 221150
272 76713 238066
273 290779 361724
274 941978 318119
275 395064 290178
276 72191 297040
277 1005648 302785
278 400525 402734
279 127820 304924
280 289356 825022
281 342029 895590
282 372532 311870
283 345139 670622
284 141258 261362
285 71686 316330
286 1010940 274654
287 340480 313317
288 323566 263261
289 361132 354714
290 456870 392723
291 120864 273329
292 375962 329422
293 379033 232191
294 406913 430953
295 329196 957807
296 988279 357235
297 253322 242013
298 983491 332979
299 392304 304468
300 72103 293054
301 319882 839780
302 1049753 358706
303 390698 299766
304 78220 149634
305 36992 318859
306 108829 260022
307 343624 846848
308 64712 287702
309 268009 906166
310 365467 328001
311 297058 833945
312 923766 284790
313 288268 751745
314 888219 241661
315 1013372 320935
316 988664 238828
317 219331 256009
318 401419 821942
319 82575 255445
320 939114 288872
321 342947 800437
322 78347 230034
323 382362 337900
324 161155 414430
325 946293 286011
326 133042 293360
327 995348 314564
328 336851 826078
329 339151 367995
330 163949 305191
331 336354 369055
332 325196 755349
333 251064 342218
334 1116600 223180
335 146150 249394
336 355398 875303
337 -52048 266517
338 314595 383066
339 383726 411186
340 1035770 362804
341 935706 310672
342 314861 293764
343 291278 847113
344 142701 295071
345 374920 837250
346 94960 274046
347 958304 283060
348 133077 276227
349 102473 314821
350 170453 251857
351 1051683 349182
352 270454 293035
353 142766 294114
354 123707 293734
355 466559 775507
356 974559 203874
357 79427 412495
358 1017397 297845
359 369735 239419
360 1037865 222520
361 61021 274978
362 324188 800528
363 909680 324485
364 347264 313211
365 1066748 266200
366 319201 778230
367 132201 189218
368 977855 332492
369 267098 777150
370 345744 318127
371 140380 203537
372 352665 323296
373 129201 334879
374 61899 287413
375 288211 236108
376 47191 263055
377 322756 858436
378 83850 305534
379 1033643 329850
380 988661 310213
381 273773 816183
382 25208 359190
383 317729 828197
384 355034 835808
385 1004161 290042
386 419494 347971
387 446876 251503
388 388925 243727
389 1059028 288005
390 85206 314603
391 1010396 289090
392 154501 231014
393 1098237 247693
394 981269 270064
395 90928 283923
396 411601 881847
397 355906 288132
398 330982 750558
399 349898 783407
400 127925 192780
