NAME : portcgen-200-210
COMMENT : portcgen N=200, seed=210
TYPE : TSP
DIMENSION : 200
EDGE_WEIGHT_TYPE : EUC_2D
NODE_COORD_SECTION
1 794824 678931
2 781874 760446
3 305032 199696
4 317618 238542
5 192413 89996
6 203565 209508
7 199337 151336
8 204852 -9969
9 259971 175638
10 761229 564423
11 202629 152550
12 587017 775528
13 298000 210143
14 316787 144259
15 751067 775779
16 350918 179797
17 198831 202477
18 674925 678296
19 666848 665912
20 200044 150026
21 738256 631692
22 729637 721112
23 152523 94382
24 279571 137627
25 324296 78992
26 676729 880225
27 696568 601529
28 168167 123108
29 292503 216682
30 741395 839940
31 554785 748558
32 183851 160630
33 272663 114936
34 676590 884454
35 779325 801963
36 165319 44045
37 714743 664799
38 211263 137809
39 712885 757211
40 788338 667385
41 270683 161796
42 254788 91847
43 266940 114558
44 215397 486
45 349905 253735
46 112990 251137
47 238318 286143
48 287338 112826
49 694866 641659
50 283688 154210
51 377374 141350
52 738461 755657
53 722129 547027
54 225634 73656
55 299518 119274
56 755701 780591
57 690246 636119
58 298114 138921
59 799895 646080
60 116994 248248
61 305137 75679
62 327257 90688
63 146284 48633
64 597323 784314
65 170564 220907
66 233837 178524
67 175589 287638
68 207203 192712
69 548224 616732
70 184960 52599
71 696351 849594
72 733348 788528
73 776799 725550
74 739970 724341
75 653145 575845
76 316785 104301
77 725930 710085
78 240847 239198
79 706166 809907
80 742516 862055
81 755961 730077
82 239895 100789
83 318119 212210
84 715366 596089
85 752199 677748
86 678652 641566
87 776036 642568
88 272993 228165
89 206700 149363
90 766576 728319
91 225031 156764
92 221267 81881
93 175803 160697
94 279174 97807
95 307540 71132
96 341785 210015
97 634561 698449
98 172226 168722
99 390807 149755
100 617976 797016
101 647527 805945
102 174015 219116
103 193512 76796
104 268782 192348
105 681289 704366
106 249661 61976
107 302803 161383
108 249272 127105
109 711878 720509
110 360392 30136
111 674970 794740
112 239882 136231
113 614586 763617
114 253883 239539
115 324194 142592
116 757573 647688
117 644128 714440
118 806503 643108
119 692443 712691
120 805945 755854
121 219951 197110
122 256050 187753
123 654234 622128
124 280848 107264
125 859662 764833
126 728641 706878
127 219327 132944
128 321870 191429
129 603096 691805
130 358203 153803
131 148272 239667
132 296217 68329
133 183083 217806
134 371354 108990
135 310528 228994
136 616138 690447
137 319917 158010
138 732808 769527
139 201379 209399
140 312429 64267
141 235872 192329
142 811477 676832
143 609406 691756
144 686167 688979
145 726521 802434
146 804070 667346
147 769978 797775
148 161127 -46585
149 613978 674443
150 310820 184005
151 775933 753430
152 326679 185303
153 742467 737353
154 776402 628639
155 350094 170899
156 700265 751497
157 752632 721112
158 120364 244060
159 658856 747325
160 787678 729674
161 336365 218640
162 654070 684180
163 652757 575626
164 288282 67571
165 227012 154845
166 661113 742926
167 229803 82061
168 130435 185444
169 127944 206522
170 329645 134584
171 744847 575338
172 242664 162269
173 181096 135067
174 732874 725984
175 226142 210104
176 97622 269379
177 588500 709629
178 693933 680416
179 680328 630320
180 284230 125886
181 299521 150383
182 276813 165408
183 762898 616264
184 687459 702943
185 376924 216177
186 279151 178944
187 719756 608218
188 692248 686940
189 610624 672023
190 777072 733299
191 736178 785325
192 302331 212612
193 277930 46915
194 195148 115769
195 700135 764930
196 736885 809599
197 420105 207796
198 309576 200186
199 139898 75030
200 269639 23413
