NAME : portcgen-1000-1001
COMMENT : portcgen N=1000, seed=1001
TYPE : TSP
DIMENSION : 1000
EDGE_WEIGHT_TYPE : EUC_2D
NODE_COORD_SECTION
1 473810 904893
2 59862 755889
3 156980 738401
4 527996 59591
5 16144 760205
6 273525 127088
7 461438 874854
8 841841 743362
9 881790 756357
10 488258 855019
11 -31949 269331
12 487701 884827
13 538161 84176
14 585967 18195
15 183618 766042
16 504692 41516
17 547576 61208
18 985541 730981
19 883114 764567
20 509588 696293
21 151435 767605
22 483057 905012
23 2912 761880
24 465914 889978
25 565299 120564
26 519991 649618
27 60807 343481
28 71770 270967
29 10971 325502
30 123367 695284
31 988291 696425
32 512581 56386
33 185549 781852
34 959571 692295
35 952623 667274
36 509477 681710
37 448492 898272
38 271381 168653
39 1019754 702569
40 889719 753594
41 493197 658905
42 875662 761299
43 15501 755757
44 88435 706522
45 553012 70640
46 982958 103718
47 107829 774518
48 203778 757325
49 55070 687476
50 -15894 783059
51 557718 28342
52 970429 129716
53 1022710 685385
54 583511 78492
55 953869 83217
56 925372 101063
57 -9933 289098
58 151767 738580
59 593162 29589
60 493084 907961
61 148983 760503
62 953241 694575
63 522527 679877
64 869418 697964
65 220358 779650
66 878408 722001
67 570241 54724
68 954799 143671
69 475586 892140
70 995978 145946
71 498385 926717
72 518734 907912
73 74855 751969
74 832930 697927
75 488196 30320
76 15082 275813
77 897623 706102
78 484522 606461
79 948149 673651
80 -65184 324078
81 921587 99903
82 981992 600665
83 205239 133091
84 534164 5232
85 593325 74930
86 897967 64524
87 940561 153827
88 960728 648337
89 252269 111078
90 458764 877169
91 470755 693051
92 895546 775365
93 231062 130207
94 49699 730655
95 236215 107706
96 965394 683671
97 43750 230980
98 526740 810846
99 506449 669579
100 11061 243990
101 479360 835845
102 197619 177274
103 147025 763167
104 995722 159842
105 123843 823516
106 1644 289918
107 491759 955028
108 154215 748482
109 275733 140377
110 107651 794847
111 512013 921746
112 430789 644815
113 234137 70895
114 526365 831632
115 923404 67178
116 449225 853279
117 227039 94512
118 925561 97314
119 534860 852199
120 73393 780748
121 37856 305772
122 169524 182858
123 158374 730523
124 1001335 637880
125 882556 795182
126 474695 720685
127 153873 806240
128 610924 66420
129 850260 759947
130 860622 754644
131 976818 670548
132 211861 144058
133 970856 694099
134 151324 781756
135 578676 28764
136 992531 701548
137 499605 895161
138 183168 764069
139 6511 284763
140 516067 844636
141 1008893 123040
142 493600 848400
143 804878 731639
144 162999 814094
145 220240 132936
146 94807 753608
147 17720 787032
148 541453 857014
149 555538 57551
150 232844 171845
151 262090 141757
152 533641 705450
153 216980 137492
154 528935 60779
155 825120 771990
156 22838 731244
157 46501 691831
158 255690 125630
159 22064 777560
160 519649 664017
161 556694 73181
162 936359 684205
163 860787 714855
164 4992 751993
165 986623 706317
166 534443 650430
167 54936 764435
168 932859 116333
169 906436 725955
170 500940 74470
171 820050 734342
172 506373 896764
173 985609 678950
174 975607 89219
175 548936 34749
176 454003 724305
177 458170 854275
178 15359 742379
179 889796 774216
180 896691 797566
181 857634 767355
182 730 254816
183 -74665 263076
184 991392 739767
185 32779 730670
186 162871 772103
187 2212 702775
188 13354 264934
189 521419 929193
190 987208 82741
191 982633 157394
192 494471 68946
193 114457 750695
194 827092 722538
195 487608 843109
196 122707 719694
197 18261 735627
198 495945 670299
199 956460 86830
200 130930 769140
201 -8039 260996
202 951319 686596
203 869423 784815
204 -19120 282208
205 456620 849680
206 64202 711087
207 918270 154351
208 860845 755662
209 870003 760034
210 16257 302487
211 974209 106194
212 847522 739173
213 41794 282356
214 599501 62115
215 593299 66523
216 20767 276909
217 17518 803386
218 57068 227971
219 -1329 282042
220 553602 895595
221 965090 612191
222 466609 868768
223 145464 737023
224 108117 768273
225 458764 878923
226 132111 737883
227 23077 294712
228 965965 158666
229 1035284 658028
230 144492 742994
231 492459 841144
232 238654 75013
233 541052 872684
234 870295 710815
235 -14493 278965
236 1030185 713804
237 1041118 697932
238 484626 672492
239 81897 743642
240 241546 138610
241 46927 756386
242 909992 816265
243 542440 54385
244 499139 863050
245 1040046 644357
246 852546 765157
247 964189 666152
248 856949 713943
249 1062052 643201
250 492505 656760
251 -13115 259764
252 915903 125330
253 495382 640822
254 265029 189411
255 593728 52379
256 505519 894134
257 12610 730106
258 944735 673895
259 109334 740793
260 244219 123845
261 950065 101564
262 577556 840748
263 983986 103157
264 261224 139948
265 -51411 273108
266 919169 43891
267 -19806 741016
268 566809 94210
269 968555 655073
270 474867 904371
271 841354 770676
272 211199 141629
273 59441 757654
274 484663 635099
275 214471 164098
276 990530 715565
277 503734 885283
278 526849 676002
279 134312 801035
280 856134 729649
281 507991 930723
282 483415 889367
283 187215 735897
284 995750 701612
285 960750 50566
286 33440 278539
287 977220 101206
288 996266 681230
289 767789 751996
290 62424 724307
291 908849 94560
292 -11516 260264
293 470809 60793
294 25636 719822
295 224000 116784
296 3990 274418
297 475407 843220
298 840787 707499
299 816206 717577
300 17907 730917
301 20372 265873
302 492269 701029
303 501721 653241
304 562756 856239
305 990230 71507
306 478165 881687
307 927274 35694
308 43155 317820
309 240333 178375
310 566207 72515
311 498712 872705
312 22920 733044
313 1064043 667750
314 575495 46701
315 1000684 625946
316 555905 26855
317 928517 612354
318 591763 41044
319 962851 147298
320 957317 705660
321 22302 317497
322 1006530 708518
323 961594 118172
324 -3592 354397
325 971474 105768
326 68369 782643
327 880739 693211
328 510756 896753
329 455978 881817
330 38610 800342
331 564086 79780
332 68545 772174
333 896237 725518
334 881990 758011
335 992649 675488
336 470071 667980
337 18288 725631
338 161201 756594
339 986333 665010
340 121477 751773
341 540011 907440
342 514086 887874
343 249830 136793
344 -5768 757940
345 933547 142751
346 505482 935559
347 16631 318390
348 939430 729565
349 493529 661328
350 33882 710271
351 52375 763625
352 516382 92565
353 478258 602707
354 499982 958919
355 940260 83225
356 793189 731516
357 -31145 289753
358 229612 751084
359 63507 715195
360 444572 899488
361 986173 98737
362 453962 668358
363 575150 55389
364 994488 600673
365 955379 713435
366 521594 899526
367 831091 754882
368 -10591 747914
369 62944 688150
370 548500 17181
371 567194 83006
372 923196 714078
373 845753 765642
374 563130 114896
375 789921 704621
376 526431 927519
377 265151 90716
378 498592 875100
379 497983 838601
380 1020846 659636
381 103081 728391
382 211922 117038
383 475376 904104
384 48397 728461
385 616583 93356
386 491879 650428
387 228177 157756
388 164510 751609
389 846286 723027
390 94402 792590
391 55550 727452
392 191125 746098
393 513540 919164
394 -13924 350310
395 216190 138766
396 483854 658197
397 5889 748904
398 563538 81220
399 1006093 706146
400 851024 790191
401 119085 780545
402 987250 675959
403 566081 103974
404 1008083 99307
405 488312 678411
406 472152 879212
407 940100 108610
408 62670 730190
409 136606 759433
410 214069 118027
411 28194 731803
412 612890 106472
413 514882 894091
414 233456 209141
415 -9230 255095
416 489449 941639
417 134157 772940
418 181283 56733
419 38002 762408
420 903558 112124
421 953098 621535
422 231257 168813
423 -37818 770046
424 -23083 310544
425 428762 837494
426 528154 58302
427 847242 717064
428 166686 819340
429 981991 82952
430 -24363 278704
431 145170 764639
432 888850 112073
433 162023 794225
434 784253 780389
435 461012 651158
436 527761 927558
437 855781 836484
438 992969 650074
439 957322 98081
440 879762 742812
441 249247 189415
442 223876 161295
443 979583 712419
444 151542 785195
445 890018 745686
446 1003334 658946
447 -26556 727482
448 497556 898890
449 74970 769899
450 1003025 642953
451 9382 706087
452 964182 712605
453 231303 108076
454 966651 673809
455 449267 739885
456 28150 709763
457 -17562 308996
458 -29925 303914
459 871992 720514
460 -41073 312575
461 -13764 744001
462 132331 816025
463 932520 672852
464 -9927 282300
465 949713 672796
466 221450 130719
467 928438 97842
468 253863 119716
469 217637 122295
470 937441 177125
471 864352 760790
472 810439 697771
473 963445 122177
474 924759 651555
475 210447 137682
476 959602 619063
477 -55563 278164
478 484330 700118
479 512485 865550
480 872394 725264
481 928795 107308
482 40297 742299
483 987339 105832
484 961329 98051
485 229468 106258
486 847887 737644
487 -65106 307847
488 28979 290824
489 31039 724426
490 536391 925691
491 435277 948999
492 484750 679299
493 832006 730405
494 493269 637004
495 955208 689295
496 12149 747740
497 -4998 345670
498 543982 53492
499 116396 733559
500 855438 729912
501 250163 149974
502 955033 121073
503 116532 757256
504 974042 678161
505 971281 672159
506 552961 130678
507 -5548 766181
508 418430 671843
509 483571 653406
510 972204 115131
511 935372 143365
512 3480 763309
513 539434 2769
514 906810 717314
515 489935 898872
516 1011276 154004
517 -22031 246437
518 2695 731498
519 29777 721476
520 4151 709417
521 547268 684312
522 485015 907006
523 456751 632099
524 870740 745230
525 918662 713909
526 450800 998861
527 968153 626862
528 494579 888056
529 851862 108968
530 552119 81577
531 978897 693331
532 175025 731307
533 878955 724732
534 35013 770549
535 114579 773159
536 469455 624674
537 967999 97957
538 926453 656873
539 912917 81530
540 444230 662931
541 566962 120067
542 612197 34968
543 5714 717483
544 423781 633873
545 480947 848674
546 910657 715339
547 83490 741407
548 2307 737634
549 482774 704273
550 908489 762120
551 187207 131358
552 453534 656463
553 562174 908644
554 -10099 290583
555 957109 136957
556 58659 787642
557 554593 93515
558 993437 681404
559 469193 701998
560 571235 109578
561 995448 628368
562 466655 682119
563 934151 121683
564 529923 884455
565 1024019 661364
566 540931 99048
567 188473 776446
568 486853 668638
569 -21513 687999
570 -17429 251608
571 531134 51986
572 927089 698575
573 465048 681303
574 1004205 659930
575 -29795 699424
576 446988 667973
577 459875 872164
578 464438 876552
579 484216 676697
580 518078 954352
581 436755 852410
582 484411 885787
583 31351 754468
584 72026 782074
585 822133 741477
586 533524 881838
587 149281 644669
588 231871 683888
589 464866 621719
590 530628 80310
591 511946 -27483
592 -23427 243941
593 827710 768922
594 -111 763294
595 576378 91711
596 532728 662306
597 199918 113402
598 530180 80994
599 518472 707426
600 503240 897955
601 489381 924655
602 1020623 639032
603 42680 751573
604 994496 716438
605 452937 871849
606 500797 613481
607 975250 677787
608 943255 139110
609 234783 128248
610 926455 778347
611 235631 106180
612 784752 750158
613 240014 85399
614 829889 763137
615 971284 682336
616 176169 780462
617 482896 641252
618 920956 153533
619 474932 613021
620 22244 315177
621 258826 108088
622 528277 93565
623 173980 753120
624 936409 168383
625 488847 871769
626 160193 753349
627 475979 882435
628 923408 694670
629 172747 737406
630 542382 916485
631 507491 630394
632 188013 121718
633 992008 616992
634 971893 728058
635 972874 83457
636 423733 637066
637 495099 884436
638 272185 122272
639 868069 783875
640 43432 325306
641 979767 80590
642 521582 54118
643 838031 794116
644 478904 901241
645 997606 117725
646 255192 131440
647 939059 202602
648 -27919 365501
649 680 736211
650 146657 748275
651 -36282 363440
652 97166 773006
653 446243 923810
654 932093 109489
655 982115 111049
656 541227 92730
657 261540 90864
658 64756 793536
659 486590 644548
660 158082 823403
661 522568 44532
662 15251 760369
663 38750 265588
664 158164 822625
665 956257 153368
666 -9719 326613
667 41524 359781
668 56760 743664
669 868094 706383
670 59600 690197
671 504650 929943
672 -42606 252734
673 947509 111408
674 501673 637264
675 981820 643826
676 -25319 760531
677 66072 744438
678 491922 651985
679 7605 310921
680 200456 771987
681 878663 747034
682 -14956 279887
683 526493 652800
684 116808 787254
685 934816 713676
686 838737 724956
687 542176 -11572
688 549627 60012
689 2402 754267
690 500469 914210
691 1011494 682145
692 487345 698039
693 984944 671854
694 484615 906965
695 942133 656238
696 959972 623379
697 238456 78762
698 581405 31244
699 442290 870219
700 213151 96634
701 971935 129750
702 576522 38257
703 522789 60560
704 289736 128106
705 470027 890572
706 866726 681298
707 448061 974957
708 1000842 130704
709 944357 133660
710 586020 84536
711 -9733 730423
712 46262 678535
713 -1430 768606
714 849862 788997
715 472353 889296
716 977398 666061
717 949211 152141
718 13570 301546
719 526555 637841
720 869422 681258
721 122122 785601
722 875131 761983
723 487406 680609
724 60888 759058
725 232842 153164
726 12726 706617
727 5119 774539
728 432691 647653
729 79638 293821
730 59869 766486
731 592432 52770
732 67451 738604
733 130027 718588
734 916081 128287
735 97450 790712
736 977026 127345
737 990501 96960
738 606141 66286
739 951866 711212
740 970300 115545
741 256561 110521
742 942924 669302
743 838105 756421
744 236633 147567
745 222623 176471
746 996220 151694
747 257696 97077
748 49250 754675
749 1000716 161624
750 84767 682285
751 56312 763966
752 -773 773967
753 920544 150578
754 508180 894996
755 846169 756205
756 589370 74361
757 34759 303569
758 1442 274226
759 467531 697056
760 831435 716961
761 857761 819867
762 142017 719109
763 526355 97007
764 185189 771055
765 446897 874639
766 480617 923316
767 497518 933869
768 149413 689471
769 544057 26253
770 954020 104805
771 3622 285330
772 294522 155417
773 864901 720114
774 208106 90493
775 -27469 298353
776 36485 728291
777 554860 34746
778 886971 740573
779 36342 748827
780 38830 220789
781 61352 700143
782 533588 645607
783 443160 635357
784 479971 871105
785 2447 304120
786 814972 766101
787 840732 765441
788 -81297 246414
789 960850 722346
790 515405 880954
791 190878 738023
792 136309 752034
793 478495 624933
794 80370 357988
795 484731 678896
796 522347 885739
797 262470 189394
798 955952 669678
799 145760 807964
800 573496 71449
801 916588 116905
802 504500 697619
803 6329 724692
804 14823 281416
805 533533 91191
806 266165 115946
807 2584 314955
808 178364 92213
809 -1561 298298
810 857583 736903
811 1029048 651304
812 464278 689166
813 951339 646951
814 960942 680567
815 848954 753864
816 176541 740666
817 926292 89227
818 495838 900858
819 857945 729886
820 802094 756196
821 469527 859384
822 43225 222392
823 206188 125635
824 990511 91919
825 33739 755523
826 928743 136557
827 1003410 672381
828 517976 850845
829 253517 143967
830 -39107 305057
831 208903 87152
832 123368 729564
833 916514 111906
834 153421 764135
835 630354 59044
836 188212 758586
837 519202 870012
838 147546 752452
839 1023630 684664
840 984536 107297
841 522119 52849
842 457602 923278
843 25806 704329
844 876497 787248
845 551361 74723
846 997532 673699
847 51705 709978
848 590145 36283
849 949446 131592
850 131767 737734
851 921690 710854
852 -26189 277068
853 501949 685118
854 -85736 304680
855 946956 88614
856 224230 89506
857 1021023 617426
858 212286 795027
859 491416 661197
860 14822 270514
861 515207 898397
862 925225 137005
863 -5259 249757
864 980642 130136
865 478183 712676
866 633113 119491
867 292695 131643
868 521596 43399
869 960210 685107
870 12704 247132
871 244820 93130
872 526041 625079
873 495498 683967
874 558095 682657
875 508302 863411
876 -55031 317134
877 181924 760708
878 497743 619184
879 937384 182069
880 238455 132109
881 -11577 270170
882 214323 127754
883 560557 48273
884 612357 106296
885 995723 668400
886 -26383 690641
887 27103 745624
888 510654 122418
889 947659 662268
890 508786 702244
891 964164 666426
892 914651 119484
893 7490 287499
894 800111 782103
895 516645 611872
896 931719 675799
897 163648 782727
898 999252 120822
899 244265 168472
900 195127 775824
901 456500 646913
902 22778 759953
903 132375 786045
904 983447 126428
905 6624 722419
906 528719 904572
907 579689 66714
908 6981 800129
909 526618 889158
910 523116 703092
911 915009 136286
912 187346 808012
913 969077 113587
914 144105 802283
915 20215 288138
916 960727 125938
917 -603 247261
918 969765 152150
919 817471 768922
920 452281 672394
921 504348 657866
922 522938 66511
923 506237 629622
924 504849 815228
925 196148 818188
926 559110 604626
927 947399 153212
928 149842 744975
929 977005 642792
930 156541 754814
931 475000 896098
932 -11052 784379
933 576540 70445
934 20515 292729
935 305311 138771
936 920948 191042
937 949808 652793
938 557190 97914
939 982775 737686
940 161972 763980
941 38284 730832
942 887323 719952
943 123482 743421
944 528599 73825
945 -2847 317823
946 531344 108935
947 605353 78136
948 889298 775470
949 261383 147812
950 267680 154016
951 249362 124359
952 922296 34181
953 571088 924355
954 146111 729674
955 509529 679111
956 109937 717726
957 918596 676554
958 27878 267357
959 18960 268490
960 149061 707854
961 224052 116872
962 -12396 268460
963 816085 772195
964 -11891 231379
965 31511 269416
966 164280 758084
967 973865 655123
968 514321 887756
969 448398 841162
970 507231 723915
971 50171 231882
972 976845 600035
973 499520 82327
974 948611 132722
975 262826 106786
976 62372 752075
977 242838 167501
978 878528 753633
979 866331 696016
980 978074 629978
981 824876 715822
982 155963 756967
983 -48546 298238
984 591741 78104
985 195678 773705
986 821972 806259
987 125345 789173
988 218247 108982
989 884616 705559
990 554598 102119
991 993279 715350
992 155152 736023
993 563613 31079
994 521188 747167
995 940049 115088
996 9728 279532
997 -27328 701808
998 1453 716073
999 -22273 219744
1000 977487 688689
