NAME : portcgen-500-506
COMMENT : portcgen N=500, seed=506
TYPE : TSP
DIMENSION : 500
EDGE_WEIGHT_TYPE : EUC_2D
NODE_COORD_SECTION
1 973583 773778
2 855231 794525
3 566931 1010182
4 63054 322399
5 582540 1003259
6 155540 253123
7 1011193 851876
8 392211 172912
9 638551 969851
10 578947 982774
11 638109 1009182
12 904442 749897
13 284168 87561
14 619576 1009580
15 570609 943124
16 566193 960063
17 699422 967931
18 1034958 727526
19 379358 95240
20 668491 992438
21 912014 704652
22 932456 817816
23 621793 959901
24 882572 853173
25 353226 113604
26 31619 262434
27 46200 323037
28 881131 721913
29 10733 331302
30 428051 202794
31 353781 52347
32 958276 788538
33 653449 959686
34 311357 129940
35 -25085 253978
36 589590 957274
37 907036 693507
38 583695 985686
39 83459 325218
40 11589 272456
41 959459 753341
42 942459 734894
43 980383 766753
44 901196 686375
45 637083 845867
46 937086 607345
47 835852 770218
48 290584 32104
49 350736 90294
50 622576 1075348
51 949018 764993
52 936272 762998
53 918358 828735
54 840100 730625
55 534846 1011394
56 276399 144343
57 986412 680921
58 56709 292489
59 919326 820546
60 899184 817083
61 672133 1043776
62 638409 975516
63 633477 898808
64 910736 797258
65 955698 742859
66 366688 176146
67 555505 1025732
68 919405 722815
69 93757 191990
70 593318 986200
71 598957 947657
72 916750 710725
73 52618 206850
74 385482 157888
75 19400 302361
76 889744 703344
77 18146 285454
78 639415 931488
79 628726 918656
80 683987 952296
81 67754 323581
82 432591 128735
83 357438 121498
84 853670 802250
85 906304 736726
86 621250 925609
87 310772 248030
88 332562 103190
89 933967 804377
90 828153 742429
91 938454 722220
92 614194 983619
93 989409 710598
94 863871 654216
95 582624 1019964
96 920369 798474
97 896218 807231
98 1053874 697253
99 896299 694637
100 321714 139068
101 347515 97703
102 609739 1006068
103 41638 234911
104 965793 693905
105 299371 107685
106 127610 382696
107 1733 271941
108 666654 967108
109 907133 697071
110 891506 723639
111 31166 334918
112 667422 870647
113 640728 1006812
114 784018 776518
115 862503 875320
116 278313 115520
117 114533 271354
118 96326 328130
119 582216 1067890
120 384087 132408
121 934206 809016
122 622384 909142
123 606582 1009487
124 389659 86690
125 686542 993261
126 892007 956554
127 59250 295142
128 895295 655005
129 276769 53790
130 350313 195725
131 594816 953284
132 329247 35971
133 432238 89174
134 675035 986274
135 907634 741253
136 326053 78490
137 32959 324853
138 430888 124364
139 889036 757493
140 410743 170670
141 653827 919805
142 398099 211529
143 901185 798052
144 8692 319965
145 825298 709866
146 929597 842652
147 945303 689855
148 -2730 360564
149 54182 346077
150 626538 867347
151 4615 311980
152 92450 336891
153 624746 1012415
154 547872 1018092
155 916208 826089
156 877244 754809
157 99441 319046
158 33697 355154
159 661993 1018265
160 350905 134039
161 83745 361867
162 332888 78259
163 845527 777631
164 348006 91755
165 -1764 360244
166 561645 907955
167 354655 131999
168 903294 729415
169 369085 74466
170 29283 359618
171 918554 735820
172 862435 678362
173 289509 177236
174 27111 229158
175 897403 764710
176 98279 362502
177 317187 87381
178 39134 285802
179 977958 774234
180 962030 834576
181 958503 786077
182 618361 955158
183 969899 713318
184 625400 989095
185 663967 1035083
186 603196 907037
187 865328 692937
188 340261 125677
189 624789 977424
190 886617 737856
191 867183 801978
192 948908 820605
193 357031 135872
194 634956 969109
195 589020 1031319
196 896892 801620
197 342542 171177
198 616970 946351
199 644495 1015066
200 896205 759190
201 618038 1010959
202 625164 977808
203 726902 937755
204 13789 302924
205 159863 211536
206 646198 971932
207 896061 811800
208 56129 285591
209 18788 268068
210 957489 779614
211 617189 954750
212 79936 314344
213 596154 932938
214 626297 999170
215 934734 683870
216 998240 727289
217 36600 349522
218 644800 981061
219 456265 156067
220 11438 369525
221 944786 790012
222 896562 881364
223 610532 999458
224 810938 790378
225 64139 311632
226 861232 828044
227 886547 754917
228 939152 718345
229 869444 765088
230 873539 744514
231 339567 86794
232 310802 43170
233 79685 306611
234 1000065 879390
235 355118 195302
236 311407 92605
237 606972 960272
238 909924 737338
239 980659 712804
240 34464 288097
241 361602 163761
242 347507 143210
243 963897 648577
244 641832 985236
245 328606 116022
246 582207 1080236
247 586244 948535
248 387270 191572
249 358516 99174
250 372219 194800
251 951484 718023
252 834002 779781
253 942777 698399
254 881643 829635
255 132879 334797
256 25660 324085
257 356995 105465
258 306787 167584
259 31113 327813
260 76582 286741
261 116481 307358
262 889831 765331
263 365499 139536
264 97219 268891
265 625216 1121158
266 848376 700493
267 287238 137294
268 871894 793823
269 102376 297754
270 683899 1008115
271 49314 296651
272 919498 732065
273 711821 1015794
274 -6103 298138
275 2935 249216
276 982835 729687
277 1697 242302
278 957132 804751
279 940815 786193
280 103888 292260
281 549681 978514
282 292405 129011
283 948303 845772
284 963061 691280
285 947011 789132
286 919252 786681
287 555547 1039168
288 882344 773613
289 940298 627966
290 339386 89462
291 932726 732929
292 877145 845735
293 821726 780378
294 886238 735614
295 711734 734599
296 610662 1043166
297 942739 877393
298 298720 152989
299 49885 310730
300 967124 644968
301 944741 880921
302 622473 951230
303 186196 316165
304 867297 641746
305 1005063 806401
306 60246 341031
307 919961 710255
308 950664 728253
309 1018832 689381
310 638182 937181
311 864686 726209
312 876528 722040
313 558787 962477
314 936749 728059
315 880642 693764
316 353161 106268
317 672996 932189
318 390929 115204
319 905821 672734
320 899846 698358
321 959683 742131
322 896787 876106
323 505799 838814
324 628571 959172
325 910829 787207
326 622433 977522
327 597460 919661
328 422622 143990
329 874986 851116
330 658690 944793
331 885660 642649
332 629478 955088
333 123736 317224
334 43055 281545
335 965694 837278
336 32561 304556
337 960210 886616
338 55720 260207
339 649111 970893
340 120014 349748
341 11814 267127
342 460878 146800
343 868124 705366
344 924330 814006
345 594921 911597
346 910339 772669
347 301544 80897
348 10728 288310
349 317327 180886
350 606591 927321
351 884236 764656
352 25704 221500
353 158322 328018
354 955121 709426
355 931622 734865
356 515450 951003
357 336988 210483
358 326151 107207
359 244654 189283
360 346968 100302
361 356582 165605
362 927566 805843
363 940185 717816
364 861501 875215
365 649417 923731
366 598809 1040561
367 906075 748778
368 315566 138118
369 595652 955813
370 873916 779870
371 132559 342099
372 113752 262197
373 904860 789721
374 626740 935157
375 136324 330717
376 326420 142975
377 912727 889916
378 379113 248992
379 51680 321420
380 930235 780380
381 890026 767892
382 880169 759544
383 979113 799366
384 831088 708777
385 95937 299690
386 60786 286428
387 634159 988806
388 582109 983990
389 649740 964351
390 421464 143339
391 657873 961499
392 859525 816253
393 821416 833386
394 913323 725919
395 75977 274884
396 638003 997874
397 898200 764169
398 356484 246815
399 953625 754566
400 945729 798704
401 573377 948787
402 953339 696285
403 341807 102186
404 939539 784023
405 917746 682494
406 957352 817823
407 821868 781939
408 954078 823888
409 82462 324186
410 615389 931637
411 883428 819520
412 928844 661468
413 305370 138914
414 629068 958978
415 111060 253817
416 3280 266842
417 670933 982486
418 337876 87827
419 903359 696491
420 635848 970153
421 982427 777676
422 627517 991774
423 19406 281943
424 971995 773536
425 50615 253307
426 288615 130622
427 906914 644043
428 1015127 694747
429 329704 181465
430 891167 833962
431 335392 124214
432 335471 90937
433 889038 751017
434 86043 277490
435 916996 737080
436 978195 696002
437 401745 125366
438 931435 793688
439 855798 823099
440 903705 761051
441 732862 886860
442 416311 215697
443 332228 125508
444 909664 730063
445 961023 884794
446 676328 975884
447 316844 114370
448 606539 957284
449 648549 961373
450 333499 102746
451 883461 826686
452 903842 728294
453 1013954 679668
454 355035 157354
455 60161 377332
456 54996 313238
457 314973 140190
458 822530 737513
459 608393 947871
460 614489 937054
461 932053 837290
462 874969 744851
463 624245 944952
464 619270 979241
465 60088 386714
466 63529 283144
467 887684 706611
468 286767 90108
469 863283 704201
470 555325 954744
471 570617 1030057
472 338928 112985
473 408921 197830
474 64930 393764
475 374685 127831
476 115875 247954
477 938000 763301
478 887291 695626
479 908068 697166
480 55075 281462
481 912874 740474
482 1012454 756909
483 679312 967237
484 290989 148387
485 967515 768069
486 609384 1013544
487 631618 1009932
488 108179 191840
489 369387 84245
490 91339 342111
491 368392 145618
492 591681 1013502
493 875842 810737
494 663220 979359
495 376767 160848
496 589322 886261
497 592056 996358
498 923517 806038
499 302542 71693
500 383920 132886
