NAME : portcgen-1200-1209
COMMENT : portcgen N=1200, seed=1209
TYPE : TSP
DIMENSION : 1200
EDGE_WEIGHT_TYPE : EUC_2D
NODE_COORD_SECTION
1 52851 491885
2 174171 1010824
3 806019 856913
4 43442 578977
5 667044 838241
6 206342 973311
7 389377 570237
8 471370 50567
9 92338 56732
10 378030 851749
11 458040 682659
12 559094 485502
13 505378 472426
14 223940 1006948
15 807288 932182
16 163550 1022650
17 350374 579703
18 850808 874551
19 74179 490587
20 489293 439129
21 668056 878564
22 701617 878582
23 359457 862667
24 8197 465187
25 24119 461339
26 405935 837627
27 487617 414277
28 885442 932705
29 487073 713334
30 869708 956949
31 471347 481360
32 154276 77656
33 225081 950719
34 344407 859993
35 172835 1001176
36 35407 554867
37 118878 78812
38 449023 692549
39 350671 858551
40 512522 25597
41 503380 -7565
42 500294 21739
43 534829 -7211
44 464535 421252
45 690113 877833
46 701870 863768
47 908013 887439
48 68359 47030
49 -64956 442878
50 502762 -13765
51 399194 617994
52 464121 709635
53 455302 721598
54 478814 561815
55 521835 -9648
56 862198 913722
57 -5429 452636
58 113425 526440
59 115194 91613
60 49530 603154
61 370293 887829
62 377967 577205
63 354236 860916
64 429995 528506
65 844961 920208
66 61341 55187
67 466469 728306
68 373308 576392
69 547707 38690
70 46553 466621
71 192287 1014271
72 175620 1066295
73 313058 573432
74 770868 920009
75 362564 610409
76 391851 549644
77 349649 536957
78 871063 935095
79 86953 560722
80 -9643 484670
81 193731 959754
82 825682 891128
83 696081 844600
84 54454 85290
85 442082 482339
86 558543 718960
87 776267 959423
88 73851 451567
89 509025 706145
90 417198 562048
91 356540 943837
92 327973 516990
93 407332 864599
94 480312 674966
95 473935 698635
96 699089 876523
97 508183 676655
98 55347 575782
99 48020 486462
100 126656 1022330
101 821259 937678
102 523522 59817
103 883449 950353
104 467278 717693
105 806679 857489
106 340311 583652
107 225899 983745
108 662673 903305
109 385994 805410
110 111779 1039018
111 478545 468463
112 101460 53944
113 485552 504211
114 171878 962711
115 641124 895440
116 60076 547328
117 387645 917740
118 793087 903844
119 528044 673080
120 455940 466408
121 99594 555260
122 217115 973673
123 164242 1016260
124 126218 45249
125 -36317 461039
126 33685 506554
127 192939 980157
128 155846 978880
129 505032 764985
130 422670 560024
131 165463 985390
132 539825 419301
133 697905 880850
134 869889 906417
135 871840 851044
136 427779 665911
137 132810 62318
138 470810 673192
139 671705 793514
140 38086 547323
141 233624 996691
142 865315 923231
143 327443 585569
144 76109 584591
145 448700 723941
146 384037 840417
147 766401 940948
148 501133 484653
149 522144 446695
150 508779 498302
151 94176 60979
152 834565 917331
153 531553 27897
154 613813 870655
155 193830 1028038
156 59145 481369
157 83066 567974
158 366106 836075
159 52047 474028
160 465205 512942
161 379768 497301
162 803935 895286
163 874206 938960
164 893880 1004953
165 701339 928456
166 47551 512473
167 95363 565859
168 426459 574427
169 537936 12128
170 366883 904678
171 33289 428175
172 666436 850662
173 633203 858423
174 31534 479529
175 87751 448984
176 98514 606180
177 693470 906194
178 476538 728137
179 38276 562338
180 426959 496908
181 502686 38561
182 465902 700336
183 501949 35491
184 684017 804671
185 836446 916673
186 350596 882188
187 108852 556798
188 486443 14387
189 487796 437836
190 39021 554895
191 755811 893160
192 129070 115178
193 897684 962868
194 8043 461837
195 42568 414542
196 16489 474065
197 94786 527735
198 100144 622528
199 727802 861882
200 41525 496116
201 103267 77455
202 55996 504636
203 98681 558925
204 651465 836399
205 657575 905926
206 66631 564651
207 487383 702160
208 493067 724449
209 528085 -4751
210 673226 856081
211 92392 90417
212 878901 909622
213 54352 432934
214 506973 683459
215 38203 575510
216 322256 825444
217 122507 612683
218 522437 -37289
219 838199 938907
220 846423 889302
221 296301 834411
222 485672 756307
223 106049 545302
224 895287 913144
225 394699 826598
226 373146 554544
227 363864 567227
228 428756 877137
229 357742 593505
230 489856 -3321
231 91002 493757
232 483648 471693
233 513167 22672
234 416477 471185
235 504122 468797
236 80567 108208
237 314704 850025
238 503091 24453
239 685640 812930
240 651751 887871
241 553733 -36208
242 828709 930557
243 60325 483485
244 91988 572883
245 470637 661543
246 694120 862876
247 68247 612286
248 791930 988831
249 70937 60997
250 780982 881144
251 362273 884562
252 382642 852476
253 481201 708460
254 241031 971876
255 49414 518789
256 842449 904683
257 904845 938290
258 468582 481621
259 9727 488621
260 441228 704092
261 628737 884279
262 482874 502472
263 670221 904601
264 441466 738925
265 488291 447955
266 -5546 496198
267 917458 911806
268 450416 711022
269 365325 508609
270 363376 603552
271 155597 118506
272 -25333 504986
273 539262 23436
274 652953 833583
275 210580 1002034
276 651404 870252
277 464095 475168
278 794082 902962
279 775337 838123
280 789573 848190
281 645179 852119
282 443613 441081
283 39563 402172
284 510905 -13258
285 476220 -2194
286 45245 415208
287 380585 792045
288 96229 131104
289 52258 558259
290 64796 511884
291 382076 849658
292 80827 529674
293 484932 476872
294 755381 907667
295 69190 80603
296 84099 33873
297 329910 819945
298 382615 792530
299 84163 553876
300 488930 701248
301 374075 889891
302 163632 1002923
303 91809 574979
304 768623 854765
305 497781 42727
306 46245 436190
307 808215 904398
308 156174 981121
309 628835 904903
310 404327 576093
311 653113 890426
312 515950 435861
313 108499 524312
314 79812 526792
315 468231 721836
316 491253 38660
317 523460 4505
318 840157 907883
319 530774 420436
320 489570 702276
321 644224 860245
322 493762 678478
323 682726 818507
324 380493 868835
325 489906 442091
326 427686 560176
327 465968 456332
328 507303 463146
329 351985 531096
330 399628 516307
331 45552 553125
332 388561 832624
333 383611 553315
334 508458 -30866
335 403421 886999
336 712724 877814
337 883602 943677
338 165793 1037441
339 485807 726575
340 467646 417416
341 98612 35537
342 510891 464663
343 409668 892595
344 442222 653018
345 105826 89953
346 112885 104755
347 157371 997484
348 469078 692079
349 520614 474313
350 507146 23809
351 11061 459711
352 881884 921973
353 94709 67043
354 514529 13039
355 882183 934031
356 -21157 475219
357 688957 803933
358 459144 -32128
359 392742 569566
360 719653 919237
361 474166 685999
362 110669 604558
363 409146 824537
364 48767 480761
365 316476 532942
366 21612 484947
367 391062 877068
368 516734 20360
369 175033 988275
370 377509 636480
371 846158 937851
372 49601 452554
373 88319 71604
374 485298 693888
375 812629 867260
376 938503 964163
377 374252 873796
378 520009 446518
379 848901 901209
380 647645 860118
381 27768 461316
382 400428 596072
383 523780 1018
384 395179 569813
385 679263 822732
386 536731 31405
387 344531 870017
388 485773 726302
389 499210 -10840
390 170395 981073
391 306036 886272
392 674075 886695
393 395173 858975
394 15193 525208
395 498813 489348
396 406440 548982
397 819502 879888
398 469962 503070
399 13325 436286
400 59602 529807
401 232354 972098
402 517671 726034
403 26919 452859
404 29712 476944
405 55262 86264
406 34157 515990
407 90738 572768
408 674151 897883
409 184790 950715
410 131627 59367
411 419813 524883
412 384405 876326
413 746817 943364
414 455342 719373
415 -66343 456297
416 144315 60816
417 902199 902051
418 377978 600603
419 513088 715928
420 673089 821131
421 506754 479726
422 534790 431278
423 783613 887864
424 497895 740372
425 342307 833444
426 166298 1023956
427 786604 916212
428 469420 116
429 -14344 502877
430 693849 889216
431 420534 560806
432 129926 85599
433 868853 935071
434 646133 880507
435 382861 867396
436 478024 457232
437 131616 985855
438 667007 857534
439 512279 651235
440 39698 418577
441 757068 907915
442 862443 943331
443 724974 855308
444 96546 46439
445 628263 904299
446 651248 838120
447 465174 441500
448 -4049 442617
449 81746 567792
450 184508 945769
451 69629 556507
452 451424 490482
453 328640 573899
454 492166 732607
455 513401 666913
456 653187 888173
457 783388 870780
458 53278 435564
459 910797 885575
460 472112 710151
461 374927 552208
462 802626 925115
463 678400 883284
464 524424 13031
465 523277 -2994
466 757241 910800
467 772577 930229
468 413278 911314
469 872432 863739
470 59676 533282
471 53906 503754
472 132446 71364
473 521527 447389
474 372063 583876
475 100535 548131
476 830551 922313
477 503761 409426
478 96509 565659
479 721666 881613
480 545673 -3753
481 159029 1038294
482 43951 466675
483 497566 81670
484 391303 927704
485 452803 408504
486 385097 906597
487 488534 464707
488 802164 896565
489 101427 108501
490 450266 33945
491 231436 1011231
492 790508 879856
493 773857 865914
494 126344 990222
495 664345 814867
496 864429 922214
497 167303 975620
498 499337 426491
499 883951 961070
500 505767 51212
501 704618 836415
502 834555 940993
503 55426 571245
504 45583 582427
505 489380 69300
506 121759 59341
507 861752 910747
508 630650 824981
509 459658 471228
510 338519 543648
511 86104 506560
512 494552 21003
513 212926 1006770
514 166488 1016078
515 62669 43245
516 832525 967048
517 497402 716537
518 41788 419852
519 510988 480502
520 43695 515245
521 358386 861845
522 814037 855502
523 489349 448862
524 766571 847228
525 387616 815658
526 482722 656003
527 122479 69649
528 361650 908161
529 363526 866827
530 874357 904035
531 391281 586737
532 389825 649769
533 109388 92216
534 100187 603922
535 95635 542214
536 122336 55572
537 22839 429882
538 539374 665046
539 64350 510658
540 89816 544755
541 419267 582507
542 314870 582965
543 326902 843552
544 455716 700892
545 494440 671698
546 171308 972036
547 367004 545100
548 64780 541966
549 126320 576375
550 430613 860582
551 477988 37074
552 101960 35271
553 463295 664096
554 774037 894322
555 159341 998878
556 62256 469703
557 478040 -22039
558 307463 927310
559 213096 1005847
560 213438 945345
561 497809 733387
562 884150 912787
563 23952 437261
564 665737 877516
565 81652 541667
566 59371 415803
567 569496 10673
568 487233 712095
569 730569 875305
570 51506 474354
571 515642 66655
572 56497 509328
573 383465 870530
574 67202 530979
575 655349 879676
576 452902 415817
577 196141 960686
578 173519 957119
579 20302 509965
580 499990 -14524
581 875936 991609
582 384445 505286
583 496619 9074
584 60537 567567
585 31287 542234
586 377962 620333
587 146527 966311
588 695486 869270
589 834069 935923
590 719992 817246
591 375724 857427
592 176454 963200
593 634576 863312
594 816087 923659
595 806537 950204
596 5763 478766
597 830385 938812
598 359835 607125
599 509161 436209
600 383073 842054
601 678140 859296
602 481141 509782
603 87503 56526
604 456438 476291
605 876794 918807
606 508386 723966
607 91216 541807
608 84916 46917
609 384497 929492
610 406510 830893
611 348285 571390
612 355039 595911
613 858831 952031
614 345088 586464
615 906691 984056
616 864983 912031
617 442732 701683
618 360092 879600
619 167936 947725
620 393849 860032
621 90499 570938
622 544403 656850
623 696447 855997
624 28737 462169
625 181595 1000099
626 81310 43361
627 105141 553596
628 62208 542069
629 140596 91237
630 321576 878490
631 800519 858579
632 171250 999934
633 494664 -6801
634 68300 10100
635 682989 835269
636 677187 852877
637 466194 434144
638 471469 15264
639 778665 909439
640 78148 516923
641 352503 542812
642 115474 34597
643 701770 881627
644 492495 700358
645 169842 1002347
646 488397 481132
647 447276 699475
648 6702 491463
649 536129 445727
650 78122 550531
651 809726 909361
652 484365 -8347
653 532317 683885
654 114876 58595
655 181467 977357
656 427234 669111
657 89889 124400
658 693313 860768
659 96589 52271
660 479742 52962
661 710086 875575
662 504328 18929
663 357266 880721
664 332044 630364
665 517454 680032
666 553415 454223
667 1899 437778
668 533313 13038
669 794630 929529
670 489390 416632
671 467290 727536
672 89139 547371
673 182874 1017284
674 846322 952881
675 863863 936929
676 15578 486694
677 480431 663399
678 701565 845658
679 360356 833470
680 481402 19455
681 880625 947363
682 360812 856640
683 79471 101310
684 452807 681337
685 96142 52690
686 769924 864138
687 790661 928881
688 340823 842519
689 495521 64223
690 145141 51289
691 124505 70666
692 491336 672452
693 498563 698247
694 313156 878182
695 482890 693405
696 88492 532676
697 849622 943501
698 159592 984894
699 643270 880934
700 151304 102400
701 169801 1011658
702 857061 935964
703 382506 840860
704 99710 456314
705 502245 39541
706 49801 568182
707 533218 36071
708 456103 674682
709 19905 439401
710 178104 1034665
711 60354 477805
712 31570 491182
713 50770 531329
714 198676 1018891
715 768785 857146
716 154013 921444
717 352836 883744
718 199839 972278
719 377642 847386
720 41274 525962
721 467482 435912
722 645402 868006
723 709177 891210
724 420989 571415
725 461712 697872
726 485242 470286
727 896272 954548
728 176548 1007246
729 161107 1018860
730 1165 482438
731 331091 551010
732 376924 829836
733 370119 890554
734 343427 529274
735 483274 704934
736 11171 485899
737 95169 560316
738 499788 38235
739 61391 570803
740 159531 45607
741 20706 508070
742 493864 34756
743 67533 80393
744 707783 845601
745 89137 46562
746 348346 546892
747 359984 571289
748 789483 874593
749 480257 435850
750 669765 864697
751 8641 466800
752 855970 935633
753 395689 580044
754 534814 -16542
755 457284 456256
756 93567 88585
757 42074 593206
758 854646 906538
759 519105 59041
760 38662 577707
761 830711 961844
762 22720 452683
763 74718 573920
764 170515 968024
765 499516 59038
766 518194 431390
767 100603 89813
768 813757 909573
769 875357 901686
770 437936 436590
771 326046 881532
772 68577 564616
773 85380 37289
774 367868 579652
775 94583 84811
776 884477 908449
777 542408 688088
778 402706 880411
779 -408 486541
780 422559 896083
781 525559 -29174
782 507428 455212
783 49517 83569
784 340012 571944
785 105560 80650
786 521875 444226
787 692192 855040
788 890130 929944
789 798473 895373
790 876785 919219
791 673121 865545
792 842465 879364
793 781944 888836
794 795540 895075
795 430374 573911
796 40843 496707
797 660544 893453
798 153401 40885
799 475692 473547
800 371502 570557
801 100229 106754
802 779042 849068
803 500729 37846
804 434273 462250
805 710511 810402
806 540521 -7206
807 667004 858749
808 761893 903041
809 8209 90833
810 215718 983763
811 830366 876399
812 136596 997120
813 150947 993961
814 442229 661983
815 73199 541668
816 770730 869152
817 40578 552994
818 -25755 474712
819 171660 1022741
820 21242 485003
821 412351 577540
822 191941 1004047
823 500104 -696
824 -3710 464960
825 55285 19268
826 59281 111449
827 495860 669306
828 650855 878134
829 509062 669874
830 -36571 466097
831 500976 689302
832 527894 -5581
833 345052 872453
834 387925 858830
835 432075 883127
836 490790 477552
837 405938 567177
838 526914 20235
839 40394 463376
840 524359 632
841 853002 933207
842 488709 29006
843 746959 852847
844 880738 921353
845 340317 611241
846 472470 436586
847 518103 -24260
848 21928 473358
849 103403 83516
850 513121 446807
851 199123 1002031
852 176842 975727
853 208638 970582
854 428824 852518
855 360020 891672
856 489147 17029
857 416044 562196
858 104010 27078
859 556459 438799
860 93142 99404
861 638610 875825
862 825109 915798
863 187879 993165
864 428952 670700
865 760794 835297
866 477503 715091
867 126358 1039678
868 350750 910311
869 73117 96881
870 866928 936445
871 72166 528453
872 529676 741663
873 36559 466299
874 369173 563622
875 121834 592993
876 480271 465438
877 105626 532901
878 116128 554883
879 96409 54883
880 396671 845690
881 20181 508999
882 38086 570766
883 47895 477184
884 841117 893666
885 158597 1002563
886 62810 593562
887 802821 913243
888 488800 -7301
889 917904 948089
890 695345 845555
891 510231 24651
892 155012 999485
893 45420 56390
894 36068 556430
895 510502 -6548
896 925387 963861
897 910803 976626
898 473545 460661
899 638746 869727
900 166899 1000125
901 527607 28660
902 411318 585208
903 415272 628865
904 472545 643308
905 684741 836474
906 652566 882534
907 353643 550788
908 53632 92224
909 783046 851957
910 34152 475432
911 70546 550831
912 476764 462399
913 29374 572139
914 550015 19103
915 649809 819977
916 685195 871404
917 406228 849838
918 866528 925368
919 700719 903715
920 812430 920207
921 134445 73523
922 540553 51068
923 446028 414851
924 104219 536881
925 114204 991569
926 503388 -33259
927 727891 847364
928 542 414004
929 790875 919309
930 864511 973989
931 342909 866020
932 487336 713783
933 173527 1045634
934 512403 423697
935 723189 867181
936 172032 1003149
937 779369 861623
938 454375 666365
939 200215 980213
940 717281 845241
941 892521 959888
942 509032 699493
943 888001 976716
944 357166 870076
945 413118 556207
946 520237 477210
947 476325 -31417
948 55558 78779
949 169064 987272
950 379323 827765
951 448130 736339
952 69164 452958
953 391171 580669
954 209683 1035017
955 60976 466308
956 393955 620909
957 201587 973034
958 692287 862452
959 499381 67150
960 848239 926904
961 376762 594748
962 630776 808016
963 356912 852335
964 144653 48372
965 677246 886117
966 380255 600117
967 656819 886090
968 434508 720497
969 762135 958170
970 84262 47625
971 780410 876546
972 69298 555123
973 30149 488875
974 629123 795638
975 373034 527926
976 639539 897419
977 2270 484203
978 487342 62280
979 344646 548086
980 645282 846628
981 348899 865665
982 45709 571908
983 774758 921843
984 839168 894914
985 152090 986246
986 519341 9353
987 487269 712507
988 826264 922097
989 447547 730473
990 676332 842995
991 461262 33499
992 479125 656312
993 615103 810206
994 770216 886689
995 712174 850522
996 114115 21912
997 473921 60422
998 498859 31307
999 853710 964251
1000 109840 86122
1001 738744 911677
1002 657385 922826
1003 64005 570154
1004 209913 980568
1005 870952 889752
1006 60484 582072
1007 486511 473079
1008 348991 604881
1009 851119 952930
1010 524807 728063
1011 -19756 473900
1012 33226 89758
1013 95535 100389
1014 661319 864283
1015 679594 809169
1016 678426 825845
1017 349044 632914
1018 752963 861892
1019 120320 30563
1020 219564 981936
1021 484895 -11055
1022 358743 591255
1023 751942 900197
1024 509615 682855
1025 488859 393006
1026 87446 35434
1027 450973 701790
1028 648103 889569
1029 558082 32008
1030 357894 613955
1031 502597 496645
1032 888487 938028
1033 378118 888392
1034 477261 433612
1035 127144 47910
1036 101869 528910
1037 183114 945895
1038 99902 79895
1039 446330 706108
1040 94457 561560
1041 332488 880968
1042 395592 533946
1043 385344 598699
1044 183630 984117
1045 386869 895446
1046 417381 829212
1047 478000 428034
1048 190344 1024850
1049 404890 507303
1050 503390 697132
1051 747880 881596
1052 919244 951506
1053 374707 841949
1054 526146 422110
1055 525843 34646
1056 480620 452866
1057 69544 560344
1058 551845 -21647
1059 363315 601017
1060 485840 439261
1061 -22993 478970
1062 452043 48912
1063 769179 901165
1064 497528 -7756
1065 480439 491396
1066 74428 557866
1067 608406 842960
1068 653958 877673
1069 863460 934840
1070 66112 558885
1071 445496 460992
1072 84392 90279
1073 669754 922218
1074 49930 575462
1075 381564 559301
1076 473978 438206
1077 473973 489128
1078 494498 18921
1079 849151 958753
1080 802276 900800
1081 418614 450872
1082 485184 741460
1083 760702 901598
1084 44941 550106
1085 111515 514297
1086 478210 505547
1087 685982 889916
1088 534128 683433
1089 759908 933936
1090 349145 850593
1091 523696 482239
1092 213498 957320
1093 663372 859236
1094 531326 26907
1095 392754 848245
1096 110854 577295
1097 169929 1007664
1098 404153 860560
1099 492660 686040
1100 760680 911566
1101 516099 723498
1102 808700 900729
1103 408405 840043
1104 487834 734832
1105 118638 87107
1106 773885 859618
1107 858462 905937
1108 95268 1032084
1109 247035 923526
1110 655634 861529
1111 851019 871175
1112 442757 466723
1113 472581 731232
1114 752793 867121
1115 93955 515199
1116 476481 709391
1117 107838 74498
1118 572037 1520
1119 561496 477491
1120 821727 914639
1121 117730 60742
1122 171363 979164
1123 482078 424645
1124 870088 898477
1125 512092 510194
1126 435164 723400
1127 451034 688776
1128 6165 481966
1129 112285 577381
1130 95248 105202
1131 400285 842827
1132 91228 58352
1133 476741 691492
1134 522462 -8859
1135 449749 722330
1136 40648 469114
1137 497063 -22028
1138 362406 587416
1139 715891 821194
1140 705994 869037
1141 486117 5148
1142 384245 543053
1143 351755 869538
1144 44076 602572
1145 93663 93610
1146 789791 918069
1147 374893 833240
1148 347743 537737
1149 236173 1001687
1150 355857 866378
1151 71485 549361
1152 440760 415799
1153 490039 721640
1154 512023 60532
1155 641698 876495
1156 353111 860288
1157 866159 927685
1158 508267 20082
1159 168319 52679
1160 176554 1018285
1161 818400 906825
1162 871638 957085
1163 512532 491259
1164 672562 853762
1165 457416 -36694
1166 648721 797936
1167 499397 521208
1168 483087 -6756
1169 540129 -18304
1170 790379 838599
1171 347614 879857
1172 475183 707984
1173 491316 448352
1174 480495 484831
1175 871846 943062
1176 858822 933079
1177 34439 71877
1178 709296 843889
1179 73263 76205
1180 371609 640111
1181 675474 882259
1182 180686 1048273
1183 849409 959390
1184 512188 439478
1185 123340 86853
1186 411607 847363
1187 661340 898527
1188 381628 552202
1189 338954 628453
1190 776888 926044
1191 519337 -12464
1192 514337 -10017
1193 510090 732225
1194 794265 898199
1195 39427 560530
1196 634167 889336
1197 469812 743723
1198 368271 578686
1199 400182 547064
1200 475974 19082
