NAME : portcgen-900-905
COMMENT : portcgen N=900, seed=905
TYPE : TSP
DIMENSION : 900
EDGE_WEIGHT_TYPE : EUC_2D
NODE_COORD_SECTION
1 428614 75520
2 341844 84258
3 472334 251203
4 455906 69829
5 471754 587958
6 419127 141212
7 107174 604640
8 913425 951182
9 217682 -27558
10 508579 594596
11 89597 646882
12 887416 927197
13 434436 622811
14 887452 966654
15 510004 533298
16 166061 -3981
17 519016 626030
18 426594 203404
19 117280 649083
20 482426 222973
21 196290 14100
22 887461 898972
23 490658 211870
24 56211 657322
25 496431 558819
26 442018 141093
27 472970 84018
28 490675 579853
29 395812 576400
30 426887 589860
31 867426 163670
32 483238 207389
33 162469 -13754
34 481572 143920
35 863447 236076
36 226208 41959
37 355735 85906
38 367476 64948
39 868316 867530
40 418857 61462
41 80133 648577
42 235201 30546
43 512759 620369
44 471226 544119
45 384042 96388
46 478873 556370
47 251064 29647
48 436014 214828
49 508255 619051
50 524750 553571
51 378788 103180
52 408630 655486
53 478424 40339
54 251893 22776
55 482379 591867
56 906887 164724
57 362265 26160
58 437268 227426
59 343122 159589
60 886554 897420
61 505172 585622
62 115187 647803
63 180046 50299
64 853164 202009
65 861915 198052
66 187277 54877
67 398521 81347
68 486618 589943
69 533480 572760
70 842171 943359
71 151897 34820
72 909718 183102
73 449691 550351
74 530448 606325
75 338748 51103
76 463219 197118
77 467413 125781
78 196799 28225
79 101351 659717
80 385375 39063
81 245916 -50645
82 907632 967502
83 206052 13082
84 470360 587473
85 472446 91699
86 405971 153128
87 518199 218969
88 166250 -22812
89 426923 594655
90 284437 55571
91 486842 231192
92 936842 925670
93 340597 130721
94 153621 630368
95 458479 55575
96 889087 261129
97 162745 -33620
98 501869 234504
99 952489 891372
100 879859 900990
101 880742 963670
102 945179 1012479
103 326394 54147
104 843311 215715
105 120955 640972
106 459950 108595
107 68062 667229
108 921841 943868
109 394050 652519
110 456284 548183
111 221572 43786
112 884906 209480
113 499311 593228
114 322924 84887
115 369535 35203
116 349487 148973
117 879706 992806
118 461768 584047
119 188938 19129
120 477433 604253
121 378954 98963
122 475301 206570
123 880405 233625
124 840519 207997
125 910085 971349
126 859440 928389
127 484667 247842
128 430043 178808
129 490579 213085
130 950472 915599
131 206147 23478
132 349889 31101
133 541062 574547
134 379471 166548
135 556987 565675
136 70198 592262
137 895943 186742
138 243567 5586
139 903266 913996
140 513370 218224
141 481461 244126
142 16000 641455
143 472926 581092
144 509619 634484
145 878774 180806
146 500349 154961
147 163562 -3365
148 28743 692801
149 385833 105512
150 486990 227962
151 490178 110886
152 183456 31643
153 892147 174162
154 408338 86781
155 902835 939535
156 85438 687844
157 431974 241947
158 123763 694759
159 167668 51964
160 431421 204403
161 401259 58315
162 245864 24369
163 474576 80069
164 896129 925793
165 458390 565052
166 422132 222517
167 477810 199614
168 363062 116252
169 387978 74642
170 354545 95434
171 94592 670627
172 903405 189616
173 906096 952342
174 72101 575375
175 466702 570947
176 211229 -27020
177 528555 605277
178 967218 1011189
179 183936 35883
180 491661 563386
181 485344 568898
182 498346 550010
183 472715 58556
184 212780 -6457
185 889084 174931
186 467986 216145
187 459587 213497
188 892692 243425
189 393836 41845
190 308102 85076
191 867827 914648
192 515474 571742
193 435795 603282
194 469377 115000
195 -3273 617559
196 887478 924707
197 517115 607524
198 461352 137655
199 42620 633882
200 535429 605243
201 886088 890526
202 245199 21337
203 536201 126323
204 108807 692280
205 887000 974113
206 382631 93046
207 935969 213067
208 410784 123661
209 486774 623673
210 909782 957516
211 462202 576059
212 4404 626928
213 200701 65179
214 35775 606670
215 403475 243873
216 465251 619198
217 489473 41843
218 539848 564797
219 487172 579861
220 484147 574071
221 268403 -63063
222 266368 6052
223 319537 7266
224 123135 654167
225 492206 194188
226 201927 28403
227 414044 535214
228 355245 69697
229 526757 595369
230 880793 889947
231 239158 36021
232 861112 950749
233 453517 453
234 335238 73974
235 65520 600420
236 344858 107250
237 384378 28922
238 464731 129727
239 913270 249369
240 909488 176720
241 122088 668586
242 175912 13055
243 152023 84466
244 876155 172228
245 456910 177747
246 423934 581516
247 478455 114044
248 494434 214415
249 283459 110783
250 41785 597665
251 527485 582749
252 48696 631521
253 871788 241675
254 917655 924694
255 863027 249734
256 931225 946166
257 905818 235560
258 497536 624864
259 50179 667585
260 360023 109033
261 483018 222782
262 844742 884785
263 452555 608781
264 189431 39093
265 451307 573494
266 924761 885922
267 500947 542294
268 520570 595081
269 186570 43585
270 874674 995163
271 488522 114105
272 445401 559981
273 131031 652678
274 27822 613163
275 129077 -1531
276 452584 630520
277 475339 587102
278 459862 91992
279 452831 555609
280 401843 204432
281 257436 20909
282 866241 276225
283 76039 634162
284 473400 612795
285 161569 37231
286 65016 597085
287 138571 32696
288 197571 -16510
289 489989 564289
290 470754 266906
291 431416 179304
292 524323 604632
293 456232 279414
294 442046 568590
295 413208 85035
296 911442 210136
297 172141 4043
298 884451 966232
299 194162 30605
300 154223 79331
301 208391 -15365
302 65318 679609
303 406393 158034
304 222793 -83305
305 315890 143341
306 497468 216694
307 343716 90070
308 933916 190823
309 932749 928904
310 870825 970326
311 406758 666623
312 209978 -33808
313 902988 891513
314 857471 975922
315 875023 147214
316 323368 83237
317 405578 655553
318 459206 594094
319 466362 165210
320 429977 635074
321 506743 174759
322 502830 567481
323 300763 74570
324 917208 999518
325 904304 195131
326 456616 60111
327 518872 566942
328 492987 195954
329 901672 216047
330 332095 54757
331 898799 976399
332 904606 245411
333 198601 54272
334 464160 240215
335 507856 569682
336 377914 71201
337 153396 39094
338 466913 279137
339 180501 -21483
340 131132 37450
341 874595 885578
342 478751 586043
343 517979 651402
344 186887 -12143
345 84136 656719
346 86069 680760
347 869318 986744
348 197832 -33091
349 912472 132506
350 159090 19946
351 498000 579610
352 898440 1003209
353 152202 -3886
354 550224 583178
355 844044 943054
356 60201 636558
357 310682 99856
358 503488 585524
359 886436 173067
360 893635 955608
361 322345 63833
362 1010132 185801
363 25628 587141
364 401150 531267
365 351213 42736
366 465547 79796
367 56711 632235
368 493256 620903
369 922586 209836
370 519400 199951
371 399658 33822
372 150716 32103
373 106212 686126
374 488771 623783
375 475379 577812
376 452453 195320
377 67800 675706
378 931098 196940
379 388918 41561
380 169470 21099
381 408246 259664
382 465767 182805
383 491829 603367
384 388119 87720
385 213279 -7065
386 466044 92476
387 482181 86723
388 367701 86133
389 143959 7951
390 232092 16020
391 469551 88060
392 25300 636138
393 842844 238230
394 435246 256290
395 498372 83890
396 37059 621466
397 155974 -21272
398 467060 73929
399 446342 136071
400 582795 546089
401 473063 628822
402 465257 111846
403 365149 57953
404 338116 127128
405 504492 129868
406 137744 653035
407 315396 55829
408 463193 221217
409 164325 -3594
410 455160 244478
411 932761 987128
412 324791 136786
413 199610 74751
414 83185 686305
415 424665 261969
416 78512 611989
417 414088 92709
418 470736 200826
419 383800 248904
420 857590 947300
421 895275 157914
422 343507 68116
423 456782 100570
424 96978 658029
425 453103 572544
426 512990 554679
427 504273 212035
428 486242 515174
429 901688 978993
430 946646 961810
431 480362 123627
432 811534 206284
433 502135 186418
434 864187 951206
435 904160 908120
436 84284 603542
437 33587 637161
438 205331 -4595
439 485545 614353
440 119494 609111
441 72268 628920
442 935230 164673
443 432701 190872
444 365689 104526
445 358660 73362
446 516075 122093
447 466402 184745
448 490436 237868
449 435163 65234
450 374456 506340
451 447220 234455
452 412527 84743
453 88203 672598
454 137480 19630
455 837533 926569
456 502202 577761
457 182455 -14288
458 482610 104207
459 514948 614720
460 465256 117345
461 546651 532988
462 541739 607183
463 535217 241560
464 90997 644279
465 57932 636965
466 439679 241603
467 899283 884829
468 887949 234652
469 422451 239425
470 421530 559211
471 228615 7583
472 471602 574680
473 395584 54049
474 501634 592123
475 362877 65638
476 65610 633247
477 467408 241400
478 834518 873840
479 888605 240652
480 479246 530737
481 448387 103909
482 371425 74782
483 524048 597253
484 381428 85371
485 880224 866321
486 477305 544553
487 426046 183570
488 58289 546934
489 969133 200589
490 933063 931602
491 936174 965650
492 198980 37843
493 534246 561686
494 152487 30301
495 422083 222736
496 889906 900156
497 217475 13790
498 464758 175430
499 453282 174772
500 500316 192278
501 466491 567251
502 252551 -6249
503 204652 52614
504 56948 615337
505 528700 632157
506 184471 1101
507 442588 524300
508 165850 30569
509 864216 956988
510 540563 578776
511 902470 921227
512 913608 162198
513 480787 61249
514 861972 172850
515 926809 918680
516 428911 55772
517 209249 57931
518 502634 164683
519 470149 69322
520 552527 582180
521 343859 36224
522 504935 544339
523 48619 650644
524 840964 194028
525 470247 85783
526 888249 187373
527 418149 224490
528 844805 229193
529 890392 169618
530 488314 34911
531 198440 4424
532 39759 648484
533 79799 646228
534 512388 135601
535 520663 517144
536 487704 550449
537 177646 5844
538 883786 151364
539 494517 576936
540 923605 161269
541 500190 621843
542 511249 591781
543 396371 570079
544 889941 244429
545 179703 889
546 78575 580846
547 459575 236762
548 185616 14514
549 533150 521292
550 549252 585816
551 420398 20739
552 93913 655792
553 883282 908461
554 50309 630507
555 889794 944520
556 914252 965056
557 472846 576421
558 450501 209517
559 494177 133180
560 210966 -15545
561 867551 176367
562 857592 924430
563 446245 49803
564 367525 59495
565 369065 69356
566 72251 615998
567 441718 232520
568 548347 550320
569 132318 683073
570 858665 214315
571 172581 30098
572 79013 637609
573 880267 939808
574 526209 614934
575 475293 628788
576 495727 90007
577 864907 986737
578 849619 204119
579 855459 206242
580 199539 -3263
581 213991 33246
582 459815 210882
583 877686 937457
584 468920 541351
585 318544 83770
586 421985 149501
587 437009 182378
588 898079 939817
589 399049 86016
590 429974 238786
591 506672 593739
592 213847 24138
593 458499 190783
594 472997 102554
595 436799 184444
596 447629 575563
597 185802 -56900
598 449065 205407
599 413505 108093
600 441278 578834
601 884460 923932
602 855843 215670
603 326031 68697
604 45152 672646
605 371748 167508
606 329021 57852
607 172861 -5875
608 424933 136093
609 405655 257520
610 862273 932194
611 168591 11934
612 519387 636863
613 901979 186849
614 497478 174847
615 337598 92386
616 862696 205539
617 502462 176856
618 56637 698372
619 584853 569391
620 457816 137158
621 35915 609588
622 392464 87246
623 516179 611941
624 929183 926020
625 485131 608366
626 889447 926311
627 380548 141113
628 479488 84573
629 316216 53402
630 481595 86316
631 334053 20641
632 391688 86371
633 407392 48174
634 451964 623379
635 322557 47882
636 532752 556789
637 43728 645806
638 882848 191567
639 371101 55565
640 548729 538275
641 412784 109212
642 198002 -55861
643 433897 546230
644 377589 98131
645 511807 607629
646 484993 39031
647 386730 83711
648 147903 31461
649 190468 -8541
650 878337 167556
651 902330 223557
652 464353 90668
653 522272 232613
654 510291 586427
655 899998 947407
656 809252 973092
657 473255 614792
658 465306 110795
659 486799 587099
660 525160 585413
661 546969 570247
662 352527 43966
663 486509 235421
664 387546 119269
665 926684 973639
666 579736 596889
667 346538 106479
668 182559 -23945
669 46926 653975
670 538414 571084
671 534554 627599
672 96457 631545
673 363022 54656
674 364411 61421
675 473901 610209
676 893571 188616
677 503586 574254
678 454662 565296
679 507947 119257
680 364520 75246
681 -5252 611541
682 154965 8812
683 932580 959987
684 504075 221319
685 465245 598942
686 467623 130644
687 469925 631083
688 343509 143549
689 472488 594826
690 110909 619955
691 332613 20423
692 482715 193419
693 443267 544655
694 843525 196639
695 467377 35652
696 51410 580236
697 448508 269779
698 471672 208033
699 75725 697493
700 930019 997228
701 891444 204198
702 199994 17219
703 869131 1003183
704 30440 623825
705 -38512 666842
706 418260 193710
707 460198 601079
708 111028 658535
709 478870 210465
710 223097 -28204
711 474113 240599
712 937268 187265
713 144337 605654
714 943875 932741
715 181623 3476
716 180336 43286
717 462674 222391
718 163773 29779
719 881866 181518
720 880288 200715
721 187170 2109
722 371691 81850
723 218113 -17684
724 899229 224578
725 867285 967536
726 888520 937237
727 345368 107984
728 297681 95662
729 942241 194390
730 456079 79893
731 815423 180131
732 476431 566829
733 376599 70206
734 504517 144696
735 872842 891245
736 463410 616648
737 373762 22156
738 826327 198540
739 888426 957833
740 184420 48115
741 544015 604753
742 440438 475670
743 323089 71122
744 909413 281862
745 456777 83463
746 874685 936202
747 919962 907930
748 522526 540836
749 184972 16031
750 488356 620897
751 862245 228038
752 425284 112815
753 467063 563424
754 483887 59062
755 446277 230324
756 899596 157815
757 64149 557777
758 216540 7678
759 144176 45966
760 520367 525899
761 551292 581080
762 87734 631872
763 430542 216628
764 444868 184040
765 92203 634865
766 910538 1010445
767 875768 931934
768 556872 574208
769 27044 622627
770 850035 881590
771 415746 101139
772 429726 204701
773 897629 899436
774 548970 574326
775 441709 566581
776 474420 72890
777 74557 673548
778 149391 16999
779 532048 586064
780 429584 251212
781 468729 98550
782 170987 22941
783 917241 164377
784 465517 588875
785 430059 195337
786 69459 659398
787 197097 70842
788 359671 71093
789 955759 894980
790 426432 209470
791 206941 33412
792 437044 214926
793 851312 172298
794 198545 2442
795 925006 891182
796 880574 966611
797 327966 103691
798 489899 197789
799 426199 143331
800 473957 520246
801 501095 157814
802 494790 217169
803 876737 986832
804 481414 592696
805 872401 966744
806 502695 517432
807 106633 646064
808 901124 198081
809 507353 64129
810 485084 597226
811 100512 631324
812 473625 570922
813 464968 125002
814 118785 662131
815 926733 284222
816 532096 238179
817 901816 171263
818 441103 671142
819 63934 623962
820 443976 117870
821 227990 -8807
822 353456 117392
823 462715 577132
824 464052 565399
825 932109 881963
826 498244 599149
827 440005 98525
828 489718 582623
829 448597 221795
830 893631 937085
831 368706 140556
832 918505 959191
833 533368 625011
834 503693 554151
835 430126 69688
836 460611 191706
837 522012 546348
838 217580 -19915
839 317430 76982
840 831384 185476
841 429096 239978
842 422325 614773
843 458556 157696
844 474522 74541
845 471438 611929
846 555551 554998
847 870698 211866
848 424815 585241
849 409188 95061
850 891005 230856
851 511179 568777
852 837220 191164
853 879067 174486
854 222702 -27561
855 881450 228407
856 94358 639953
857 910378 205739
858 78706 663709
859 486242 520031
860 904983 185155
861 487814 102232
862 370384 102202
863 454833 239219
864 431449 531982
865 191797 16757
866 526103 239233
867 349754 74839
868 511409 642215
869 449937 117546
870 486168 551440
871 479113 549419
872 322172 82190
873 415958 150694
874 488341 549322
875 106067 639519
876 454462 67600
877 928337 908651
878 32261 637120
879 456232 571294
880 377193 48905
881 474780 584399
882 913013 176416
883 885889 164361
884 523500 587773
885 372600 11034
886 890384 889752
887 447539 103084
888 480693 136935
889 947273 958393
890 420708 249711
891 462666 219985
892 401476 62411
893 450389 221289
894 396349 143732
895 347394 75893
896 521739 549659
897 191765 36
898 552992 610890
899 535062 113609
900 499777 561339
