NAME : portcgen-1200-1207
COMMENT : portcgen N=1200, seed=1207
TYPE : TSP
DIMENSION : 1200
EDGE_WEIGHT_TYPE : EUC_2D
NODE_COORD_SECTION
1 163890 622736
2 540349 442141
3 469574 336806
4 200920 647402
5 532599 455974
6 568011 135157
7 53219 131891
8 997865 521796
9 237949 261178
10 598944 128443
11 128888 641835
12 836649 193095
13 525942 382810
14 784341 971372
15 518924 365084
16 263739 275955
17 767717 1003319
18 1056332 532561
19 754998 931436
20 550136 429535
21 114783 195360
22 283847 42126
23 989496 590791
24 268301 84153
25 972628 619362
26 860856 250085
27 201749 272268
28 574564 455547
29 258065 69032
30 998631 573383
31 482596 362288
32 537741 435080
33 723591 309723
34 542961 406096
35 307634 144409
36 879239 188317
37 192933 842904
38 758030 268897
39 197922 615850
40 554873 161091
41 554798 115136
42 1028099 564227
43 111463 641176
44 753029 248598
45 867688 198306
46 153107 632097
47 566654 92176
48 480984 333682
49 108089 156530
50 591535 102880
51 238701 296630
52 670239 245884
53 588511 57210
54 866025 176554
55 87515 139739
56 476613 358301
57 51840 132436
58 472054 358055
59 281269 307943
60 771957 997372
61 164242 674352
62 778954 973783
63 556164 126032
64 763099 284596
65 516907 383359
66 824801 963581
67 162041 621295
68 581927 132589
69 736426 925062
70 555139 117555
71 668502 254679
72 52851 196223
73 231140 909124
74 305808 51344
75 712825 310575
76 727640 969681
77 938475 568016
78 756260 919918
79 215646 22106
80 544786 386178
81 851417 277895
82 215644 895133
83 298245 37348
84 756195 1020901
85 970201 549649
86 883944 232871
87 280164 331795
88 502827 376944
89 300598 22316
90 580659 480072
91 747937 980490
92 987751 572240
93 240774 936897
94 240803 86901
95 885952 231158
96 173916 737152
97 992883 606809
98 785489 986820
99 174399 682013
100 996272 574497
101 563905 407363
102 452096 321559
103 288070 311277
104 843345 222632
105 513562 382183
106 560611 465521
107 527800 320800
108 497399 362830
109 473027 372082
110 736560 1004334
111 559983 137777
112 450536 351678
113 867890 234672
114 463468 355227
115 257812 868704
116 864357 189624
117 203675 891562
118 192143 893208
119 263431 305499
120 302144 329044
121 530597 401199
122 234481 916180
123 1010237 592367
124 476017 308446
125 235778 334974
126 216002 859492
127 532193 315962
128 132864 651796
129 969054 581321
130 350822 39656
131 859754 146168
132 295292 289580
133 229783 885051
134 283665 298906
135 734406 997546
136 777597 281672
137 112418 621452
138 551188 371737
139 599546 109537
140 62147 190696
141 165818 595480
142 837851 214116
143 505961 396046
144 990708 540509
145 725901 276859
146 552417 438385
147 479583 284897
148 293288 18936
149 982682 539148
150 734309 958600
151 237743 877485
152 827916 209821
153 998470 593581
154 192724 899032
155 232207 915510
156 79716 141723
157 243933 893997
158 244965 58339
159 230680 944145
160 739265 1008789
161 134499 664313
162 251280 270583
163 147414 680846
164 961572 570754
165 61652 109939
166 533617 382237
167 523830 381584
168 870853 259223
169 65552 159969
170 562025 107072
171 963883 559644
172 53856 203184
173 950618 533767
174 288040 314347
175 526575 440976
176 249934 271585
177 57146 163714
178 851457 251141
179 535076 486997
180 270655 48486
181 169964 655918
182 214303 865734
183 58001 116911
184 224312 317016
185 594668 128951
186 516461 417113
187 287217 282974
188 802710 978842
189 775771 1055287
190 234072 865089
191 275188 69972
192 114674 139737
193 206571 920978
194 465283 385150
195 606116 129504
196 487700 323840
197 750362 939622
198 297673 83355
199 861326 275845
200 625086 84633
201 39306 145223
202 555187 65086
203 267452 282146
204 259861 247612
205 528980 467597
206 115338 119641
207 330725 17027
208 821837 219949
209 202895 898131
210 256203 229891
211 1035031 588546
212 75363 189559
213 174836 651924
214 257883 275810
215 681465 253666
216 773373 985409
217 593557 65986
218 572693 177744
219 483953 352878
220 803660 219597
221 490098 394002
222 316088 305423
223 237549 43859
224 84668 189826
225 451655 320255
226 521978 369793
227 764904 275889
228 573025 88768
229 521077 416033
230 239714 261632
231 906707 214086
232 191888 968880
233 726747 321070
234 180214 907456
235 76548 177560
236 723364 280200
237 783418 976997
238 785514 1003195
239 76645 135831
240 244680 101055
241 313385 33408
242 277736 79497
243 981668 571211
244 783771 963804
245 86840 184251
246 36704 184528
247 213247 862413
248 842524 228308
249 222040 855063
250 279971 21000
251 282923 68342
252 248491 876940
253 45798 129533
254 152345 655892
255 138068 895319
256 47054 139701
257 874418 213713
258 749371 982667
259 143938 642737
260 54802 143695
261 762062 266947
262 777209 268378
263 196634 263709
264 59822 154731
265 283065 337159
266 939765 552639
267 704726 262447
268 858538 187316
269 210038 900503
270 285308 289601
271 526021 410578
272 729549 1013843
273 77029 173577
274 569562 430193
275 841538 223553
276 164058 640461
277 554687 391356
278 163993 719795
279 243077 78792
280 786318 1012932
281 133810 933003
282 768972 978889
283 870048 228056
284 222166 835873
285 871723 237535
286 867239 252372
287 202233 916657
288 210591 872467
289 830875 223050
290 268544 45308
291 167998 893049
292 993967 543171
293 271423 323339
294 284598 301732
295 738642 297852
296 853419 208746
297 153303 689312
298 100819 152941
299 532434 120828
300 1015367 577664
301 52418 165658
302 664025 276018
303 308024 302061
304 15104 218247
305 72148 149969
306 842607 201223
307 287515 256893
308 13576 151701
309 225832 292222
310 504720 350669
311 180657 674925
312 485024 381652
313 194691 862317
314 477529 375750
315 289412 275692
316 527677 386582
317 285920 69350
318 1004205 612076
319 78019 149612
320 134630 181272
321 586198 150464
322 970178 544381
323 173106 896065
324 1013909 579681
325 590746 140379
326 573627 449144
327 872605 218030
328 87691 158742
329 729993 229218
330 782317 974296
331 301388 46046
332 185758 652196
333 565457 450549
334 768804 949658
335 79277 112168
336 1006585 575460
337 204812 667656
338 90674 141178
339 267958 33081
340 876600 188476
341 80323 153523
342 526225 391968
343 998470 569609
344 551577 394897
345 196633 880111
346 813265 224911
347 334009 91775
348 492227 419100
349 774406 951289
350 826258 208787
351 480375 362348
352 257028 24847
353 524735 90987
354 615220 124437
355 465643 331602
356 236876 858364
357 275208 69389
358 810394 225062
359 197146 76353
360 983931 500823
361 282752 313049
362 718773 309939
363 270393 277547
364 520801 416111
365 493733 368800
366 864549 206770
367 503838 122080
368 572012 92939
369 148193 896318
370 744528 1009335
371 994056 538352
372 192906 878753
373 69802 134885
374 14183 178851
375 586642 429569
376 263644 252627
377 262646 312101
378 795376 1015366
379 311059 319102
380 572034 116780
381 171168 668036
382 899806 191307
383 697893 300050
384 993022 587412
385 166284 909747
386 750816 277539
387 847146 197782
388 303301 73090
389 240907 309515
390 549941 423534
391 188929 889272
392 1003479 592350
393 810334 226811
394 155366 620967
395 542604 108181
396 152833 925998
397 1007615 588683
398 703903 248414
399 308260 284038
400 434922 336446
401 517958 352892
402 206222 249884
403 535538 108184
404 163160 677735
405 434418 333161
406 551317 456921
407 472248 399877
408 545065 100131
409 759449 316385
410 402772 332358
411 243251 891387
412 458491 355059
413 705372 299271
414 203124 292418
415 554319 150603
416 253331 59154
417 179785 681171
418 877045 256461
419 44098 123364
420 233780 263118
421 875775 217811
422 878747 249065
423 554474 104324
424 490630 403451
425 60646 144155
426 575256 67160
427 254125 298014
428 550832 435911
429 454743 348376
430 848173 248766
431 206718 296818
432 571917 102846
433 530253 390683
434 720463 274851
435 531273 425653
436 619629 57197
437 221844 858416
438 729144 329913
439 777802 991815
440 719704 316824
441 190154 919816
442 496933 323095
443 652495 65337
444 342084 39646
445 789381 1008070
446 766700 318335
447 731936 243095
448 178338 660827
449 730422 294529
450 786401 270564
451 553608 121952
452 813450 198069
453 248015 305914
454 943313 554290
455 545275 453233
456 147257 649642
457 200885 896698
458 567965 403430
459 746714 1003543
460 132169 156061
461 972040 592241
462 189195 671690
463 495153 344708
464 222053 911911
465 231912 276329
466 193670 854236
467 120390 119903
468 759059 1053068
469 147066 636176
470 133710 674161
471 171373 682068
472 561877 72225
473 164226 862303
474 180732 637749
475 432212 354526
476 895738 218430
477 99867 135489
478 595547 358809
479 696818 252229
480 795169 216011
481 828320 171300
482 954410 593374
483 584771 398860
484 180361 919861
485 970343 537282
486 197530 698735
487 996759 587820
488 337638 61290
489 1016465 573459
490 178284 899901
491 153723 608358
492 994412 552161
493 973076 614720
494 196566 669757
495 128168 669347
496 127523 661969
497 165911 665637
498 550635 110762
499 855709 243347
500 90343 132821
501 545358 407037
502 288490 -1212
503 859967 200618
504 588773 316309
505 77438 182838
506 738556 958014
507 265680 254665
508 845358 210697
509 706257 255631
510 457151 327352
511 720532 338886
512 595916 457017
513 582514 385880
514 482620 355545
515 16971 167008
516 204028 237051
517 213920 278429
518 758694 983238
519 254235 275898
520 462346 340293
521 149595 621616
522 219207 911431
523 254121 260910
524 270745 294125
525 268171 27415
526 280375 115530
527 134844 620141
528 317778 7596
529 248435 844736
530 61038 195444
531 142257 639039
532 277781 307834
533 521543 343511
534 778300 992154
535 269543 284473
536 193405 853720
537 226376 280174
538 232943 296314
539 308733 28257
540 610720 115465
541 700695 291718
542 536144 156132
543 726359 285769
544 970830 569268
545 56859 129332
546 1017324 592347
547 751372 968210
548 82519 190183
549 115457 682047
550 574548 126712
551 854309 206477
552 245782 886540
553 299015 32230
554 832832 223323
555 434835 325583
556 753674 274339
557 120201 650246
558 274821 78316
559 211075 884364
560 495504 342775
561 78420 193477
562 274049 83343
563 535593 73075
564 973803 588120
565 975688 576026
566 203838 872052
567 556417 124649
568 726079 301350
569 188074 875757
570 869561 211917
571 221316 104095
572 722073 271685
573 856876 166201
574 1037919 581665
575 575872 425626
576 1009210 553183
577 777184 284719
578 331704 73304
579 501467 352085
580 548136 461253
581 598642 96912
582 707162 286045
583 765914 990529
584 848922 232555
585 652624 116767
586 43808 153385
587 778774 1009651
588 117947 201853
589 781498 996163
590 870416 175077
591 550906 411798
592 875434 169400
593 773227 998238
594 239390 306327
595 823959 205133
596 85414 142805
597 752908 308802
598 273790 294778
599 240098 268270
600 276671 277694
601 289906 21956
602 530096 397849
603 603006 402481
604 186401 639417
605 176684 618266
606 307653 82964
607 742110 945706
608 1004752 608682
609 848935 230205
610 483257 378567
611 555578 400533
612 260134 266345
613 267471 863133
614 263935 312129
615 866571 268776
616 537087 343334
617 757888 948929
618 818420 197490
619 494263 337190
620 210296 899353
621 530837 307491
622 540035 411090
623 539751 360461
624 247472 28437
625 741437 995799
626 240193 64695
627 297254 65483
628 527619 406976
629 480600 368314
630 289913 101376
631 166145 931655
632 1008694 652206
633 567628 401950
634 898181 192531
635 862066 205661
636 716910 331898
637 573676 126205
638 747794 994986
639 769211 283900
640 44305 141402
641 180360 904632
642 818701 244178
643 827300 202504
644 268372 50810
645 181019 885529
646 550384 399453
647 733691 980047
648 536202 125118
649 1031419 563098
650 158616 651497
651 602772 92515
652 157837 735625
653 845374 217586
654 739308 302381
655 862106 203878
656 1020335 566282
657 494599 414868
658 714905 321388
659 140374 870657
660 581043 93648
661 120974 618405
662 857120 205198
663 148575 646730
664 489623 329820
665 671893 251995
666 64740 184801
667 179967 894376
668 577815 97130
669 509459 84911
670 270247 278880
671 273350 38875
672 40392 151812
673 103864 183908
674 468514 404556
675 158385 648067
676 699222 262306
677 830659 186478
678 845836 228651
679 779978 957350
680 779835 985573
681 105376 635046
682 594715 367129
683 259222 304254
684 101265 158452
685 300182 24646
686 576740 432635
687 152202 887504
688 240011 62263
689 537240 92714
690 515143 374068
691 835668 257960
692 198595 849073
693 627045 115652
694 467669 302181
695 744529 249036
696 805804 231985
697 123955 662666
698 264837 30918
699 194271 895411
700 299805 2329
701 21803 128315
702 178965 937313
703 483273 328469
704 1041257 603295
705 951603 568177
706 242741 317271
707 266719 345149
708 1010684 536422
709 982348 550558
710 202568 914845
711 936134 540920
712 741180 254898
713 832994 202980
714 74473 171084
715 966505 592650
716 751305 276378
717 218119 907176
718 811560 948887
719 157665 673237
720 256984 318267
721 175410 606168
722 431277 308388
723 62837 90832
724 858245 246404
725 737709 261037
726 720905 275553
727 246958 880356
728 766417 989139
729 671964 287542
730 1010336 594617
731 267677 54266
732 865247 238497
733 239418 261729
734 890009 259699
735 491714 456909
736 549719 411998
737 242304 841334
738 518566 101245
739 760807 947748
740 955710 570511
741 743940 275902
742 590574 126354
743 758655 324187
744 729073 286741
745 704447 370562
746 979689 560162
747 492728 398038
748 309631 331951
749 1003213 510243
750 866271 205033
751 315636 294526
752 747180 1061586
753 247267 295521
754 75278 149635
755 1014628 531785
756 192695 686181
757 985513 592689
758 850165 239234
759 532413 376568
760 255664 269509
761 164475 614602
762 910349 602078
763 715166 303685
764 533463 369752
765 45849 172506
766 228520 36239
767 503589 352504
768 743419 287533
769 264989 319829
770 224943 920483
771 203863 871953
772 495661 381062
773 739811 308820
774 545082 108869
775 803892 209273
776 290895 32533
777 214697 306367
778 831860 196629
779 732530 263917
780 154229 665857
781 317295 60960
782 850318 189697
783 172469 657632
784 479422 372513
785 566644 400283
786 995870 615401
787 269881 298932
788 841592 135121
789 587096 88511
790 192977 883207
791 544662 409612
792 486158 385019
793 622832 74626
794 149568 658179
795 762249 1005064
796 156278 669469
797 478176 386975
798 487717 381554
799 593181 61489
800 1033011 596755
801 1004550 585388
802 176174 640031
803 254113 324419
804 154637 623256
805 562159 151449
806 753438 270926
807 208210 856626
808 594639 138000
809 290868 292313
810 831717 208257
811 763419 991487
812 678169 307741
813 517746 338316
814 322842 59919
815 191156 670424
816 489508 352708
817 200221 629211
818 278259 61885
819 553201 137619
820 681479 293031
821 524807 346424
822 575135 431733
823 881194 163109
824 79314 177136
825 501822 382955
826 555137 131819
827 859103 155320
828 186798 661467
829 729449 249442
830 548088 93558
831 190169 269661
832 276142 63829
833 77050 167743
834 133933 140559
835 315861 -18487
836 300832 315477
837 578155 93778
838 176053 591774
839 305787 67839
840 786002 193625
841 568935 380512
842 194245 613669
843 263938 261842
844 791837 1033977
845 197208 721144
846 584751 96129
847 1009164 584631
848 549724 139906
849 326578 86611
850 132543 880565
851 753165 311422
852 288509 265067
853 1022878 600326
854 781851 998152
855 577829 460763
856 579513 107520
857 757827 221675
858 163670 675419
859 491767 395878
860 1027707 549931
861 150685 650896
862 524722 157773
863 69015 194125
864 826139 947046
865 41344 220912
866 209087 263208
867 965998 558768
868 195610 920737
869 283799 282643
870 537430 398734
871 546288 447412
872 63923 150058
873 707919 1020793
874 769988 955858
875 838736 194365
876 490650 405235
877 963862 573372
878 114791 639001
879 480973 311918
880 187194 622937
881 291493 229057
882 149417 654209
883 494133 323867
884 1001587 588473
885 230685 299070
886 965400 568849
887 768823 977221
888 884184 178906
889 816085 1018338
890 528225 349965
891 43566 134000
892 541031 120788
893 976932 559050
894 551943 425188
895 592752 166592
896 748321 975880
897 184709 656184
898 783515 1017072
899 169995 941261
900 741632 1024752
901 754328 994885
902 141530 818592
903 47736 94882
904 267631 59379
905 852781 250325
906 988257 564128
907 304531 40009
908 275957 62125
909 215817 307946
910 42265 135338
911 528334 351998
912 257733 -24578
913 168954 695363
914 605726 92712
915 992071 508477
916 295982 279171
917 161846 661907
918 736260 286030
919 591242 113634
920 311103 302526
921 79436 177923
922 290184 16920
923 768997 1007334
924 744360 295862
925 519508 339824
926 341295 66535
927 246753 890511
928 448049 372566
929 664424 313619
930 504985 392612
931 212829 863455
932 730243 234367
933 310248 52340
934 452255 348639
935 536327 411239
936 589648 473107
937 481857 355900
938 280753 5216
939 121277 659372
940 774237 1013806
941 494404 293412
942 988372 562900
943 153528 634257
944 216260 274914
945 823870 192970
946 568798 387658
947 750241 952196
948 216280 925479
949 232017 297641
950 1058402 552530
951 973844 585563
952 297189 29481
953 115123 658783
954 756652 1017107
955 789875 954029
956 525422 459991
957 680636 248073
958 164795 870324
959 210405 293946
960 968652 588642
961 123753 596428
962 1014701 569541
963 210177 207054
964 232077 19752
965 723064 969223
966 247743 301588
967 759975 1007968
968 272058 270627
969 462141 330396
970 200375 655418
971 247748 238876
972 1015449 571312
973 726295 982007
974 846768 216988
975 789758 961290
976 858549 237699
977 180283 656924
978 470601 459902
979 713559 301947
980 184747 672016
981 479952 339035
982 584316 140868
983 704703 979906
984 205616 894338
985 539758 358183
986 768806 965822
987 310331 89202
988 769649 956910
989 259382 84411
990 196211 882503
991 256158 41842
992 254907 15160
993 184116 696066
994 105626 171356
995 1010995 553079
996 776776 1028199
997 535305 460042
998 200448 699213
999 227669 276701
1000 224807 903762
1001 766583 967745
1002 568376 128877
1003 511063 428503
1004 730711 1046311
1005 87469 163946
1006 990289 573078
1007 232237 925185
1008 1009781 586498
1009 824591 202174
1010 555443 73729
1011 152254 687088
1012 713776 263234
1013 122388 665987
1014 566291 105386
1015 588579 382368
1016 296012 277590
1017 1011262 532023
1018 183390 850570
1019 566830 401659
1020 994933 529157
1021 536039 119158
1022 592620 447644
1023 120014 644603
1024 837664 212759
1025 532400 107991
1026 794808 213781
1027 1036003 557253
1028 262902 12033
1029 83083 156201
1030 803137 191294
1031 711877 237882
1032 861871 202666
1033 478329 329035
1034 993659 601030
1035 835592 194455
1036 485373 316770
1037 262898 96916
1038 138582 629906
1039 175699 901014
1040 787420 1057586
1041 60196 145695
1042 886436 196476
1043 506945 356938
1044 228906 860742
1045 126313 643457
1046 311697 20274
1047 783889 1014488
1048 526808 395315
1049 453963 387567
1050 557502 93116
1051 737069 224650
1052 882016 274862
1053 333253 56021
1054 531479 325503
1055 313305 51980
1056 528801 124674
1057 755723 285989
1058 91448 160755
1059 300969 54487
1060 520783 455696
1061 561287 444478
1062 610701 144809
1063 694271 305998
1064 56956 143067
1065 566401 441730
1066 166159 654182
1067 601124 147789
1068 883106 218610
1069 591010 459355
1070 276477 70371
1071 69375 185685
1072 176941 680748
1073 588734 98604
1074 1043652 572154
1075 506005 351593
1076 249713 317658
1077 200315 662829
1078 1010754 552658
1079 197009 660476
1080 735064 236162
1081 282672 57932
1082 973415 592830
1083 1009905 614643
1084 775625 998455
1085 155816 618309
1086 851222 158852
1087 314672 12187
1088 514219 341489
1089 831906 269910
1090 262110 20827
1091 1006581 534860
1092 733020 278564
1093 206670 287502
1094 507052 369440
1095 286813 51058
1096 275729 326339
1097 340509 70101
1098 588573 125256
1099 532082 351146
1100 149431 858990
1101 766338 972762
1102 275830 38512
1103 145838 681941
1104 850840 209896
1105 853049 220062
1106 735419 276995
1107 488629 339895
1108 121820 674742
1109 536058 420034
1110 583820 81289
1111 173488 916378
1112 761843 274015
1113 103087 132444
1114 281025 -16108
1115 136685 928860
1116 304196 269216
1117 779253 954125
1118 862858 168809
1119 349200 71051
1120 1006117 527837
1121 970194 635724
1122 175411 671603
1123 678870 129685
1124 694214 264213
1125 276296 30601
1126 758399 324555
1127 263742 327246
1128 1035784 553809
1129 778263 250998
1130 315358 44688
1131 211863 265581
1132 245688 273719
1133 140491 606802
1134 296736 50217
1135 834625 208600
1136 452787 357503
1137 722680 267803
1138 752480 992020
1139 574485 140562
1140 34988 169171
1141 546828 457335
1142 860530 240433
1143 286550 43733
1144 225531 885813
1145 103842 114164
1146 60406 127590
1147 199003 351302
1148 286088 265153
1149 522585 338498
1150 966169 542534
1151 724061 944809
1152 168157 245427
1153 286179 322613
1154 296593 35900
1155 559752 398661
1156 139771 642034
1157 55131 165700
1158 474851 261180
1159 207092 626171
1160 522139 303421
1161 232644 909675
1162 567200 500273
1163 158017 657492
1164 539764 462215
1165 265200 307361
1166 298612 283039
1167 535570 411288
1168 750624 259233
1169 1037874 537841
1170 284393 257238
1171 327220 40029
1172 793878 953364
1173 289708 35793
1174 60880 140882
1175 862849 220323
1176 853766 199056
1177 479319 339369
1178 767651 318671
1179 230721 307817
1180 988465 548268
1181 251017 305323
1182 749245 301450
1183 84171 159352
1184 498970 317599
1185 162055 630429
1186 551819 414933
1187 102080 134080
1188 1028279 569012
1189 119579 671899
1190 53291 117720
1191 696534 257278
1192 537485 85761
1193 509157 328452
1194 333866 67213
1195 566547 130066
1196 1015148 608225
1197 181076 892962
1198 561691 125992
1199 64052 128229
1200 520538 434506
