NAME : portcgen-1100-1110
COMMENT : portcgen N=1100, seed=1110
TYPE : TSP
DIMENSION : 1100
EDGE_WEIGHT_TYPE : EUC_2D
NODE_COORD_SECTION
1 90617 941845
2 866734 257163
3 382799 256246
4 911199 931590
5 964076 952915
6 258452 86594
7 862951 275244
8 406230 375396
9 618867 989295
10 441320 17026
11 354096 215748
12 676174 949402
13 863702 548954
14 369271 199055
15 887911 283089
16 703558 990639
17 28039 905921
18 937508 951816
19 406488 221321
20 872467 230151
21 382522 221388
22 58451 924095
23 842520 275066
24 445323 27507
25 406850 -23601
26 891286 546359
27 297872 607752
28 636051 948909
29 863852 279266
30 954602 904602
31 846020 566052
32 880396 533591
33 972922 386751
34 966994 392969
35 70483 915875
36 279317 387387
37 982256 332974
38 659281 1011409
39 415696 -9938
40 913059 953097
41 454069 9993
42 967778 350079
43 229334 161793
44 286182 412415
45 455825 -14546
46 447898 -45346
47 441180 168217
48 92885 928298
49 357804 410700
50 235403 115853
51 1015055 931855
52 318263 615861
53 294527 392366
54 882821 347889
55 399254 194383
56 884635 245869
57 353989 196875
58 863884 276315
59 339158 400318
60 928491 277269
61 310343 623559
62 972638 364846
63 682841 965650
64 217355 87656
65 430906 24488
66 989274 338020
67 84291 923718
68 822832 542327
69 847699 295729
70 1040623 331486
71 916557 914504
72 975313 902152
73 394323 185153
74 354815 397122
75 881295 247320
76 280085 53927
77 358668 580938
78 974558 395593
79 399619 205838
80 882077 546344
81 412692 -26387
82 223286 98378
83 391744 14662
84 847563 439411
85 278717 392476
86 252428 613085
87 955125 361147
88 955406 1012838
89 426825 -17442
90 393797 35148
91 647980 958149
92 74160 927100
93 393386 20867
94 1002096 379798
95 417461 226329
96 64203 889759
97 337010 679425
98 68897 935851
99 935309 905846
100 284501 591187
101 290845 396983
102 431737 23928
103 261155 85306
104 4005 930053
105 350654 369359
106 874919 278502
107 63770 960395
108 325552 644084
109 408451 222784
110 314572 358564
111 836571 209659
112 974538 909134
113 49641 919079
114 926962 920812
115 357524 198699
116 867103 262668
117 262973 689568
118 316785 375235
119 684661 994923
120 824349 513685
121 84334 923740
122 905112 314214
123 312059 586532
124 946245 954088
125 431930 -20944
126 834570 526135
127 873093 212296
128 472073 -17082
129 404147 -16165
130 825845 264073
131 65124 922179
132 848785 490808
133 362366 462571
134 317484 421327
135 704223 997404
136 247903 131215
137 379898 204156
138 328211 632865
139 934975 955111
140 261254 154729
141 401102 177531
142 82400 905871
143 425534 63898
144 270490 172574
145 431573 184029
146 327128 403533
147 275569 659158
148 261195 124653
149 252971 106443
150 328861 385115
151 267414 675982
152 316725 411134
153 343017 657741
154 910638 287680
155 843068 211436
156 90967 981874
157 60761 933135
158 324533 644292
159 895887 245309
160 246309 114768
161 236072 112200
162 406671 3202
163 135610 979243
164 818252 206644
165 648960 948988
166 289375 162912
167 647583 944712
168 463998 158849
169 859518 553438
170 301356 344083
171 309376 415475
172 68832 891056
173 338692 197066
174 990582 362062
175 937634 962661
176 191334 196135
177 53587 912847
178 411499 52184
179 702690 998151
180 55119 926304
181 252575 699031
182 978643 352603
183 418399 -27544
184 923088 937449
185 874092 268344
186 224326 96973
187 490126 8572
188 659704 985611
189 297166 391928
190 948737 962680
191 501231 171533
192 314218 358293
193 434550 190200
194 913543 356773
195 314615 456264
196 931867 958756
197 201650 178897
198 468179 21468
199 862961 550722
200 318449 620386
201 310489 417735
202 268191 155816
203 328228 344340
204 303175 359528
205 940784 609272
206 305454 606470
207 847127 259139
208 412342 19530
209 457268 -12930
210 877636 580670
211 657457 989235
212 268742 119346
213 888113 307406
214 968253 926993
215 61551 954522
216 968885 959084
217 433942 188247
218 980953 318814
219 824567 508376
220 264561 610744
221 371301 166615
222 829972 540337
223 914006 1014408
224 448922 8903
225 463513 -16528
226 297829 418755
227 439125 41207
228 655489 986849
229 395533 73551
230 413221 15976
231 257868 655789
232 381060 191835
233 827188 547487
234 252051 636087
235 891403 276021
236 941848 373702
237 115500 921203
238 661147 972494
239 407707 218627
240 321230 406139
241 410857 5016
242 365761 356331
243 12478 952437
244 920421 382781
245 449748 46410
246 426464 -29649
247 819497 568866
248 283274 631096
249 884889 267667
250 43946 930661
251 447568 -44588
252 974860 370451
253 688602 942042
254 205143 126579
255 251846 320070
256 869465 261582
257 828145 514352
258 309138 605279
259 854051 271945
260 860270 260293
261 928917 931101
262 49646 932293
263 409311 191547
264 249150 145071
265 20218 938757
266 444052 10234
267 168834 78884
268 961689 357895
269 636796 961517
270 272942 127804
271 894682 308045
272 431444 59242
273 276558 607578
274 320686 396064
275 807570 299750
276 642922 1029384
277 337461 421099
278 977533 374042
279 836514 267889
280 334456 607062
281 214748 195011
282 973671 965019
283 196658 162580
284 855561 307144
285 875514 531634
286 38508 956211
287 54549 888167
288 87484 947133
289 462884 -17704
290 821424 511118
291 167183 43540
292 80628 949904
293 689042 973025
294 321136 465146
295 91214 911185
296 104657 967622
297 197412 115747
298 880970 523138
299 282431 155580
300 503558 34549
301 655346 1015740
302 916548 948224
303 973928 370116
304 244313 629884
305 303828 670165
306 360089 196342
307 888843 267395
308 255837 580839
309 41385 965986
310 429563 256
311 855201 316243
312 23441 915233
313 947971 373261
314 240153 82391
315 297084 417375
316 973836 974667
317 971082 963049
318 848456 311024
319 665066 951616
320 84167 939554
321 988293 346604
322 854827 553233
323 74520 901230
324 945720 954028
325 329110 396249
326 39620 872814
327 940384 247931
328 846930 222833
329 922547 244635
330 835968 560263
331 482301 -23200
332 830218 565943
333 990284 363320
334 849328 304603
335 305169 620680
336 854506 261074
337 956635 374011
338 328322 359435
339 378862 225238
340 847056 276113
341 646118 998787
342 315893 408922
343 264677 631183
344 465705 -15746
345 874664 248242
346 999610 406969
347 919964 268222
348 406992 -7057
349 950497 374018
350 316706 636638
351 814989 519826
352 966682 981799
353 840657 505566
354 844845 563408
355 970247 972733
356 208389 110591
357 995483 361363
358 300914 110984
359 657230 1016545
360 647554 989944
361 855316 516586
362 298785 153219
363 948649 974219
364 467422 4058
365 321685 450882
366 859924 216746
367 883606 270007
368 53806 923073
369 468267 -5526
370 283658 362169
371 42461 919215
372 350440 658885
373 653195 998172
374 339436 393013
375 680836 1037702
376 872978 248681
377 259839 652700
378 305062 434151
379 240339 70971
380 356982 197138
381 86537 947165
382 114792 896867
383 711514 949646
384 211569 100101
385 930899 361656
386 830926 249046
387 432981 -16171
388 420453 209995
389 48120 960613
390 424823 198280
391 648336 1009310
392 401934 182185
393 660995 1005815
394 991697 401152
395 89001 941305
396 428070 8144
397 808299 537598
398 694416 993035
399 432742 8528
400 308669 335307
401 306517 350329
402 76608 908828
403 373992 428425
404 416853 17369
405 990702 346731
406 21430 946786
407 861194 298158
408 255349 87577
409 833909 230212
410 873480 947711
411 861297 527834
412 417537 20874
413 1024670 321386
414 616978 953716
415 372960 209508
416 971988 308797
417 343921 434211
418 877319 229766
419 84669 914286
420 333709 186724
421 378444 398202
422 420105 202399
423 984202 433037
424 678595 951433
425 685847 980876
426 1012094 983719
427 224247 119948
428 385269 160771
429 419128 -21063
430 341320 414514
431 309360 697211
432 458821 3446
433 241329 142393
434 1004186 951144
435 427983 5576
436 385728 219107
437 981726 387906
438 108894 866920
439 399861 12917
440 343889 591122
441 471998 -12061
442 859752 265011
443 154621 144056
444 806102 562673
445 337088 653294
446 666079 994699
447 285404 409485
448 271792 578490
449 968615 343395
450 69213 884532
451 81750 973353
452 866929 955492
453 834976 485890
454 281261 91633
455 397394 -70921
456 54612 946091
457 835512 279949
458 847628 203282
459 310260 395609
460 861265 490034
461 918426 930781
462 319259 437596
463 241570 135460
464 264379 101343
465 362479 667530
466 200838 124009
467 303736 394474
468 322007 712244
469 286337 383237
470 316799 602698
471 1005434 319335
472 416115 20965
473 152569 920420
474 342026 370336
475 923738 345618
476 971161 306655
477 856883 264661
478 408766 11243
479 907743 951923
480 406724 210053
481 325405 389710
482 961217 333178
483 651429 987795
484 949633 965851
485 495453 16212
486 277232 375915
487 268285 614415
488 978237 970196
489 59428 948911
490 888885 544067
491 465854 -3290
492 277035 692199
493 460630 23981
494 345684 641451
495 380495 246305
496 331681 215429
497 397488 199894
498 973275 358833
499 940344 975903
500 250983 125411
501 258708 86006
502 100503 924855
503 936348 388722
504 866005 270412
505 450993 25318
506 442707 209069
507 881632 580081
508 684529 955217
509 93811 971811
510 323998 423882
511 59143 969789
512 962889 360286
513 257210 198945
514 648701 928173
515 800832 629144
516 335420 406207
517 210290 84590
518 981273 359350
519 390819 213073
520 947371 932140
521 6177 970375
522 944881 350254
523 400214 -41192
524 799959 573215
525 907293 323058
526 91200 902163
527 685457 1016703
528 652887 952993
529 945767 427189
530 857316 522314
531 988565 947664
532 639807 1021509
533 312594 629195
534 461189 -36615
535 844948 583856
536 388008 174626
537 67922 972948
538 462723 -24534
539 642045 934476
540 674659 1039693
541 288705 144865
542 102844 907985
543 707612 950287
544 35193 896893
545 967547 286536
546 1003016 374070
547 856551 500100
548 861570 270212
549 930726 931491
550 24083 926886
551 937076 911409
552 440818 4640
553 987792 435390
554 935138 1002904
555 415546 221309
556 476470 187870
557 996377 399425
558 403787 -2372
559 358176 391587
560 962254 327362
561 910140 351590
562 431344 4788
563 662609 993881
564 609187 1002368
565 862447 571311
566 41977 933632
567 443745 8326
568 983881 371988
569 855907 213402
570 283932 691506
571 367785 212120
572 229032 155358
573 92439 899942
574 216864 153250
575 1005371 409833
576 64644 887458
577 863196 537947
578 952662 417943
579 293466 603402
580 217679 95029
581 60984 940335
582 805839 581886
583 858590 520649
584 873875 281440
585 1003969 322559
586 846083 521434
587 873916 596152
588 947269 282659
589 366774 209756
590 394493 206188
591 920461 339201
592 162209 93735
593 977494 380793
594 858698 281270
595 704242 969285
596 347951 408495
597 75555 936917
598 289292 408106
599 280622 620389
600 256382 144077
601 311862 608481
602 639118 1042758
603 847811 547386
604 45256 922361
605 837382 508714
606 422423 17841
607 91331 978928
608 387316 173215
609 689925 944731
610 891781 254940
611 299307 686369
612 254814 673397
613 385080 215378
614 57045 942735
615 925041 548938
616 308586 596835
617 391762 243250
618 939748 340204
619 472942 5142
620 833957 523040
621 207710 125277
622 342704 387872
623 331897 405033
624 1065009 343082
625 988050 378201
626 432660 210011
627 688096 1027969
628 876507 551425
629 938751 988342
630 226766 144381
631 239600 67190
632 213002 140563
633 178076 167167
634 106883 955685
635 237885 91089
636 868851 541910
637 845411 273519
638 974408 934204
639 656188 978315
640 299055 626171
641 697565 986045
642 378723 371564
643 233452 175434
644 229362 433044
645 956389 932662
646 837737 488593
647 312100 388997
648 313119 619288
649 938139 329552
650 427571 190739
651 834193 550451
652 712811 983929
653 228369 108682
654 72142 927690
655 951464 1001145
656 118519 959259
657 834727 338420
658 129344 915430
659 994413 981899
660 329387 582803
661 640713 953293
662 980215 325503
663 693550 993774
664 375242 187177
665 690969 1027583
666 468286 220102
667 883428 559383
668 338075 407635
669 895483 273660
670 928432 1023940
671 78820 930676
672 836172 544390
673 948791 368287
674 655820 986943
675 966241 375914
676 882232 286269
677 245109 394079
678 1037952 363039
679 330868 374175
680 262129 646268
681 76567 901041
682 44397 950154
683 226530 108927
684 914586 959208
685 877982 260695
686 805655 598358
687 288930 419298
688 945430 962378
689 321192 625716
690 279291 674564
691 234405 171838
692 821027 313734
693 292020 410705
694 688002 994075
695 45677 966069
696 675306 957251
697 892620 911192
698 865484 553415
699 636754 1013567
700 406666 218965
701 823119 506161
702 720342 980403
703 313510 470355
704 935485 978129
705 331875 437708
706 838137 515411
707 224081 139859
708 349377 250993
709 973462 336226
710 650798 953173
711 76440 914216
712 947340 955098
713 456529 -39518
714 320883 429106
715 321215 373203
716 969164 936656
717 78933 930476
718 389998 44080
719 313327 399152
720 388554 407910
721 329522 464923
722 832422 253098
723 305478 665539
724 309531 117448
725 845354 502000
726 854336 552761
727 276379 70164
728 263596 151276
729 325949 416991
730 436295 171888
731 104705 897358
732 977317 969096
733 692816 966831
734 963598 981952
735 79003 926423
736 476799 32585
737 609296 971864
738 328566 361279
739 912737 937090
740 634382 962004
741 835283 262732
742 302472 411750
743 838924 268391
744 824552 541621
745 949230 1005220
746 655456 1013506
747 316665 632029
748 955856 377445
749 334532 397514
750 883496 276448
751 402076 187471
752 872717 549144
753 411857 36131
754 877735 509456
755 856553 262011
756 286459 607711
757 442458 -193
758 110439 869821
759 362688 183976
760 275824 98370
761 844404 254528
762 54337 849059
763 808344 599291
764 661108 1046634
765 850030 454517
766 396057 278128
767 711108 953462
768 334584 676844
769 325425 581721
770 861206 338347
771 208045 149303
772 402039 -24794
773 909617 1000164
774 221399 128649
775 270669 405323
776 446538 14524
777 313153 406888
778 825559 511459
779 129558 948257
780 948073 326998
781 954361 960733
782 362505 403316
783 62588 932860
784 694308 1000634
785 349996 228561
786 841860 596835
787 853922 930085
788 474943 23693
789 875936 324046
790 409273 176204
791 436144 207988
792 867796 528593
793 420657 -27000
794 709538 1013521
795 329639 626810
796 312734 668400
797 245005 153499
798 792038 524142
799 812084 543523
800 293844 391501
801 934608 977572
802 861858 512508
803 256343 151520
804 464007 52215
805 793214 563182
806 846477 538018
807 915967 1020539
808 846285 456736
809 958265 970794
810 446207 -23550
811 849638 537588
812 801541 508188
813 448794 39489
814 32261 989476
815 241964 650308
816 429577 212117
817 91486 939194
818 319710 688996
819 423279 23406
820 328724 645252
821 854289 510695
822 304307 638674
823 862891 577898
824 434479 220983
825 47396 931889
826 919628 943985
827 385378 181244
828 977606 922563
829 655376 1001145
830 213645 112558
831 125865 887937
832 694555 990570
833 608933 997238
834 946740 275253
835 992300 389971
836 847047 268414
837 914216 970995
838 865182 585214
839 938597 350529
840 271639 154712
841 33991 1018304
842 61677 913422
843 984036 1005854
844 355897 403350
845 821038 267414
846 299521 618157
847 931159 927723
848 419426 -10279
849 711036 952733
850 663978 975432
851 307792 377023
852 895129 929956
853 73847 937425
854 335847 619480
855 269873 408266
856 369455 159822
857 970381 994793
858 246236 397172
859 903278 502522
860 905622 505629
861 817838 524239
862 58052 900269
863 454365 164658
864 332823 414210
865 927327 436323
866 295366 620823
867 633298 1004431
868 309769 383890
869 833886 530116
870 69147 952006
871 980644 991222
872 61500 904443
873 352551 186969
874 790609 497779
875 122695 914048
876 324035 391837
877 901739 530998
878 365729 177170
879 804576 461722
880 919845 414026
881 441029 -5836
882 927093 988169
883 690587 1003133
884 259240 78890
885 820149 267190
886 854539 487594
887 877786 986688
888 659114 1015654
889 199192 157718
890 318029 350743
891 289089 622079
892 853166 254592
893 944108 930231
894 375568 184079
895 810646 582702
896 643651 1041307
897 50907 899314
898 422949 -32332
899 422677 77371
900 101449 948871
901 858744 237062
902 456687 70434
903 317592 678543
904 362938 406515
905 367784 418324
906 332922 393261
907 305915 656540
908 419661 228371
909 323071 385960
910 382952 429381
911 806077 548196
912 830767 590421
913 303152 377920
914 440256 146785
915 233132 162528
916 691306 966478
917 435133 45053
918 873172 524869
919 914316 531879
920 812588 248939
921 440806 247631
922 847288 287878
923 315157 353609
924 57411 886306
925 668546 1041362
926 437775 251077
927 74810 956835
928 433671 197391
929 414671 169886
930 947279 951979
931 379553 6578
932 977257 338190
933 911712 970809
934 975757 395663
935 407447 193445
936 379245 262832
937 92387 938321
938 847089 301126
939 861933 224969
940 298750 579599
941 452111 10346
942 839278 593524
943 818620 263737
944 869516 523703
945 868517 501527
946 238765 102044
947 271192 664836
948 279614 631090
949 393986 -8124
950 298529 614065
951 996169 356368
952 382880 212352
953 385616 -50314
954 978051 349886
955 199326 104044
956 328728 600373
957 962697 368458
958 976536 365502
959 109805 870522
960 53505 934693
961 316111 424466
962 46372 908846
963 806139 558487
964 909396 504511
965 288890 121989
966 946557 975379
967 289597 615714
968 22610 917043
969 266196 641828
970 55181 892974
971 727852 957766
972 111616 902594
973 890179 530801
974 314950 656881
975 444561 53048
976 431673 7736
977 361137 634679
978 874777 517380
979 431033 -8988
980 317059 413034
981 287867 627762
982 962151 370383
983 431270 -2696
984 912081 948394
985 981664 389200
986 267586 679512
987 851898 522589
988 620295 977445
989 464721 -10854
990 1019765 933115
991 912357 341145
992 290297 143685
993 949907 962737
994 382408 199993
995 915431 934332
996 92122 928705
997 383292 643698
998 95510 927769
999 15838 916952
1000 64586 899347
1001 832607 280760
1002 255685 145029
1003 916935 384131
1004 831709 231553
1005 675246 951461
1006 465371 10108
1007 917867 290491
1008 913387 284282
1009 363241 174774
1010 882765 276716
1011 58655 947768
1012 820738 236912
1013 663749 974531
1014 827923 523168
1015 870709 278835
1016 621691 1000108
1017 88140 912565
1018 102785 914749
1019 982326 354304
1020 950362 937284
1021 24581 907685
1022 385742 227688
1023 266034 642356
1024 959314 365545
1025 201087 148873
1026 687942 1019846
1027 366153 170054
1028 292890 620520
1029 981473 388272
1030 656155 964879
1031 866020 927621
1032 876930 251452
1033 410954 192652
1034 995866 970182
1035 880400 964700
1036 56144 939106
1037 278890 666537
1038 648889 997498
1039 866343 534055
1040 872895 572748
1041 643623 989963
1042 678798 1029198
1043 51502 924533
1044 27762 877262
1045 362851 177857
1046 434924 224034
1047 892458 243127
1048 254263 121094
1049 928804 295946
1050 631566 931093
1051 828957 278900
1052 469384 -14268
1053 824563 458367
1054 960641 361648
1055 68745 947400
1056 836507 510544
1057 392867 185000
1058 833065 286901
1059 331607 226683
1060 55076 928564
1061 672905 1054467
1062 937879 969303
1063 421051 183091
1064 456617 8024
1065 286114 692840
1066 845637 258989
1067 974162 354679
1068 396186 204301
1069 46527 931423
1070 860094 561964
1071 488853 -49688
1072 318281 516590
1073 980552 307674
1074 919580 930025
1075 230266 140718
1076 888802 254982
1077 295660 382377
1078 192634 106929
1079 884554 553763
1080 336590 437373
1081 285029 141590
1082 444286 37570
1083 92511 878839
1084 41712 910081
1085 298839 696219
1086 373903 154943
1087 388161 389108
1088 78965 972035
1089 395866 203958
1090 321520 642906
1091 437172 -29359
1092 424362 -1240
1093 822002 562135
1094 46605 934116
1095 330708 413136
1096 469217 17434
1097 865473 274008
1098 258288 627382
1099 99604 933439
1100 318115 372865
