NAME : portcgen-300-306
COMMENT : portcgen N=300, seed=306
TYPE : TSP
DIMENSION : 300
EDGE_WEIGHT_TYPE : EUC_2D
NODE_COORD_SECTION
1 864567 465233
2 927945 429808
3 490340 375136
4 6368 831161
5 645770 242213
6 589848 361541
7 159102 807338
8 129694 676398
9 21971 812811
10 -10123 770289
11 160232 807910
12 661005 304465
13 573029 362197
14 602001 314522
15 574234 302652
16 55821 767339
17 145443 745463
18 171472 804219
19 887525 442430
20 626268 311394
21 825200 495368
22 640067 363673
23 49081 756871
24 121975 799955
25 89475 736251
26 936739 322274
27 647690 409003
28 596354 321004
29 559465 246523
30 906945 401524
31 47696 880654
32 58059 818425
33 48710 855961
34 45431 760392
35 831232 508963
36 111603 749548
37 83505 735152
38 42128 781149
39 77697 769856
40 860780 483271
41 597564 230522
42 18712 727478
43 801749 483626
44 164837 768218
45 840274 556071
46 64057 823097
47 154256 770190
48 532659 327059
49 850068 439563
50 616506 339366
51 7708 706966
52 844820 458183
53 998720 504570
54 679285 377415
55 551664 331630
56 61436 807289
57 -24880 727729
58 -2327 741589
59 942396 418246
60 693540 268799
61 653545 314244
62 593521 298947
63 105464 868525
64 171328 755828
65 15657 741322
66 899599 436575
67 884920 452529
68 550258 407861
69 668774 365707
70 108628 724322
71 115463 757045
72 100485 728927
73 566989 208352
74 53503 646440
75 549963 363399
76 668644 295206
77 160772 792758
78 919239 443500
79 75585 835732
80 625262 389001
81 875502 528718
82 592748 347486
83 128429 724291
84 820220 565676
85 515386 393888
86 620692 326506
87 611338 389523
88 65638 842028
89 44011 784933
90 655612 354484
91 592898 390717
92 22865 744910
93 167932 791125
94 650789 440621
95 77818 735950
96 80618 776292
97 604570 356592
98 893744 440896
99 905774 473839
100 7991 800337
101 691713 349206
102 45172 748843
103 580783 260083
104 128871 746034
105 811537 505454
106 652798 303318
107 547676 390594
108 741161 308349
109 637657 352267
110 100020 675606
111 910566 366486
112 61242 789885
113 570155 395252
114 776059 427907
115 903563 511766
116 475965 332463
117 74593 706281
118 602262 380349
119 842496 448209
120 842859 426274
121 550615 351144
122 576738 328858
123 896600 384602
124 896606 434895
125 576827 292869
126 927258 498434
127 38272 731475
128 559521 336512
129 521576 329745
130 836690 476380
131 596078 337600
132 837199 598083
133 1018547 458208
134 777343 446394
135 854846 521212
136 -115518 722116
137 878046 490544
138 42861 753489
139 465971 269568
140 880276 350079
141 867247 468704
142 656955 386615
143 516644 333077
144 478911 378437
145 904407 332734
146 614163 255847
147 -3866 800786
148 196586 788879
149 159369 632193
150 769994 205685
151 99809 733829
152 191328 748179
153 629208 402412
154 116380 757823
155 83673 804606
156 26466 764240
157 477958 313009
158 608518 311854
159 542980 342912
160 826263 494037
161 941175 470700
162 1021620 540333
163 13801 788577
164 581448 328779
165 510361 244117
166 898099 411095
167 25955 682709
168 147626 785092
169 852154 402846
170 560806 375486
171 -44191 792066
172 93619 926658
173 826839 485958
174 48405 742363
175 874148 464249
176 18092 733434
177 789404 495188
178 706176 289684
179 963544 578102
180 550672 318829
181 835884 472637
182 49683 817222
183 882630 455609
184 609017 306701
185 26016 747240
186 851830 523488
187 902960 456217
188 873889 512112
189 51232 802863
190 45465 849238
191 104494 862152
192 939938 453677
193 830351 503313
194 84422 727531
195 842362 419089
196 862847 465502
197 101358 736064
198 614190 303323
199 545366 276375
200 633972 246967
201 509809 356864
202 593838 338933
203 880939 383120
204 161961 738600
205 599032 413903
206 578244 188853
207 81166 659664
208 666232 402652
209 969392 449912
210 540969 300973
211 84703 759387
212 23870 821704
213 109677 842344
214 830530 408637
215 942298 427496
216 872942 341793
217 887303 459089
218 620973 322605
219 514284 297030
220 624477 216971
221 651056 529389
222 50331 691134
223 31604 904877
224 908274 414288
225 784451 392037
226 902323 481961
227 892225 432251
228 860866 466964
229 859725 440415
230 584005 333247
231 80036 722666
232 -31366 697659
233 73101 765767
234 -22346 748812
235 878293 417977
236 857899 402071
237 493144 333124
238 508603 289416
239 703080 388838
240 521441 382589
241 847094 480147
242 880586 400808
243 826763 479641
244 31364 783487
245 994805 430996
246 98667 760606
247 79532 676465
248 156541 768835
249 927106 316771
250 772961 440689
251 953437 396331
252 619928 249710
253 944976 441046
254 912258 446369
255 587303 354835
256 728173 386349
257 926783 480382
258 1008074 430342
259 123819 726288
260 583371 324662
261 830054 530156
262 30730 812410
263 149103 766207
264 899729 469230
265 125811 809991
266 706604 416833
267 153665 796586
268 551302 348254
269 170766 801783
270 68067 767743
271 672728 303252
272 906393 480694
273 32511 750688
274 596446 357462
275 682741 325877
276 694425 249418
277 886018 484384
278 511315 253263
279 131473 896636
280 557230 316309
281 890784 465283
282 55686 845529
283 574583 272167
284 -29146 772045
285 537966 304108
286 826771 443953
287 540511 370852
288 597260 314176
289 98311 641927
290 875583 451254
291 867287 445812
292 565978 329374
293 109102 772554
294 148425 732740
295 90481 771796
296 107335 767677
297 77513 767543
298 845559 396859
299 102494 740851
300 668481 292399
