NAME : portcgen-700-710
COMMENT : portcgen N=700, seed=710
TYPE : TSP
DIMENSION : 700
EDGE_WEIGHT_TYPE : EUC_2D
NODE_COORD_SECTION
1 287405 309519
2 596167 441824
3 317539 204722
4 592580 655088
5 915739 590947
6 36704 573440
7 52627 592050
8 302926 337866
9 45972 574702
10 601423 651894
11 649518 242341
12 939953 581716
13 23207 535752
14 677452 205784
15 695814 28744
16 632603 621249
17 36410 587886
18 620312 631383
19 984614 652926
20 615378 718819
21 611854 649329
22 630992 678636
23 666489 676884
24 -68947 635587
25 14718 616273
26 304356 368625
27 13423 615819
28 643253 681671
29 275270 261428
30 -32976 577960
31 303517 308263
32 937871 541158
33 706684 283360
34 579465 615289
35 606662 293359
36 693584 197605
37 -27280 606335
38 626081 189003
39 234516 255807
40 288572 340850
41 647457 622504
42 716076 -47838
43 681089 17070
44 648498 689300
45 642796 484140
46 27874 578878
47 611037 396898
48 628504 502085
49 76325 606145
50 599631 488931
51 665146 258123
52 659565 273275
53 -20338 602191
54 295534 339088
55 685295 263936
56 349487 321653
57 815726 591668
58 584121 662309
59 562881 450438
60 5589 490928
61 613839 486674
62 42220 600019
63 375830 344235
64 618279 477942
65 640764 232135
66 566104 220971
67 25105 575825
68 916552 594594
69 877900 540817
70 956720 607730
71 759841 13809
72 637642 93423
73 873277 559327
74 591193 234214
75 11902 472968
76 663771 252337
77 600004 401773
78 270242 266376
79 625158 483817
80 631525 222252
81 936917 583167
82 565485 646941
83 308779 271699
84 572074 484037
85 921382 621873
86 588657 462456
87 887616 642949
88 633418 224416
89 912695 520029
90 595123 283862
91 629958 289299
92 928026 538129
93 596015 458976
94 6337 558649
95 9975 538549
96 720507 -10802
97 726101 9883
98 238868 347693
99 715452 207010
100 287356 296346
101 335965 271215
102 826654 607821
103 681424 218472
104 699963 24359
105 692547 306581
106 913137 616372
107 636932 549261
108 269951 278745
109 600891 293705
110 659134 300674
111 631236 692665
112 43519 513267
113 264989 307771
114 619958 -72453
115 -19803 581261
116 672832 647831
117 627740 327917
118 268042 301530
119 665421 594393
120 615553 33341
121 660453 658991
122 916636 603623
123 703401 42185
124 943350 666505
125 293995 342612
126 669621 692983
127 648631 478502
128 859151 623598
129 965736 629520
130 685654 241727
131 648370 653097
132 647106 219661
133 606041 415017
134 734795 32079
135 590621 608972
136 944451 524286
137 920571 519582
138 324694 239299
139 605795 211118
140 748530 1879
141 710880 49897
142 552632 494583
143 655121 3323
144 581973 612100
145 622599 655504
146 -6701 562643
147 888018 608233
148 -26209 527214
149 672144 64974
150 -6987 595635
151 729529 -4754
152 879545 517853
153 337029 237299
154 289662 361447
155 668055 268321
156 611850 -15314
157 601911 684839
158 746593 63824
159 600293 503703
160 640339 -15580
161 661502 297317
162 917353 554837
163 704330 -4543
164 324647 267468
165 627302 667117
166 958460 537328
167 641803 257855
168 633023 258475
169 294525 269585
170 700653 624890
171 290205 311098
172 649809 667680
173 544154 473844
174 24792 580350
175 924111 642059
176 691169 23506
177 678238 -9279
178 677256 49261
179 23869 484063
180 296312 273557
181 749122 -23346
182 350126 326593
183 442 582677
184 591563 693586
185 668092 -13486
186 717117 9323
187 610101 399872
188 607447 481831
189 665173 25557
190 928574 538124
191 351508 317929
192 -13896 594048
193 619162 621593
194 990285 529993
195 594129 626764
196 574196 263166
197 607419 591085
198 921781 543628
199 722666 260681
200 302696 300079
201 931035 553586
202 15623 561474
203 577120 494064
204 575379 647434
205 656711 579946
206 330565 285760
207 662941 -8712
208 959035 624315
209 598288 203540
210 910036 647302
211 6266 586678
212 679153 228683
213 -43314 600228
214 367020 329331
215 599366 475257
216 -28231 561941
217 904644 542927
218 814363 613712
219 838644 564409
220 614021 408681
221 921273 604317
222 717017 11281
223 725390 255205
224 -50309 613259
225 77865 563729
226 347780 301394
227 508337 687240
228 552145 649293
229 654691 260554
230 641616 231306
231 -9638 521149
232 600467 632743
233 554909 544813
234 367006 345067
235 634150 82842
236 699196 225779
237 653121 11617
238 683220 647401
239 635185 171248
240 686231 483777
241 658325 301487
242 747470 -3301
243 911342 561310
244 696222 22713
245 633281 176690
246 686764 -25676
247 618063 205532
248 645575 232236
249 651300 215723
250 49607 565433
251 631926 262165
252 636221 684914
253 321417 300763
254 276309 290936
255 910069 586218
256 599504 480531
257 535311 677395
258 662102 171228
259 561512 644188
260 241786 362804
261 919006 540545
262 560968 480983
263 270272 311246
264 930935 586910
265 563853 493051
266 -6773 580610
267 288997 269737
268 266791 248290
269 953488 524813
270 879485 620038
271 674134 240715
272 590668 429841
273 -5899 522367
274 914358 643082
275 590604 600925
276 630256 620366
277 899338 566314
278 606967 635586
279 886819 603918
280 634596 266795
281 9099 568318
282 940440 587159
283 670935 31973
284 674374 67183
285 580450 594313
286 -6247 523489
287 733054 102909
288 672568 20377
289 632509 -32587
290 715882 241863
291 610439 686860
292 638384 199569
293 897863 573794
294 546602 482288
295 1011837 637548
296 613184 464254
297 613596 395297
298 20076 630439
299 875499 589994
300 706312 11906
301 570429 457265
302 645917 15918
303 705871 16860
304 621079 221610
305 770161 7144
306 587745 630665
307 -4064 511371
308 554873 456176
309 6928 573629
310 285368 247462
311 47264 567663
312 629195 219599
313 622447 257752
314 352038 304467
315 576501 526886
316 679287 271024
317 987839 565712
318 881038 554285
319 276828 258234
320 331029 344475
321 685141 26898
322 751398 48091
323 698238 -12609
324 582997 226812
325 615066 19799
326 925746 570964
327 517860 468549
328 586453 428714
329 239345 285800
330 593172 522827
331 315362 307470
332 657629 212168
333 860127 652740
334 538157 441967
335 -12827 571880
336 -9775 496137
337 574876 618773
338 871969 580773
339 950218 604847
340 926026 596310
341 292291 229543
342 354367 340545
343 603167 240404
344 687699 -44938
345 584205 431664
346 656295 264699
347 645829 125999
348 711765 187748
349 624782 660533
350 595603 645465
351 -1734 570221
352 703369 -100715
353 562946 606872
354 351041 306899
355 581452 490514
356 652379 718297
357 892599 589136
358 665258 59353
359 917458 528104
360 705185 17991
361 -15842 592388
362 650148 520104
363 -12267 538816
364 632921 660909
365 620043 475262
366 -27105 668170
367 605595 433398
368 649134 436535
369 -41204 554245
370 656488 275651
371 632574 672783
372 673831 71766
373 615256 468555
374 654649 222582
375 668354 226695
376 523369 516039
377 687614 48897
378 621140 611596
379 229875 328142
380 576985 243267
381 678913 312157
382 586827 499249
383 888244 640545
384 681187 56767
385 653375 15692
386 241546 261119
387 292942 335580
388 44963 530637
389 27463 553793
390 672071 246210
391 678495 -28926
392 594843 664031
393 982352 596332
394 314326 349569
395 326333 262501
396 23940 580812
397 673232 249920
398 647624 238933
399 708512 -1358
400 58048 600602
401 -6968 532835
402 664714 55077
403 882395 529477
404 635364 641940
405 884169 613668
406 727064 282746
407 347140 307539
408 361163 249990
409 907285 576504
410 662499 632549
411 568137 442402
412 662295 578836
413 910493 557940
414 2553 540348
415 -35565 545975
416 600937 650413
417 906772 628972
418 29524 571711
419 532754 453323
420 929 597846
421 621537 317228
422 689772 320603
423 596927 430391
424 891878 576957
425 17940 604201
426 914799 680958
427 355329 254351
428 914809 570216
429 687985 275935
430 581237 260551
431 626921 420777
432 745203 62588
433 581614 442255
434 48350 602155
435 683590 387764
436 636029 454488
437 618826 233623
438 -28736 619235
439 612280 472350
440 274788 233937
441 519144 432462
442 650405 626256
443 35543 639871
444 601752 470633
445 258776 235075
446 528652 548974
447 649719 234821
448 9869 597144
449 630098 577091
450 946289 573002
451 645328 469734
452 671105 892
453 576256 678002
454 290133 305116
455 606840 196019
456 660808 664275
457 319583 308842
458 581653 662634
459 704029 175927
460 575390 664746
461 302246 333112
462 631819 228183
463 587104 432293
464 925368 591746
465 696775 64825
466 582173 675699
467 649757 200248
468 590233 407933
469 307895 330476
470 -64381 549414
471 292913 250966
472 615341 442740
473 616613 495596
474 -14232 553030
475 715998 31170
476 36247 630231
477 602934 492769
478 283602 242156
479 684203 40278
480 584475 187572
481 602446 507807
482 619117 567078
483 4868 592714
484 312530 273078
485 594493 206483
486 306558 296565
487 895120 588721
488 616137 205994
489 649989 609256
490 921624 597136
491 555030 697603
492 633161 182615
493 643217 621187
494 632376 12238
495 67117 621518
496 919512 504497
497 1035236 651229
498 740997 241721
499 678298 23217
500 -78528 576504
501 636130 454939
502 962450 650350
503 578762 248746
504 610002 474301
505 343816 266717
506 299944 277105
507 670449 123902
508 961795 574577
509 315554 337329
510 713492 12847
511 302371 332826
512 296163 375675
513 556810 465353
514 688609 77525
515 699765 263560
516 41889 520112
517 653755 407462
518 359745 214242
519 287740 307428
520 603353 577187
521 890923 586143
522 643375 513593
523 -69766 649178
524 655750 634657
525 738181 -5729
526 358436 310182
527 340856 315674
528 556294 671288
529 637754 228013
530 901314 557626
531 754168 -18759
532 562064 690027
533 592196 274602
534 625132 680690
535 539410 480765
536 936370 585423
537 313965 318670
538 935572 605563
539 931501 626477
540 -46219 577505
541 14627 588866
542 323590 286115
543 61876 622371
544 601723 230135
545 880037 563377
546 894072 588559
547 608231 460178
548 571414 443835
549 757233 71481
550 282613 339200
551 663097 54584
552 996305 580441
553 558083 467254
554 932549 638644
555 910888 587340
556 327752 304109
557 739880 -6634
558 547824 325117
559 628895 640109
560 589819 613059
561 217580 290344
562 567156 472661
563 -9630 573532
564 937670 517974
565 591956 474630
566 653236 61398
567 618032 440436
568 565521 500202
569 -23163 561719
570 76073 551997
571 281826 377632
572 695638 49270
573 948195 661016
574 742888 -57917
575 663357 644106
576 891626 559627
577 918816 541735
578 650216 216357
579 905092 590861
580 655814 669971
581 895298 572957
582 298947 362203
583 350086 336853
584 275104 324093
585 279447 336849
586 577551 263099
587 643223 450265
588 -701 564050
589 622840 678824
590 344249 278734
591 546866 517404
592 927840 596576
593 945582 610090
594 667665 279802
595 65717 635722
596 929617 530287
597 678019 70954
598 275391 201844
599 693980 86773
600 758706 -21472
601 635689 58816
602 735580 67076
603 296876 235412
604 -15300 613065
605 613696 617886
606 544787 587142
607 693392 33887
608 -46777 614764
609 16121 520208
610 978452 511876
611 355744 246862
612 291901 250958
613 26331 577517
614 615554 631963
615 586486 290090
616 907861 605136
617 249181 239049
618 5988 559638
619 903541 627387
620 290036 341890
621 638236 129147
622 2754 589297
623 896945 600872
624 -34391 578527
625 681946 -4584
626 636315 215390
627 914349 581532
628 599755 514436
629 908210 594101
630 621536 267204
631 689369 15275
632 586106 476174
633 40810 571186
634 596465 252968
635 358163 305012
636 633326 228588
637 599090 156431
638 -12020 547435
639 974507 611126
640 957003 619765
641 603220 649353
642 880376 591644
643 679809 723728
644 -10703 524394
645 941711 655808
646 547529 473247
647 615535 670324
648 -15608 566530
649 872907 517690
650 686085 42060
651 325774 302620
652 579816 633472
653 958024 530171
654 15655 600255
655 693862 45361
656 54274 602553
657 605723 426185
658 639110 596559
659 849745 537171
660 689408 228808
661 672884 640909
662 604420 494637
663 638347 230730
664 596251 257044
665 555197 660824
666 -21683 615114
667 277766 325369
668 32673 573202
669 -8956 515275
670 715232 34539
671 -14554 550902
672 623231 459332
673 960580 591643
674 633851 432994
675 586272 446595
676 288586 250382
677 865809 600244
678 599446 246093
679 303260 287153
680 658146 177472
681 659892 212535
682 929153 572717
683 944127 618912
684 566132 496171
685 635251 409841
686 357750 279897
687 726269 259926
688 75262 592931
689 324711 257092
690 918544 562120
691 -36785 535154
692 667853 23534
693 637081 435466
694 12995 545434
695 11191 528632
696 611479 240206
697 781002 53960
698 581655 679265
699 576204 442998
700 684958 69581
