NAME : portcgen-1400-1408
COMMENT : portcgen N=1400, seed=1408
TYPE : TSP
DIMENSION : 1400
EDGE_WEIGHT_TYPE : EUC_2D
NODE_COORD_SECTION
1 239384 1022801
2 705271 677187
3 67827 601150
4 225099 982977
5 974071 225653
6 626453 405389
7 921373 193317
8 104970 33598
9 543256 337007
10 56653 599233
11 708255 671337
12 570780 378604
13 4825 578121
14 300787 340255
15 436667 226348
16 30376 608041
17 916835 202350
18 875126 341469
19 831507 326155
20 669294 657576
21 959627 198306
22 367112 295090
23 14423 606416
24 408057 315923
25 159180 14887
26 141981 52582
27 602826 370704
28 913232 176566
29 709139 714280
30 243350 920871
31 801330 394173
32 205153 989222
33 858278 351641
34 996249 199909
35 279227 343842
36 111640 -6758
37 846622 341953
38 87279 63537
39 216156 990564
40 683941 903618
41 926746 185724
42 147223 16969
43 262078 327882
44 254709 271179
45 981630 210317
46 600600 427578
47 21003 621952
48 608643 499598
49 383326 322583
50 843598 309820
51 846652 359967
52 963180 153176
53 198358 952041
54 443627 305271
55 633411 919183
56 139569 10830
57 643411 966544
58 68064 640103
59 487277 316566
60 373860 294137
61 805285 329359
62 457539 234875
63 985663 219488
64 662081 914894
65 589701 440362
66 604321 459718
67 818973 340859
68 389444 276210
69 329794 347414
70 412196 347842
71 586441 472951
72 642153 470474
73 871963 361781
74 277625 360333
75 159216 46545
76 443867 280461
77 182082 29010
78 131621 72427
79 418930 289250
80 124046 35497
81 872159 357600
82 146269 -9594
83 999122 146801
84 623058 478219
85 109527 8791
86 414911 291235
87 171145 988174
88 425410 302750
89 178853 931399
90 390383 272819
91 276518 335767
92 114286 5827
93 257875 962551
94 857781 388431
95 186302 83002
96 576493 395452
97 396862 335428
98 691987 670011
99 68199 618493
100 213916 986994
101 247471 923314
102 400060 357484
103 265261 882743
104 314283 335977
105 267638 294135
106 400319 247151
107 836715 354655
108 309230 321230
109 174610 37891
110 928352 161914
111 390517 272437
112 935484 170795
113 426550 297461
114 752588 681544
115 416210 288292
116 166427 -5231
117 151211 63882
118 158658 59907
119 71290 583725
120 920544 376843
121 37469 625770
122 420571 283232
123 882797 318391
124 958735 185807
125 196824 975255
126 137692 66734
127 255643 322323
128 113666 30780
129 423114 296204
130 839307 298821
131 732956 598700
132 234128 925000
133 262708 958305
134 437379 335051
135 103796 -15297
136 170654 20060
137 942263 192439
138 181304 -19382
139 133795 67401
140 722396 679148
141 613038 444281
142 706110 641652
143 695438 891581
144 218323 917825
145 62195 604950
146 116247 19599
147 402020 336439
148 108654 74677
149 129701 37389
150 643938 877071
151 551022 442506
152 351664 310750
153 281100 919207
154 658473 886836
155 391787 248581
156 814560 343316
157 1000647 211078
158 283475 310953
159 271940 960285
160 577430 406346
161 184121 985371
162 17347 609403
163 674009 951922
164 261353 274696
165 933494 197201
166 728910 699223
167 431635 224666
168 606139 387044
169 692843 641942
170 124611 5153
171 650453 884271
172 319374 300786
173 943247 198819
174 169614 81471
175 829884 330268
176 799323 404813
177 380574 320557
178 425288 234044
179 634505 476959
180 884818 369513
181 463001 284487
182 107823 53720
183 368898 313411
184 405171 284101
185 595976 396988
186 796796 354279
187 712268 619425
188 417409 326815
189 565700 426462
190 231590 300794
191 381180 275221
192 265269 958214
193 162971 1105
194 862292 383286
195 386656 328550
196 138858 36676
197 137987 62253
198 19084 606365
199 417765 237818
200 403385 288444
201 620448 473099
202 622333 406702
203 279103 329027
204 153614 1004061
205 249331 908052
206 279585 976922
207 633281 902046
208 412847 283471
209 106608 629038
210 157791 22184
211 146941 9432
212 640941 912029
213 134266 42122
214 305928 946511
215 859115 340733
216 278668 346526
217 221729 302845
218 440813 308530
219 13274 624985
220 132520 12781
221 36001 631388
222 365351 303322
223 222995 942232
224 684948 638056
225 448266 310308
226 726566 653555
227 278355 367540
228 559737 386504
229 360110 244473
230 631168 472723
231 802275 321001
232 288578 296260
233 107022 2769
234 581506 365777
235 703085 629244
236 207207 939864
237 545792 410678
238 704621 678731
239 244796 294452
240 180119 946335
241 278928 344672
242 671781 904971
243 610043 475144
244 945966 175853
245 635696 461420
246 419175 203267
247 271783 868436
248 290147 319167
249 686150 895149
250 161983 966831
251 313184 368437
252 114231 -568
253 624629 435516
254 392363 301971
255 832885 331327
256 412424 283117
257 572755 457943
258 140622 1000841
259 122017 -19527
260 144530 -16945
261 829275 356659
262 610238 433309
263 86675 -19959
264 826829 402316
265 412634 301870
266 577772 407593
267 817274 360423
268 412798 314811
269 237981 944945
270 953077 196869
271 219471 986491
272 411912 259763
273 106689 4272
274 77031 658587
275 135087 79563
276 889866 384115
277 974447 184070
278 352411 317828
279 863425 326532
280 342374 299875
281 284817 979969
282 620250 927353
283 142364 83959
284 391443 314119
285 379528 284785
286 383675 332831
287 424618 311964
288 150012 84641
289 613458 366816
290 831788 362070
291 687966 679043
292 174489 66589
293 733643 679049
294 295391 340852
295 76418 647374
296 62050 582732
297 387037 291741
298 143594 40311
299 198424 989403
300 886095 392099
301 689588 889086
302 559353 330308
303 305039 279348
304 188634 990711
305 616833 475184
306 595870 393325
307 231540 919908
308 711890 696042
309 162379 59680
310 44799 572990
311 579736 377241
312 247799 924112
313 248188 926713
314 657550 599925
315 275312 311781
316 198539 291675
317 644322 865419
318 244931 365054
319 9441 597079
320 397415 252944
321 126195 54750
322 109073 -1825
323 246099 982287
324 537811 394283
325 574648 468139
326 260313 313415
327 702760 896212
328 349458 280097
329 630510 971999
330 16294 628649
331 720588 700594
332 607065 928059
333 690146 642299
334 653948 453743
335 126018 4025
336 633843 460936
337 868316 377666
338 41186 603219
339 631512 898653
340 608655 880910
341 -13294 617560
342 671544 913714
343 170321 1018904
344 277054 343754
345 614326 426311
346 609808 398488
347 608555 462905
348 168331 981886
349 5825 627635
350 278958 363985
351 564174 383543
352 84628 651336
353 413089 334120
354 300198 343188
355 75027 632910
356 159943 90173
357 615200 415333
358 128542 933107
359 737656 714051
360 950458 189903
361 385181 306501
362 399148 286520
363 142236 52212
364 174521 1018349
365 578980 379408
366 680036 694164
367 128531 21644
368 35825 620436
369 874053 361075
370 569361 459117
371 870223 382465
372 677726 700547
373 351746 349510
374 588939 927483
375 614387 503889
376 404498 256288
377 735367 648297
378 230327 309534
379 415413 289651
380 952833 179052
381 689531 944345
382 856168 358168
383 639454 873635
384 570203 436953
385 523869 410005
386 298152 330149
387 315575 317275
388 394318 344772
389 466948 276515
390 309507 293145
391 838071 328020
392 324516 314214
393 215004 964300
394 255938 304081
395 970442 187636
396 599053 428348
397 378441 295626
398 118126 78140
399 847693 339096
400 852911 312753
401 557105 411264
402 107955 96179
403 186746 1018398
404 608630 397946
405 555902 339506
406 337305 312188
407 147296 79782
408 189549 925877
409 403581 329124
410 454463 273673
411 378919 327475
412 931068 188259
413 392332 253827
414 115688 9265
415 725702 683459
416 839338 336856
417 539757 383076
418 208582 924496
419 270486 338168
420 436712 231691
421 399258 282702
422 888234 353817
423 369130 267103
424 739052 644466
425 -7153 595761
426 182785 55957
427 661356 879634
428 445839 289191
429 644368 902740
430 601017 439831
431 176232 974448
432 921187 177434
433 863964 352924
434 192198 969356
435 627362 449761
436 357474 326394
437 439228 320104
438 358768 299438
439 129413 1014594
440 370241 316510
441 633428 958485
442 121859 55740
443 257700 996987
444 123542 8951
445 949493 186279
446 601304 404206
447 130363 959256
448 236517 919963
449 675126 897439
450 923118 202863
451 848016 333884
452 108746 52704
453 592182 382346
454 650814 921726
455 128466 -6668
456 266847 909549
457 411764 290352
458 201173 68405
459 205908 990391
460 679510 894724
461 976991 126247
462 948128 150156
463 106480 77149
464 91449 72344
465 640658 407685
466 344991 297015
467 173193 96209
468 873175 365032
469 579415 372239
470 180777 985183
471 675242 864370
472 429995 304886
473 447447 284179
474 599215 477028
475 857185 305231
476 216213 956263
477 567771 394526
478 695300 686330
479 147379 -2006
480 362234 311455
481 529777 320314
482 747024 698909
483 709834 662196
484 391976 295865
485 392826 241494
486 602484 464745
487 207899 936931
488 595327 435505
489 409917 286135
490 131955 93424
491 169911 978391
492 13837 632659
493 269947 299405
494 842392 357445
495 158990 983259
496 396321 281371
497 241567 978612
498 185336 983229
499 395096 276442
500 119415 26028
501 757693 648421
502 648787 878382
503 654285 917467
504 151192 25809
505 652415 681538
506 274844 968660
507 380400 249156
508 234915 981529
509 711034 658879
510 916944 349499
511 219128 1009014
512 600650 428673
513 445064 303316
514 746915 637738
515 110095 -4034
516 402178 273272
517 601119 446117
518 715963 653174
519 -12694 601187
520 593489 908547
521 677112 629842
522 23106 635325
523 46233 608285
524 159103 1019620
525 65988 589226
526 729272 675129
527 702686 642581
528 351020 287634
529 958953 174911
530 943061 219380
531 234933 872861
532 512462 364455
533 125317 51892
534 632996 943282
535 840094 397357
536 938003 197822
537 543207 373012
538 596788 401561
539 173003 986834
540 422457 228469
541 639565 854893
542 348388 287035
543 389299 260717
544 674404 924638
545 719527 701818
546 141009 968858
547 963628 159769
548 383765 349005
549 188009 967890
550 609880 398654
551 143650 55097
552 132465 69507
553 191297 974927
554 851644 389994
555 132120 -9549
556 850858 270226
557 245762 999470
558 274288 315393
559 717559 674380
560 300197 342781
561 391992 336728
562 609562 932115
563 608911 433239
564 981588 217041
565 719958 675264
566 255486 922300
567 827199 351075
568 624030 457427
569 361591 323728
570 649703 916054
571 57960 584112
572 693090 651799
573 202493 82531
574 195282 1041155
575 98131 31456
576 579416 457234
577 273969 282185
578 109849 46185
579 539349 449032
580 435021 285505
581 279979 917078
582 258172 1006206
583 16141 595942
584 386076 344787
585 425574 283528
586 575701 406747
587 621579 482193
588 175308 -28709
589 593762 920333
590 738384 631692
591 317504 326054
592 622210 446707
593 10200 656796
594 314965 302071
595 286310 336803
596 994772 183277
597 396993 303950
598 929604 211547
599 178572 39433
600 -950 607430
601 833958 355247
602 845601 357018
603 237407 943242
604 715532 696401
605 610333 434551
606 389065 330546
607 988864 194252
608 140865 67426
609 555132 356061
610 400357 285783
611 316791 345933
612 254060 280921
613 954718 156142
614 461357 277103
615 149552 16988
616 364726 299657
617 392630 298041
618 563396 376528
619 155580 80926
620 696330 922872
621 693992 659328
622 823571 363536
623 608362 452764
624 722531 664224
625 562644 403044
626 264235 283737
627 181159 75860
628 182464 15089
629 5607 603321
630 185995 1015642
631 -6521 601596
632 400324 290963
633 401809 354280
634 182547 961134
635 958254 169850
636 191932 904042
637 274486 899242
638 614315 440756
639 617184 442550
640 589904 462196
641 623852 416516
642 34143 609634
643 829191 322213
644 724593 704148
645 804 629281
646 908773 156333
647 190054 74698
648 790419 321316
649 868584 377280
650 615794 387082
651 100213 32065
652 430950 299134
653 144403 9447
654 271992 958186
655 623728 386702
656 371655 308975
657 151929 4105
658 59074 674256
659 421645 268687
660 424557 270230
661 158248 1004731
662 604258 923512
663 983209 227953
664 98573 30711
665 442715 295972
666 35432 571786
667 711117 667484
668 161114 -4201
669 705835 626741
670 404018 305411
671 53961 623236
672 448184 289071
673 939717 229930
674 184219 46835
675 547229 394178
676 273749 336580
677 631230 461338
678 126852 31580
679 207555 993756
680 679368 702217
681 393253 287550
682 683919 909443
683 555487 427560
684 614141 432400
685 570443 385791
686 962186 228882
687 158669 988245
688 410472 294534
689 16800 602716
690 380734 270808
691 842977 343899
692 579935 448787
693 693894 648207
694 697376 643611
695 7196 629450
696 26449 626386
697 708029 631307
698 161994 13144
699 136749 -9869
700 612822 496819
701 608452 477502
702 577432 410935
703 647567 397530
704 194084 1001150
705 165518 52844
706 270554 307519
707 131353 35682
708 605703 437293
709 197486 977444
710 651391 473667
711 635084 891841
712 721165 882009
713 415501 308925
714 230927 978255
715 269024 314632
716 640039 884929
717 867524 345450
718 440057 275651
719 579529 442428
720 428379 287701
721 292799 940422
722 614899 376486
723 183438 986755
724 184649 39837
725 813846 303310
726 156137 23329
727 578828 486971
728 936598 186916
729 619901 922549
730 154259 58237
731 279983 1004334
732 221563 992615
733 269365 323296
734 725660 655710
735 625185 874150
736 144250 111272
737 956348 179383
738 122730 -3439
739 408513 286523
740 574146 438926
741 136116 -12518
742 4703 635574
743 649735 917794
744 817823 328296
745 305042 274072
746 256372 975410
747 259368 886578
748 158058 976987
749 239225 942109
750 401172 286812
751 265373 913122
752 457067 303519
753 123982 40295
754 128810 61803
755 156085 73357
756 809850 337558
757 608167 346329
758 250454 947596
759 943260 171347
760 847707 381596
761 719058 711446
762 197619 20086
763 707492 919154
764 883870 357055
765 169869 84644
766 146269 70821
767 428702 291311
768 230856 951678
769 141506 69302
770 573194 434164
771 703896 693226
772 868958 316966
773 246846 967796
774 960969 189388
775 37008 637914
776 828580 343653
777 151522 944219
778 656888 923581
779 143613 996914
780 857789 371980
781 738629 674494
782 561536 383976
783 683156 646360
784 631689 420572
785 580975 381920
786 633171 975718
787 7735 607460
788 -16632 588439
789 454521 342952
790 403839 299576
791 16090 608745
792 142878 113713
793 421913 297216
794 279611 943054
795 555188 409688
796 924245 214453
797 128997 1047
798 967363 190672
799 230263 942237
800 217570 952009
801 563224 360691
802 342331 313280
803 450110 270111
804 578902 393333
805 273558 315172
806 934841 153213
807 722612 660243
808 411161 303925
809 215551 906420
810 137252 42692
811 281617 949299
812 644589 391968
813 403732 331438
814 762063 685361
815 219387 9358
816 837702 379190
817 381652 316603
818 216222 354181
819 587656 369376
820 955299 164511
821 172714 974024
822 410969 319773
823 170559 874338
824 208178 957176
825 663392 406078
826 938726 191717
827 576525 482936
828 419791 352563
829 680494 894247
830 142679 63859
831 121111 26994
832 133868 26859
833 669204 457551
834 427589 258750
835 23526 635867
836 392170 277545
837 437397 257464
838 374763 321278
839 304756 374012
840 400678 274679
841 723721 661275
842 887633 216245
843 800859 378806
844 35278 633353
845 385617 342531
846 78904 556317
847 48662 643126
848 297575 915855
849 807548 377011
850 286103 359695
851 660153 385821
852 387489 266815
853 941531 204484
854 559509 334053
855 673529 942936
856 716280 664207
857 139967 30508
858 176547 962515
859 31839 593967
860 862378 353418
861 918073 203070
862 213244 936504
863 158080 955406
864 562488 377483
865 116930 4840
866 586120 389332
867 593072 453899
868 588509 399910
869 625694 337714
870 612536 449585
871 592908 409235
872 369099 277506
873 984450 145067
874 207581 84658
875 981274 189676
876 247127 372724
877 711489 711289
878 726627 893168
879 856073 364783
880 16109 598935
881 222244 319477
882 662805 391271
883 223669 950337
884 941606 148175
885 737348 618512
886 698868 887910
887 871858 333398
888 644392 893907
889 927415 206846
890 143822 13309
891 382061 277547
892 149889 24422
893 157281 49408
894 16791 648702
895 405118 325269
896 967712 120423
897 817003 308712
898 851181 348833
899 416556 283742
900 408502 319821
901 153780 16210
902 273904 998507
903 393838 314273
904 421785 284046
905 934535 212562
906 265578 993205
907 146330 25399
908 599718 419481
909 47979 633933
910 669994 915001
911 982234 159348
912 865684 379001
913 640402 450372
914 709681 657157
915 103567 55363
916 693437 674970
917 692089 677940
918 431707 248942
919 960094 186420
920 336009 258026
921 259003 292893
922 17369 635549
923 229349 997379
924 886765 345447
925 387879 343946
926 930796 211404
927 406204 262490
928 584954 419927
929 554043 389009
930 688638 474191
931 242403 950156
932 933523 239673
933 406894 334589
934 115704 63518
935 718193 669699
936 170098 12982
937 710784 670205
938 834419 337890
939 141408 954065
940 418996 259392
941 125003 46616
942 854830 354324
943 416949 264214
944 681415 642436
945 839001 379933
946 376160 301012
947 270938 967959
948 424578 337245
949 687992 940835
950 859341 349323
951 949869 179220
952 34587 640873
953 213464 942844
954 385244 262806
955 81214 629451
956 152236 996803
957 699787 677277
958 393546 336052
959 7422 606287
960 893199 385483
961 198629 955316
962 190995 48107
963 26191 545462
964 892269 363877
965 156331 50475
966 934782 174795
967 278939 296435
968 675736 918508
969 589720 395339
970 982135 200511
971 367162 290961
972 878820 364885
973 535488 375460
974 850755 331703
975 160088 77270
976 662168 891125
977 161486 44178
978 600437 470910
979 929825 213369
980 120194 39146
981 852980 339469
982 247952 936767
983 333423 315247
984 585385 410757
985 574773 382405
986 199775 1011930
987 170892 -7215
988 603844 372876
989 125609 -7392
990 566601 436861
991 291399 305620
992 20984 576730
993 20487 610514
994 150819 -2479
995 217013 903958
996 714782 657722
997 856225 312743
998 159670 963791
999 609651 517870
1000 848913 376151
1001 145217 5475
1002 247733 313450
1003 235115 952796
1004 183112 33153
1005 88231 22267
1006 107827 69216
1007 108857 42163
1008 404391 274236
1009 648316 872761
1010 37574 584353
1011 973310 207919
1012 759669 650080
1013 980007 192399
1014 576507 417199
1015 567426 363463
1016 308635 922712
1017 5137 602345
1018 639188 434412
1019 396332 314459
1020 126866 1046013
1021 402800 315950
1022 370698 318380
1023 204452 954640
1024 669058 903867
1025 88512 618768
1026 572936 346471
1027 131145 34147
1028 279676 315373
1029 391433 274572
1030 400347 285646
1031 873991 360821
1032 393931 376890
1033 706954 616588
1034 577628 478875
1035 271495 274003
1036 207547 961966
1037 133720 72178
1038 666420 893510
1039 633470 886248
1040 660003 902800
1041 613288 446995
1042 844488 322135
1043 103744 17553
1044 242314 902320
1045 619765 442029
1046 118113 54904
1047 399882 300363
1048 160354 13555
1049 349372 334973
1050 382988 297611
1051 848973 343720
1052 652214 902706
1053 181167 84868
1054 458819 318207
1055 54766 650206
1056 241722 966753
1057 286250 314515
1058 286459 963094
1059 246779 984118
1060 154402 971650
1061 213541 942794
1062 299766 904431
1063 707887 708228
1064 190233 988684
1065 451822 320130
1066 39383 618257
1067 420972 280234
1068 768505 609914
1069 272982 1013898
1070 945291 177326
1071 440695 247261
1072 640547 369609
1073 600360 351337
1074 161120 950406
1075 279089 320708
1076 401658 345229
1077 406325 337980
1078 958854 203879
1079 153254 40897
1080 664015 955200
1081 423359 267979
1082 662441 890823
1083 989400 177187
1084 476760 268200
1085 592756 360963
1086 387994 345914
1087 693398 682300
1088 627281 426399
1089 413460 287332
1090 173379 967271
1091 234971 884782
1092 731922 655091
1093 88135 95865
1094 543409 348912
1095 174341 981825
1096 932255 174634
1097 150090 6130
1098 423107 240594
1099 252486 312508
1100 410066 316765
1101 76825 663874
1102 713725 692537
1103 178762 950282
1104 831137 353231
1105 613293 359791
1106 227507 983416
1107 164543 -20021
1108 615186 371536
1109 306109 303554
1110 176769 967255
1111 108593 9210
1112 190335 933345
1113 627291 931841
1114 171378 1010602
1115 621330 883407
1116 99291 56324
1117 418198 283224
1118 374687 272281
1119 119036 34852
1120 924256 236825
1121 898430 373192
1122 383304 272681
1123 147905 50653
1124 225744 939104
1125 900832 218919
1126 685855 924373
1127 862663 337399
1128 713152 900442
1129 375712 265077
1130 147106 -7506
1131 690074 920123
1132 389607 339401
1133 169134 7214
1134 424636 340944
1135 -6459 616779
1136 2717 622750
1137 114104 -18587
1138 371742 294234
1139 932231 169105
1140 317071 338013
1141 344233 339187
1142 35885 588753
1143 415474 267851
1144 158332 967118
1145 606705 457775
1146 22404 610992
1147 580476 383834
1148 5792 610333
1149 736635 675400
1150 933242 167623
1151 613683 395997
1152 693785 618733
1153 242990 946181
1154 216903 998590
1155 205420 965033
1156 373119 313189
1157 308187 951752
1158 753357 661434
1159 639369 945097
1160 625235 905094
1161 141857 928036
1162 113660 -10075
1163 160108 987262
1164 413161 310796
1165 642343 911633
1166 118226 -5584
1167 566575 337037
1168 593222 359039
1169 393835 312686
1170 628296 462011
1171 283357 950556
1172 607461 370185
1173 387059 325168
1174 679723 673646
1175 151087 49701
1176 115783 92478
1177 405026 322377
1178 199678 59694
1179 948830 218026
1180 143206 21096
1181 169270 28491
1182 384375 250773
1183 168244 -9083
1184 244627 1008120
1185 123639 16563
1186 400635 257393
1187 601375 410659
1188 615054 387680
1189 155449 985372
1190 157975 76935
1191 155169 27960
1192 456829 279246
1193 198980 39411
1194 957972 209433
1195 637808 411178
1196 224771 1025293
1197 542736 393051
1198 1016981 202977
1199 628737 933933
1200 399762 303257
1201 130079 44887
1202 400352 287508
1203 589616 334892
1204 281478 325218
1205 140600 96919
1206 425707 311062
1207 270684 969333
1208 267194 339366
1209 381907 311824
1210 -14554 586895
1211 841552 366487
1212 243564 900763
1213 600507 429498
1214 711344 615358
1215 573148 381843
1216 425022 287158
1217 595285 359573
1218 628953 366990
1219 -720 648717
1220 272378 919288
1221 381969 259277
1222 166784 20221
1223 601723 446842
1224 621317 476650
1225 68863 579575
1226 677550 926791
1227 591587 370981
1228 391800 274524
1229 758838 705075
1230 160552 24812
1231 959075 146858
1232 594561 436821
1233 203885 987159
1234 838949 371828
1235 819627 365939
1236 180180 49031
1237 624088 888247
1238 424223 274325
1239 929227 219579
1240 625750 436768
1241 391428 280118
1242 241428 952177
1243 188844 957220
1244 418124 296049
1245 256260 939662
1246 610402 905892
1247 598816 389088
1248 605541 406582
1249 822714 317208
1250 856465 331042
1251 131039 -24963
1252 1001761 187009
1253 300572 333982
1254 450830 320194
1255 833006 296978
1256 622588 449426
1257 402734 302816
1258 173527 941206
1259 714137 871367
1260 428408 273622
1261 407487 262215
1262 305759 333765
1263 184029 1027569
1264 612765 500083
1265 950226 205287
1266 649569 884184
1267 232282 315173
1268 976102 186304
1269 945561 191365
1270 78345 601564
1271 712349 647923
1272 403509 264645
1273 419396 373183
1274 259564 929378
1275 371558 325924
1276 188629 993457
1277 598086 457548
1278 150124 36118
1279 142447 -18507
1280 145176 40341
1281 699375 668541
1282 -13834 657733
1283 150711 67226
1284 702218 665193
1285 348257 310150
1286 664363 938752
1287 714356 670676
1288 977878 189627
1289 143367 26928
1290 189603 995957
1291 701642 668451
1292 603749 411896
1293 267733 937934
1294 142711 -15320
1295 991322 177893
1296 242929 355337
1297 644972 914694
1298 725185 640475
1299 280553 310378
1300 246999 331396
1301 539523 344531
1302 204592 1014936
1303 275878 302721
1304 724869 654574
1305 149393 66282
1306 391906 301837
1307 136666 62591
1308 239035 957507
1309 403187 278504
1310 970500 190415
1311 582316 494378
1312 562512 415631
1313 435904 240089
1314 268158 950633
1315 11977 563363
1316 124256 48065
1317 227460 319430
1318 283433 926833
1319 942968 177109
1320 446589 190544
1321 124484 18473
1322 991300 216016
1323 687166 630564
1324 346499 290278
1325 671847 893703
1326 25011 659037
1327 699205 620435
1328 172566 -4042
1329 642486 474397
1330 133981 86706
1331 581988 420369
1332 575867 468253
1333 589709 409714
1334 620514 460368
1335 711906 672235
1336 83066 -43270
1337 171004 94702
1338 819578 374552
1339 264875 287337
1340 745709 619741
1341 294478 341545
1342 633054 430864
1343 835344 334870
1344 322392 337398
1345 265427 320097
1346 193583 1005563
1347 341797 264945
1348 584790 381611
1349 713856 652133
1350 613829 483636
1351 272198 352558
1352 938624 178046
1353 258250 971242
1354 597439 439583
1355 618929 488642
1356 829580 384563
1357 432146 318793
1358 805580 336651
1359 392985 271224
1360 156533 97384
1361 280362 968587
1362 283746 922686
1363 599638 528224
1364 578949 375798
1365 207974 72060
1366 169023 4954
1367 165545 41815
1368 172294 42299
1369 569529 449463
1370 226991 953794
1371 71556 619342
1372 361030 352425
1373 162565 -8933
1374 670089 881504
1375 366497 322201
1376 151362 4048
1377 918694 227516
1378 171027 67856
1379 746978 676176
1380 582265 461657
1381 378650 345855
1382 426361 292691
1383 653481 903075
1384 628733 406411
1385 414378 264931
1386 450845 304055
1387 188716 81131
1388 393704 268127
1389 440725 281124
1390 577996 407236
1391 251891 940462
1392 244389 935106
1393 590037 464149
1394 719340 674086
1395 846605 334606
1396 982926 180958
1397 658454 907329
1398 135193 17411
1399 603225 428490
1400 145133 979149
