NAME : portcgen-300-301
COMMENT : portcgen N=300, seed=301
TYPE : TSP
DIMENSION : 300
EDGE_WEIGHT_TYPE : EUC_2D
NODE_COORD_SECTION
1 134002 440586
2 876191 713340
3 776333 735960
4 227895 464267
5 100926 492891
6 903965 791598
7 905704 725434
8 265656 753307
9 162591 679283
10 860995 722087
11 87835 359831
12 954111 722392
13 173531 459702
14 94419 367140
15 120758 364910
16 166067 471558
17 799703 653506
18 50312 396267
19 105865 550714
20 190749 614187
21 131141 380185
22 66705 710901
23 107551 742763
24 86741 459041
25 96852 669649
26 922364 650357
27 859813 838036
28 90174 624154
29 77318 536243
30 8873 774972
31 87730 488231
32 922186 733980
33 61587 811955
34 174412 412998
35 872169 888528
36 845035 785072
37 799245 885584
38 863212 739784
39 155345 460823
40 203845 772528
41 267746 811675
42 94552 448066
43 126391 537480
44 114065 460356
45 24582 362454
46 169705 432217
47 174900 708536
48 855567 710826
49 107140 495844
50 114019 451108
51 160786 728777
52 955684 815949
53 131572 777555
54 845508 724034
55 931360 768558
56 162749 482376
57 140498 323704
58 160034 324388
59 192498 523731
60 973865 712655
61 194979 471568
62 912504 785914
63 841574 767456
64 135278 413811
65 92099 444687
66 152900 639634
67 902296 841192
68 115142 417390
69 138995 647002
70 108871 747865
71 120100 716231
72 838029 730189
73 158845 594913
74 946949 764590
75 93979 549526
76 115393 563802
77 144797 670098
78 124711 714493
79 832589 731293
80 79787 575396
81 175570 684205
82 129434 656228
83 214211 367570
84 861174 782017
85 173858 439831
86 856676 756302
87 59810 690568
88 152980 523249
89 176468 448144
90 870456 733967
91 860919 749728
92 901597 637030
93 974457 732276
94 148483 437346
95 39320 642080
96 81788 596847
97 124416 640217
98 833214 728213
99 110637 414837
100 798616 776725
101 64394 686849
102 240423 352383
103 208904 506121
104 886655 776148
105 785172 808181
106 917639 760278
107 140653 496505
108 1108778 740534
109 886955 731819
110 119815 750838
111 865964 724697
112 140670 376388
113 202378 544532
114 764694 724186
115 115647 477216
116 119399 517071
117 114084 390509
118 42771 538364
119 131068 662134
120 859412 906125
121 95911 407320
122 136317 663141
123 146631 388364
124 113356 420266
125 84816 730350
126 897732 748333
127 961331 693493
128 175737 666750
129 117027 381647
130 869226 736321
131 196882 382311
132 182476 625104
133 971555 702881
134 166866 758712
135 863392 821077
136 122133 402530
137 209595 779173
138 915981 725802
139 940284 763607
140 935760 812853
141 170537 430805
142 204417 274643
143 82776 690961
144 879209 703616
145 816133 762300
146 168349 508802
147 176334 531943
148 53881 712949
149 247240 692064
150 146711 732649
151 17820 447905
152 936036 654071
153 167878 743292
154 884732 656860
155 800673 738573
156 186086 484818
157 913048 763312
158 859454 789404
159 845960 724640
160 41077 655274
161 113266 544568
162 81970 699242
163 782272 802570
164 813834 669633
165 119732 668971
166 155996 634890
167 71850 422408
168 168417 657451
169 61580 733622
170 147396 710184
171 867088 670219
172 90372 367415
173 296566 739967
174 119707 748886
175 83962 458535
176 110661 784702
177 60032 481004
178 183618 750356
179 122603 396930
180 964184 665165
181 132455 671039
182 145324 680721
183 -19702 464295
184 112346 584381
185 127317 788710
186 864241 791397
187 833294 624364
188 177426 450714
189 181188 758416
190 122446 524864
191 57344 613557
192 131485 393995
193 34835 685162
194 139886 702779
195 -26126 439047
196 890960 807551
197 142687 688455
198 131772 696949
199 108883 526867
200 888203 793974
201 189045 546503
202 95922 709173
203 90100 440936
204 945918 760164
205 74901 698259
206 163972 715875
207 814663 714848
208 139777 747153
209 754476 799251
210 119145 806261
211 843263 681228
212 63830 495661
213 131492 714582
214 120817 727876
215 932465 771142
216 898974 768049
217 116647 602506
218 842346 665619
219 172622 765494
220 142277 361926
221 154013 712028
222 118194 361058
223 -10506 372309
224 972148 710413
225 144708 857770
226 63222 456972
227 109625 479433
228 871286 739135
229 258075 743003
230 92446 693305
231 170522 738009
232 208488 662517
233 889068 632278
234 57129 434772
235 134236 437105
236 868325 824972
237 187308 455289
238 899116 716120
239 174147 329833
240 906905 872089
241 60241 686485
242 279345 510916
243 -19355 616763
244 742990 752961
245 852463 658070
246 92507 395501
247 133105 705207
248 33225 721679
249 827106 787458
250 185363 465640
251 130491 677512
252 244849 421327
253 870230 761379
254 117719 563375
255 70330 744247
256 824783 726047
257 40807 379978
258 744831 707230
259 136483 639122
260 142419 392304
261 197968 460799
262 860145 654815
263 106733 709546
264 799916 742601
265 870397 701683
266 110768 534500
267 -24415 436428
268 114434 517206
269 82641 721745
270 91742 758340
271 154700 379224
272 33933 781027
273 845126 835481
274 70746 701409
275 169381 760510
276 61012 669263
277 894094 684696
278 910134 778469
279 118996 632194
280 122054 462530
281 162975 636026
282 910977 765422
283 182261 680334
284 50496 471739
285 760664 644013
286 752724 789286
287 144639 306355
288 159351 745583
289 769772 697816
290 140627 436234
291 103998 542112
292 786076 808255
293 68764 369452
294 224233 684301
295 871753 813066
296 179595 754010
297 261770 518429
298 53913 544064
299 61764 609664
300 902124 937937
