NAME : portcgen-200-203
COMMENT : portcgen N=200, seed=203
TYPE : TSP
DIMENSION : 200
EDGE_WEIGHT_TYPE : EUC_2D
NODE_COORD_SECTION
1 530317 942476
2 500377 835086
3 1012475 648993
4 595796 836572
5 897235 624989
6 432454 888532
7 904981 703930
8 612738 881548
9 940245 615571
10 421817 899165
11 1020781 752714
12 1099952 628332
13 1095481 549126
14 435147 989984
15 623434 883127
16 569139 846782
17 953970 687189
18 948133 601063
19 808236 734672
20 792357 901162
21 561468 889646
22 585769 853289
23 456670 845228
24 988955 697847
25 647096 928994
26 1063604 573241
27 1012386 580528
28 1134846 672697
29 613034 901730
30 531916 904283
31 574221 938340
32 881849 649478
33 546539 866995
34 637676 769881
35 936489 620087
36 1142514 670812
37 631379 722639
38 541724 917030
39 986968 654227
40 1027786 667905
41 565920 804450
42 497825 873684
43 979137 685711
44 585862 896048
45 603167 879829
46 999735 524799
47 659873 836571
48 552522 873803
49 957931 732070
50 651521 760550
51 602979 825521
52 1104879 598063
53 499821 939456
54 974892 703341
55 952570 736937
56 1113098 544360
57 660492 923363
58 540031 939294
59 935000 502850
60 1160766 720129
61 1091877 641910
62 601797 886738
63 996016 568115
64 661210 946414
65 614385 983564
66 922829 622695
67 556324 809016
68 1031218 713104
69 913275 740557
70 571712 793114
71 949795 623695
72 617391 779917
73 973970 547980
74 513926 830069
75 572086 815838
76 535339 887733
77 867038 675060
78 998631 555616
79 972978 709641
80 638239 818661
81 565808 706516
82 596077 883660
83 609736 864996
84 983050 683285
85 529113 925980
86 999282 664903
87 610233 857536
88 992851 702439
89 1024099 466296
90 986409 542576
91 599220 848654
92 616418 852603
93 657277 1018962
94 518093 860273
95 998755 783835
96 1009405 596276
97 602447 980659
98 940474 658590
99 504505 855082
100 1005376 620764
101 574643 782157
102 910580 707886
103 967575 607973
104 960903 499447
105 506481 849822
106 591537 920331
107 582782 818597
108 982769 685431
109 461062 772085
110 968110 664569
111 584693 836438
112 890317 764389
113 604240 932273
114 579454 949072
115 985858 784358
116 621540 913229
117 645142 899594
118 969619 619999
119 656048 896200
120 537877 850442
121 579383 833144
122 889996 665799
123 499254 804253
124 933123 580601
125 590167 774148
126 858606 705101
127 943599 700042
128 646717 886039
129 867016 670556
130 1010617 680549
131 1085448 593982
132 526314 788059
133 610935 751178
134 632358 932708
135 622458 789533
136 1046786 633898
137 427660 827031
138 494625 789751
139 613176 919371
140 483767 861094
141 508582 737073
142 949617 580092
143 978777 738149
144 760541 934583
145 586643 920102
146 1109709 714086
147 976846 712304
148 547163 1018781
149 1037373 589503
150 482271 980297
151 737747 789953
152 735362 834658
153 915365 621625
154 583454 917706
155 1055405 585248
156 1077812 768381
157 702993 1069344
158 590003 806434
159 579270 766089
160 1004602 710217
161 954517 610825
162 1003175 650594
163 989673 654811
164 1011819 729203
165 633249 798005
166 1071726 666464
167 927534 649887
168 605664 857194
169 570717 837842
170 686932 877595
171 580698 871526
172 689301 909002
173 1048254 576176
174 1064479 632692
175 949718 585155
176 599527 869906
177 970041 644805
178 1069269 820804
179 938100 773335
180 619253 936159
181 583754 834464
182 1019483 623242
183 945127 626818
184 588788 898547
185 1031899 648816
186 1035007 689733
187 1034094 674660
188 1038328 753853
189 602479 858675
190 637912 908249
191 652160 1001312
192 552328 943885
193 619618 985505
194 620767 929686
195 666018 989847
196 671733 804129
197 895961 656372
198 673675 844069
199 1033920 720554
200 929809 639596
