NAME : portcgen-1400-1404
COMMENT : portcgen N=1400, seed=1404
TYPE : TSP
DIMENSION : 1400
EDGE_WEIGHT_TYPE : EUC_2D
NODE_COORD_SECTION
1 716821 929949
2 508301 749497
3 546134 719524
4 660409 867667
5 565020 92937
6 511794 716304
7 485357 713277
8 435224 51054
9 591429 60271
10 790643 869765
11 830549 858162
12 670795 833462
13 400972 678873
14 530542 957589
15 132695 497646
16 503069 659539
17 903778 843745
18 842806 819492
19 260375 218275
20 602565 68039
21 133687 504238
22 642095 271383
23 399332 711298
24 174947 559320
25 270616 272413
26 755981 35368
27 511548 663592
28 527164 909769
29 273001 167163
30 634534 861744
31 835074 854240
32 103686 484717
33 598820 269990
34 835798 862391
35 614988 55665
36 395442 757220
37 623017 307013
38 467376 697282
39 442657 56836
40 296985 279171
41 493151 933019
42 490159 728796
43 473726 53105
44 741281 67043
45 493864 733554
46 521114 633958
47 683426 350403
48 625432 48797
49 664450 800223
50 272938 233320
51 285179 257897
52 510416 917721
53 476973 709801
54 473347 632538
55 674687 785068
56 501485 699461
57 827615 848953
58 487204 770550
59 278067 219047
60 662867 858791
61 822477 893526
62 457820 667861
63 806539 888433
64 526102 711662
65 483574 711969
66 294930 176239
67 770880 864300
68 261335 147636
69 407289 766838
70 477003 696299
71 311224 175540
72 781679 -6304
73 510405 894605
74 647902 839916
75 796574 870034
76 486273 58243
77 499612 880729
78 407942 32670
79 167868 551445
80 467266 704290
81 616469 57991
82 489436 732342
83 469848 922174
84 850781 851484
85 345890 141958
86 662249 288912
87 133226 483448
88 849088 815884
89 636772 839410
90 237978 263421
91 898584 842797
92 295457 210599
93 775066 12533
94 172900 536260
95 280181 164856
96 461138 53229
97 468012 946786
98 659849 300192
99 488700 721347
100 312284 194221
101 276484 205741
102 834959 843164
103 494183 656790
104 510687 664461
105 789816 884428
106 529801 939595
107 245530 174685
108 587309 29627
109 508308 699154
110 599479 320063
111 767256 36615
112 668781 283839
113 311551 134184
114 442373 726665
115 234592 257838
116 480167 719792
117 649991 278362
118 750655 29946
119 548799 61277
120 417316 734010
121 454468 49422
122 321556 210216
123 663291 295111
124 401466 708718
125 830386 884478
126 838475 836865
127 577302 43612
128 493110 956756
129 278049 252468
130 846638 870316
131 784442 80578
132 246373 156712
133 513872 56215
134 818481 862936
135 764563 62352
136 291816 221910
137 825519 851367
138 451182 30731
139 509004 673566
140 752269 61788
141 477582 52423
142 504408 23801
143 481631 685453
144 169743 485439
145 739739 43282
146 729295 12231
147 138021 556998
148 492409 891262
149 640075 278591
150 257182 217056
151 867092 881487
152 467010 712035
153 195218 475997
154 896751 898531
155 252588 221210
156 114574 508761
157 483648 686723
158 270723 210791
159 573386 55365
160 135054 476338
161 318525 230056
162 399241 698329
163 245908 252214
164 449091 749008
165 686214 890374
166 302334 211888
167 288656 201679
168 506727 755621
169 522068 969104
170 684905 850314
171 529568 657363
172 864803 874260
173 133242 510737
174 284889 280947
175 652640 278772
176 256456 205929
177 519657 601064
178 551928 965683
179 823905 871385
180 264594 278216
181 141140 517404
182 496548 6662
183 307294 152078
184 505480 62638
185 447715 750847
186 501603 943209
187 313451 236939
188 499441 615311
189 235552 235954
190 439178 15046
191 788073 895997
192 653254 878492
193 876692 878768
194 313581 189180
195 359593 705475
196 631087 857967
197 262868 271301
198 489131 659082
199 239705 185456
200 739424 51169
201 155392 559455
202 260305 161666
203 854000 899104
204 316730 200823
205 161661 513240
206 519330 624459
207 411349 718926
208 647025 859912
209 286845 201954
210 559106 70350
211 498984 720710
212 799021 872761
213 456757 645912
214 269256 191964
215 764018 879639
216 461012 671285
217 811827 901145
218 421562 22594
219 289279 177179
220 509729 728865
221 917912 852704
222 483408 682317
223 239856 132206
224 154485 525109
225 292496 261323
226 775521 32712
227 454254 902138
228 606753 14322
229 348742 740698
230 778907 50698
231 111169 470193
232 508501 743885
233 249839 221593
234 905003 884490
235 910691 849950
236 506704 724899
237 670321 43635
238 721432 56748
239 483135 977700
240 166407 537728
241 427434 -11061
242 474837 690874
243 775787 20257
244 731659 32216
245 467540 635939
246 742147 45460
247 656660 355367
248 498482 679359
249 222702 537297
250 858025 886937
251 678167 260271
252 500780 110625
253 721134 897079
254 496263 961145
255 673504 843731
256 229884 260462
257 172799 524225
258 496965 716777
259 818309 32733
260 288749 209177
261 297975 184604
262 572661 119302
263 745929 59375
264 637540 75825
265 762109 3669
266 691988 865028
267 598290 80979
268 459554 908331
269 250288 198623
270 445062 17968
271 694860 294419
272 482490 46791
273 445907 727406
274 685766 831658
275 521220 951641
276 290554 181506
277 243989 237422
278 262180 214595
279 409517 725809
280 487020 962134
281 853251 831353
282 302127 174648
283 818610 886870
284 760074 87739
285 630209 853106
286 705915 21351
287 834741 867359
288 581044 328463
289 238025 192588
290 776516 12244
291 656988 269786
292 428539 773540
293 754056 101990
294 157759 541352
295 237634 243660
296 531301 658751
297 469242 697099
298 797531 885409
299 225445 255985
300 829544 869256
301 454666 67399
302 619219 294377
303 477624 613236
304 243308 263205
305 508870 916081
306 395022 735109
307 488698 654915
308 566597 17736
309 658266 318571
310 882563 890971
311 285062 196059
312 519667 24376
313 834678 897949
314 701827 901914
315 446514 628440
316 277492 246540
317 887551 915023
318 397602 711762
319 613933 34562
320 438531 702877
321 89696 505578
322 719577 28232
323 290951 203009
324 798106 854393
325 774067 63871
326 821133 946261
327 326627 701546
328 674057 936717
329 800930 21409
330 507563 632004
331 709006 871456
332 845556 822098
333 687760 841005
334 829103 907996
335 641499 349827
336 248295 207223
337 694198 840256
338 648371 324976
339 766505 887834
340 668966 900125
341 592492 80537
342 494041 44732
343 881151 848344
344 625218 253844
345 792245 15933
346 812828 885585
347 534324 963064
348 289280 198215
349 823075 930432
350 465392 31394
351 676340 300814
352 443184 632767
353 464441 737118
354 732052 33708
355 299717 163134
356 710059 857756
357 789608 74360
358 742477 836282
359 152237 550780
360 497586 666144
361 636034 309312
362 300749 171656
363 379591 732764
364 884815 891515
365 444427 55276
366 250475 186782
367 703393 866272
368 463957 684693
369 444532 717304
370 463830 941926
371 226377 230096
372 659504 832716
373 798266 881585
374 654812 299336
375 131002 491824
376 887613 830031
377 138068 514199
378 890906 863402
379 401081 726241
380 307042 171642
381 793776 2683
382 498517 708734
383 619265 53781
384 495221 888904
385 664056 843464
386 133228 554698
387 801249 914159
388 505742 695645
389 306845 194974
390 444256 98592
391 679035 313402
392 683467 294382
393 469018 66191
394 679625 871355
395 815741 891133
396 125209 503849
397 825527 901479
398 279805 254555
399 565565 60417
400 477417 58128
401 265794 212544
402 527619 885145
403 513454 640084
404 860443 851878
405 153315 517444
406 559679 912575
407 931254 890758
408 856812 860238
409 507556 714706
410 453080 739922
411 276833 178636
412 734631 71501
413 504778 690456
414 631411 354094
415 579744 578515
416 515509 986162
417 593658 64310
418 651969 78687
419 563445 644769
420 486342 54666
421 242395 177734
422 145003 499484
423 502846 618967
424 406297 713822
425 384274 730420
426 904857 881607
427 831417 856924
428 673234 844029
429 752686 886462
430 677575 930918
431 518379 695417
432 930232 830931
433 671164 834173
434 655416 858137
435 539889 610389
436 509312 672636
437 423158 767885
438 898942 882356
439 771697 30993
440 486829 38891
441 508047 736639
442 758716 110596
443 657332 852146
444 578181 81402
445 605389 93796
446 399425 752874
447 534112 83829
448 141295 481580
449 530912 913998
450 494819 642272
451 93708 474539
452 653972 844451
453 555015 53660
454 261971 243927
455 524740 60822
456 606019 83381
457 507937 923380
458 751560 13281
459 406413 700545
460 472098 924809
461 572190 62361
462 504747 928546
463 403165 710383
464 373271 741315
465 454353 738976
466 884356 847682
467 870989 920582
468 228888 271020
469 789164 13427
470 825416 865123
471 726253 32747
472 554178 653346
473 643340 293337
474 520083 668911
475 124867 563999
476 508330 715709
477 822485 862773
478 167457 517718
479 117288 523961
480 498613 710404
481 375402 715042
482 490674 713389
483 813034 849214
484 835359 808242
485 520087 650092
486 519848 702348
487 127663 496798
488 761646 15451
489 666650 323129
490 508638 690684
491 122852 483385
492 318802 176988
493 690209 823693
494 486297 913033
495 640894 311663
496 781539 902351
497 668074 295213
498 752867 51889
499 885100 845701
500 517428 666931
501 509693 736547
502 457460 653326
503 633542 318145
504 812345 874899
505 515029 637691
506 477273 707673
507 394888 710869
508 843023 885898
509 409448 748168
510 503547 634050
511 264999 168130
512 397438 758282
513 661732 266942
514 524456 914670
515 563096 91816
516 532503 915739
517 493306 694350
518 165664 525192
519 251889 140194
520 480022 646326
521 678633 836219
522 822923 881999
523 679564 323967
524 468180 739473
525 700142 312596
526 295666 187510
527 579798 57645
528 865691 847866
529 248690 191525
530 872591 860767
531 833208 862508
532 526524 71032
533 599501 84644
534 798779 864765
535 664011 831805
536 655618 338922
537 675183 859944
538 495933 657076
539 483231 897354
540 798964 895801
541 868834 888267
542 460466 102916
543 418355 684170
544 821446 889708
545 745455 22929
546 522725 933552
547 569702 46329
548 393313 674586
549 499736 708394
550 701899 826877
551 722446 64257
552 643442 247266
553 304729 177031
554 815390 874431
555 455126 69005
556 867030 917254
557 499172 12701
558 296719 190292
559 257465 226677
560 692723 872084
561 794559 855600
562 658948 815219
563 491930 688357
564 161068 502073
565 853145 864150
566 346395 163109
567 339774 748958
568 580673 46207
569 481638 64414
570 286236 157079
571 792370 31987
572 660036 315297
573 612335 301175
574 435153 79879
575 477594 679768
576 478183 703307
577 295045 171357
578 678784 292453
579 619803 329282
580 521422 950665
581 502367 923906
582 157144 488290
583 138746 490018
584 829938 926344
585 676074 822802
586 248529 236720
587 305492 260805
588 481149 938320
589 562142 770961
590 792558 54202
591 542174 894677
592 876860 875656
593 275191 168813
594 885079 855082
595 426237 90818
596 371035 733942
597 603438 49814
598 755985 52674
599 473202 46260
600 279975 160888
601 588748 83233
602 474428 89091
603 856244 870549
604 498949 662906
605 587187 50307
606 240805 192781
607 512458 658756
608 427427 726010
609 589938 58724
610 688055 310817
611 515242 677758
612 465879 891061
613 576671 38506
614 654941 291493
615 114766 555316
616 500483 892584
617 680996 859022
618 293956 158023
619 266883 229132
620 902552 885419
621 662461 254506
622 251579 241649
623 289860 210812
624 661918 272571
625 134806 575573
626 767561 65126
627 335260 151733
628 465218 921917
629 443926 49686
630 511492 702333
631 818017 827857
632 513684 882553
633 893262 869535
634 572320 52981
635 134695 520487
636 419242 741914
637 771348 37040
638 549076 655811
639 360048 705387
640 371217 685288
641 674817 340886
642 413733 707669
643 259801 247229
644 458421 81947
645 557178 48219
646 514102 907929
647 816465 881992
648 434104 727705
649 564898 35358
650 811216 867087
651 821243 873205
652 298009 159109
653 289737 161903
654 820897 852171
655 844309 849934
656 143281 518088
657 517629 999291
658 472155 950966
659 620765 257571
660 508115 865384
661 675342 899933
662 769302 64674
663 244535 188091
664 492031 604020
665 148107 494922
666 543425 938763
667 591891 112708
668 706363 854311
669 464694 709671
670 159510 501734
671 815143 871260
672 673059 279916
673 645837 289123
674 545635 917619
675 211602 238543
676 912170 858760
677 602359 98914
678 832847 877991
679 526419 713494
680 459956 700148
681 462654 679682
682 623975 274279
683 397200 706162
684 671482 278108
685 497162 939380
686 518744 626810
687 875048 851223
688 666489 273004
689 518428 610860
690 430518 46691
691 495244 931841
692 293166 169890
693 511577 63495
694 766400 89842
695 554256 65031
696 725849 22808
697 427346 38812
698 679978 870308
699 695222 827757
700 615120 75499
701 424882 736756
702 886183 906320
703 654726 287786
704 849146 867342
705 537746 40875
706 900950 871979
707 659419 279405
708 631818 308313
709 858408 874199
710 477568 639784
711 451149 43519
712 500141 918554
713 265397 207798
714 412264 660803
715 481522 55833
716 197096 535472
717 117036 550578
718 487098 952211
719 142676 511160
720 886213 871943
721 271273 239313
722 844955 893263
723 579214 44020
724 563006 52351
725 84608 506288
726 313600 222866
727 783698 22084
728 909335 894597
729 428797 674614
730 531376 689057
731 453519 61207
732 851736 844384
733 873411 858796
734 280060 193469
735 726081 52718
736 797838 64126
737 872375 890048
738 589616 71335
739 904101 856113
740 863691 916879
741 256719 244928
742 663343 288337
743 456502 717678
744 272567 231756
745 863342 857264
746 737784 56764
747 828658 815232
748 507347 652909
749 850540 863480
750 476803 928711
751 271279 270268
752 160233 521239
753 523335 947976
754 447571 77189
755 249070 273697
756 457548 686215
757 516371 941883
758 479610 680702
759 316075 165646
760 895717 856637
761 853246 815335
762 138093 545166
763 899783 866847
764 817055 879955
765 291715 147892
766 305223 195574
767 276276 239653
768 539678 34006
769 778874 906374
770 199301 455082
771 542248 51229
772 641699 875465
773 378266 699322
774 231359 227497
775 508115 917944
776 518316 721926
777 470581 974184
778 571904 84981
779 703901 870587
780 639291 304507
781 556311 921180
782 702367 44178
783 488055 690066
784 468125 767661
785 489180 683080
786 528267 940531
787 182896 548305
788 367326 732475
789 670085 276284
790 931653 896292
791 557651 687246
792 464234 726616
793 142963 520353
794 461538 918062
795 255411 229370
796 768652 28093
797 565209 44738
798 800256 872346
799 141713 564121
800 549839 66219
801 739837 97140
802 327108 219842
803 392257 722436
804 562571 12347
805 849154 838058
806 270942 146462
807 850411 894971
808 808831 108989
809 183069 523636
810 625690 300708
811 741995 79414
812 528457 598090
813 888622 902583
814 729830 26058
815 496791 704071
816 420560 71127
817 273453 203219
818 556555 90029
819 422496 65129
820 241403 227912
821 391104 737274
822 445513 46335
823 456702 60730
824 862592 883486
825 137832 483763
826 311929 239883
827 479386 927670
828 482907 697118
829 620874 66322
830 468414 678864
831 548493 90467
832 165913 543630
833 515973 650715
834 475365 102187
835 585016 61403
836 790698 23907
837 542498 715738
838 534326 880729
839 224642 238173
840 694946 852386
841 452775 102966
842 882100 929042
843 750838 46731
844 500624 604286
845 925108 893217
846 670850 287040
847 476464 676118
848 570673 86755
849 876327 840986
850 514942 940474
851 290731 144514
852 521350 623495
853 817441 847266
854 567257 1030756
855 585493 42958
856 678931 852899
857 517214 660531
858 612515 310348
859 488186 95375
860 700466 273674
861 643767 816376
862 606337 27246
863 702350 870265
864 408546 741901
865 264431 216365
866 526968 718131
867 248693 255426
868 484963 724115
869 362748 760315
870 129976 537578
871 773785 65405
872 117661 493748
873 487566 704300
874 891980 884906
875 308486 195681
876 466239 659067
877 266992 239058
878 587137 70734
879 523611 632754
880 690645 282232
881 778792 91658
882 829119 819202
883 393079 662638
884 291368 226962
885 736098 43923
886 612393 297854
887 508279 644405
888 481951 703841
889 499348 707878
890 374480 749964
891 220522 227351
892 748339 45818
893 507238 610333
894 522009 630293
895 788778 878158
896 282808 196501
897 770568 901130
898 531876 698497
899 134415 507233
900 237404 164872
901 480486 615656
902 403311 721665
903 608077 69598
904 465346 19191
905 288219 260259
906 581553 54093
907 453972 62521
908 480760 680919
909 760652 59489
910 562211 894431
911 909690 867303
912 782133 937323
913 851875 920504
914 559290 12708
915 491473 693307
916 756186 26839
917 663074 313434
918 256332 214764
919 448207 48403
920 562235 46107
921 255986 262523
922 643165 294228
923 698337 42436
924 515895 928584
925 850165 871631
926 604145 97376
927 553551 65810
928 530255 614419
929 501198 651536
930 487051 653634
931 270430 286685
932 545897 115223
933 490631 912690
934 586384 39777
935 732311 -4078
936 514570 677675
937 281273 149597
938 906068 891418
939 446303 727788
940 476235 734145
941 677227 284824
942 472826 924587
943 232912 210440
944 663661 797176
945 131225 499695
946 491558 642042
947 493261 713784
948 755505 56802
949 462234 735019
950 530127 914729
951 276764 244381
952 301758 190917
953 520744 641340
954 316309 161426
955 139695 506677
956 671781 863857
957 366834 776265
958 788777 859639
959 534680 39742
960 650489 304305
961 155784 484581
962 721347 840268
963 459873 80141
964 652380 295719
965 569763 32898
966 846205 876897
967 886338 867443
968 620681 282841
969 488887 983056
970 657612 337931
971 694301 839326
972 530790 665591
973 262097 152880
974 806573 825223
975 518290 681265
976 394435 734600
977 533036 599677
978 845377 901606
979 337618 167848
980 840321 828585
981 840068 852165
982 485934 612134
983 701810 317469
984 295450 178066
985 526610 921836
986 171664 516848
987 524041 614031
988 338403 191045
989 464560 764
990 620740 357659
991 469073 678642
992 588288 83842
993 527123 88861
994 417218 683474
995 576192 64227
996 687919 334056
997 139604 511057
998 697506 864524
999 891835 874486
1000 421888 7609
1001 178932 497979
1002 125706 547164
1003 268061 145436
1004 551331 52166
1005 436116 55946
1006 719145 870568
1007 557458 89336
1008 803243 853130
1009 529388 894547
1010 523725 641176
1011 765786 26197
1012 270963 167113
1013 669120 271546
1014 846980 849796
1015 483817 634413
1016 839390 906456
1017 466330 75539
1018 272856 217856
1019 110778 528126
1020 329787 181527
1021 276486 187460
1022 614809 39633
1023 500902 658308
1024 481875 861177
1025 847944 891509
1026 830605 802664
1027 673445 880191
1028 766303 67988
1029 860928 880279
1030 585367 79189
1031 468349 77906
1032 504962 692409
1033 514213 767805
1034 636624 273290
1035 283955 236218
1036 653380 862681
1037 285791 216627
1038 538774 675139
1039 767527 867180
1040 444614 733403
1041 688483 886593
1042 866152 849464
1043 421525 714222
1044 905719 871743
1045 700263 791725
1046 875946 875240
1047 595683 145282
1048 510704 726995
1049 126811 516451
1050 676354 297181
1051 524080 701114
1052 306402 190724
1053 845944 854473
1054 438200 80735
1055 272221 188765
1056 550727 919042
1057 724321 61406
1058 542246 623790
1059 372555 724324
1060 318893 169507
1061 283549 215054
1062 467793 77679
1063 532490 26301
1064 467152 723715
1065 696270 820828
1066 449987 73245
1067 388352 708800
1068 456472 55490
1069 817431 847054
1070 253200 190778
1071 671139 285068
1072 231504 225639
1073 670332 257935
1074 282029 160918
1075 505070 923793
1076 257359 264669
1077 509563 48301
1078 472167 639090
1079 723665 44931
1080 882759 916511
1081 543209 659412
1082 827540 877681
1083 698546 826734
1084 584097 20101
1085 543775 102001
1086 450703 49353
1087 622253 324163
1088 818324 868773
1089 863681 875160
1090 750329 62205
1091 583672 41454
1092 109028 557733
1093 524455 663527
1094 473025 54725
1095 376376 696828
1096 605141 124828
1097 289671 193314
1098 377466 62123
1099 278161 194125
1100 504108 620920
1101 246848 227643
1102 85392 510499
1103 776159 -6887
1104 267077 151249
1105 388115 725580
1106 248816 244407
1107 897245 850098
1108 457755 644125
1109 458047 93285
1110 683678 839543
1111 465833 893626
1112 445059 699078
1113 276546 184477
1114 725902 71844
1115 469277 915954
1116 518332 647351
1117 866116 898489
1118 351539 690758
1119 444517 973994
1120 484667 971414
1121 581057 123041
1122 482506 636923
1123 250766 263311
1124 810414 888588
1125 270056 178608
1126 508794 666031
1127 456468 754696
1128 703243 838281
1129 197736 572085
1130 315557 236376
1131 885826 930423
1132 258656 261541
1133 492310 967829
1134 482056 703097
1135 492627 717393
1136 163095 533310
1137 842977 897723
1138 326303 747572
1139 892835 865607
1140 428849 44523
1141 626236 338924
1142 526080 656587
1143 427372 88059
1144 642484 294832
1145 496129 648845
1146 583369 91617
1147 205159 225477
1148 516651 936652
1149 282203 234811
1150 197059 267346
1151 286087 195122
1152 500332 940233
1153 479865 30887
1154 495864 910159
1155 468312 30386
1156 733140 50636
1157 633053 292828
1158 473897 937389
1159 447508 99826
1160 502592 726414
1161 274753 224156
1162 242588 204487
1163 759715 39110
1164 265522 224165
1165 493206 655645
1166 611373 312527
1167 502787 681857
1168 883330 869910
1169 818754 901702
1170 632130 336298
1171 717837 857890
1172 905269 830464
1173 499170 945559
1174 485786 652139
1175 145198 489702
1176 489318 712749
1177 509541 706735
1178 507102 50395
1179 139599 553358
1180 236560 138336
1181 695491 30853
1182 508068 922749
1183 626254 58972
1184 883069 895831
1185 516600 902716
1186 535281 616447
1187 407204 736367
1188 476291 718763
1189 858082 876213
1190 806859 831016
1191 574304 53875
1192 141704 504887
1193 509675 934033
1194 511218 906022
1195 866934 859589
1196 533816 616270
1197 674101 825353
1198 467937 707587
1199 583761 30986
1200 458338 42128
1201 278846 186646
1202 899697 882597
1203 418110 56620
1204 528475 606281
1205 549264 70297
1206 149043 483176
1207 145428 517589
1208 489600 725023
1209 909328 880915
1210 235796 111436
1211 445301 96352
1212 811656 885752
1213 473430 50803
1214 840947 895861
1215 437893 754918
1216 487655 693780
1217 593967 44902
1218 441952 725761
1219 291574 138369
1220 430743 65429
1221 846390 879568
1222 572735 63569
1223 293198 161735
1224 312182 251939
1225 560905 88890
1226 851327 867068
1227 815321 792852
1228 490907 955982
1229 483830 922992
1230 399932 701172
1231 564103 57137
1232 861174 893981
1233 497542 26428
1234 890051 850255
1235 567886 68854
1236 720887 28130
1237 481033 707847
1238 393126 689384
1239 138622 539943
1240 502461 915184
1241 471183 108125
1242 751429 -4887
1243 876969 923076
1244 865870 853222
1245 896394 845010
1246 473529 645809
1247 463291 654826
1248 880372 875719
1249 506214 652746
1250 781224 888273
1251 692465 826915
1252 527034 640024
1253 90963 517447
1254 404932 4319
1255 521837 925907
1256 442671 21034
1257 836894 908682
1258 622596 313638
1259 411435 738892
1260 659401 825115
1261 682961 839557
1262 491012 12716
1263 424042 26991
1264 539482 865758
1265 652473 283808
1266 285094 187285
1267 413315 703910
1268 504557 725563
1269 320484 143806
1270 497779 909208
1271 499092 109664
1272 498038 926726
1273 495381 4888
1274 499237 672430
1275 536694 666783
1276 378516 687977
1277 876685 835181
1278 476351 923651
1279 306451 138922
1280 438231 26528
1281 581812 115808
1282 552409 960282
1283 510228 669296
1284 574791 2357
1285 850158 857865
1286 286442 196315
1287 266870 230477
1288 767248 853645
1289 289951 179103
1290 675905 857979
1291 245247 225565
1292 398358 740854
1293 417751 14213
1294 821651 882396
1295 172090 534202
1296 506932 710880
1297 496525 699107
1298 589665 66722
1299 273283 163187
1300 803201 845165
1301 115607 463263
1302 494909 700468
1303 525307 700557
1304 256294 252213
1305 491115 667963
1306 473890 716847
1307 523363 65858
1308 297550 191869
1309 894870 875891
1310 465557 29545
1311 653647 296627
1312 258544 260439
1313 312315 159495
1314 362288 705678
1315 686352 288365
1316 275627 231077
1317 854152 846726
1318 401428 705769
1319 638505 262059
1320 567514 910548
1321 452277 908418
1322 645675 281252
1323 619894 308856
1324 655289 829130
1325 739381 35029
1326 250737 209921
1327 651887 300992
1328 557471 -13996
1329 522986 618591
1330 855127 840646
1331 133631 524301
1332 494415 679683
1333 312117 163361
1334 897450 830940
1335 573535 65422
1336 680743 891578
1337 881379 943067
1338 511567 686548
1339 668772 279946
1340 868359 857502
1341 293615 202313
1342 448508 69594
1343 598785 41712
1344 323766 175772
1345 489653 914835
1346 240966 246438
1347 446903 40737
1348 893594 907156
1349 497267 935732
1350 305503 161963
1351 212673 554754
1352 253251 229217
1353 768023 83968
1354 507472 701823
1355 253707 221241
1356 628808 253513
1357 275500 214665
1358 521132 661250
1359 493887 935112
1360 249182 195951
1361 474035 92729
1362 473278 44051
1363 271169 149656
1364 828016 853872
1365 499593 683261
1366 596731 91121
1367 509231 690128
1368 678150 816900
1369 500626 72446
1370 520335 664069
1371 790959 841509
1372 813347 872624
1373 481079 654361
1374 185460 539006
1375 462250 748311
1376 514958 605686
1377 287738 229726
1378 838523 858022
1379 641642 302816
1380 652891 317514
1381 520569 31466
1382 155780 569934
1383 468986 19912
1384 153385 501911
1385 482842 717143
1386 133452 522340
1387 556350 113691
1388 284932 223453
1389 790681 817844
1390 571831 83103
1391 487579 95834
1392 911507 877528
1393 235116 218840
1394 457155 62464
1395 755801 23447
1396 611121 835457
1397 478597 696998
1398 476803 642995
1399 846666 862605
1400 672685 273269
