NAME : portcgen-800-808
COMMENT : portcgen N=800, seed=808
TYPE : TSP
DIMENSION : 800
EDGE_WEIGHT_TYPE : EUC_2D
NODE_COORD_SECTION
1 17136 90449
2 943352 398777
3 632954 145728
4 623869 186557
5 589414 219380
6 535739 111873
7 29186 77561
8 660689 517181
9 386006 934981
10 916180 523133
11 471170 124972
12 40994 163526
13 358694 910700
14 316455 895072
15 448961 466925
16 523180 42714
17 46493 65128
18 307558 910835
19 951403 541970
20 557852 99973
21 398968 424965
22 291089 898703
23 508130 460622
24 562604 225336
25 445795 416110
26 466771 98247
27 35942 149527
28 410471 114472
29 864448 474538
30 580614 218649
31 -50086 81133
32 440861 366381
33 466359 91200
34 587360 114989
35 401877 405926
36 647859 166952
37 339460 836167
38 296614 902453
39 551424 62238
40 402885 108096
41 462234 485799
42 656378 522656
43 558398 95239
44 589162 210983
45 6635 7359
46 466755 439855
47 573825 5788
48 413861 811523
49 887313 502629
50 914644 497863
51 632406 210863
52 426158 79923
53 414646 127538
54 601902 248665
55 54765 21032
56 862088 497063
57 449577 178939
58 898113 516362
59 67452 14788
60 471542 66645
61 529041 179365
62 17024 34854
63 847764 474179
64 912472 486252
65 896635 542581
66 428299 415411
67 698723 588016
68 456450 431289
69 626269 597141
70 553825 210864
71 474698 405439
72 645647 535376
73 570050 52482
74 867684 509038
75 458266 108464
76 471250 406487
77 583269 179634
78 479711 478350
79 417878 874145
80 672993 574010
81 344763 846952
82 -40317 39697
83 603232 97049
84 906005 531922
85 390122 380903
86 487327 100906
87 893058 483431
88 588348 165785
89 421946 91738
90 641500 499931
91 363103 864791
92 587654 79112
93 401636 141251
94 -35226 81203
95 476182 123041
96 720195 528558
97 285456 896064
98 886204 526871
99 325344 914400
100 470115 164119
101 476984 465056
102 935939 528703
103 668584 529113
104 558972 110979
105 590176 538812
106 354535 931547
107 318673 875771
108 650056 543763
109 581808 523053
110 468348 480881
111 418325 150025
112 434418 62540
113 564538 598172
114 620520 69622
115 497284 495205
116 -14670 93079
117 441608 76752
118 538013 73862
119 520567 138623
120 504228 444183
121 417737 387921
122 522003 87353
123 51656 144338
124 557882 78151
125 586584 55051
126 633629 538894
127 519308 106596
128 633475 164558
129 431326 462015
130 47458 122404
131 357860 863419
132 896702 518734
133 590174 18133
134 466159 100866
135 290506 916951
136 545205 188972
137 594779 179504
138 459187 56256
139 574402 544544
140 57064 103639
141 647092 542757
142 540709 109415
143 392092 417829
144 640958 228295
145 394724 82067
146 446438 61603
147 277395 862331
148 673736 583819
149 323803 907939
150 626481 519819
151 5578 93069
152 601564 165497
153 -22531 97164
154 875464 490489
155 603845 107657
156 632111 529093
157 326358 872278
158 563777 86846
159 483686 82743
160 621828 580084
161 535731 36031
162 380746 149144
163 503897 61986
164 659355 538008
165 292778 911294
166 24456 49905
167 870500 485832
168 544336 36117
169 817205 554843
170 319839 876288
171 -33629 86224
172 505496 139975
173 589427 193586
174 631803 486334
175 616451 178143
176 372870 134993
177 816010 524290
178 579733 117920
179 473569 113811
180 330441 859176
181 579846 306700
182 610477 186610
183 848830 527957
184 589699 142270
185 521135 68285
186 567484 44989
187 508147 370279
188 276846 935101
189 374636 350475
190 553931 56961
191 704305 566835
192 905201 509561
193 53658 112306
194 634689 514735
195 335210 856543
196 660082 -26312
197 553453 242849
198 329103 849882
199 29701 45879
200 432410 422313
201 632706 560100
202 291704 842097
203 331501 899758
204 316321 840424
205 585493 499755
206 583580 74569
207 581962 180654
208 308363 843212
209 600151 169807
210 411724 144965
211 652339 490361
212 547263 61811
213 -29954 95735
214 561469 272317
215 875263 443920
216 -41801 78702
217 400453 410636
218 585024 189590
219 619097 211051
220 895422 454545
221 610459 542159
222 563673 188521
223 905883 474776
224 616498 102579
225 453004 114015
226 -40420 77541
227 423642 395103
228 302763 906636
229 -21235 94166
230 505239 400547
231 913079 508602
232 324566 846470
233 464627 439932
234 607492 188400
235 24776 86611
236 12920 118583
237 878406 421059
238 472286 397203
239 624873 517808
240 640468 196052
241 370004 53387
242 360276 857534
243 510699 418758
244 834949 534712
245 523300 383683
246 -35179 89080
247 623486 508382
248 572728 88253
249 2629 119434
250 625355 644538
251 628354 187618
252 464738 395937
253 325555 906463
254 583149 188414
255 322360 906466
256 437313 59239
257 -62679 24904
258 671162 519071
259 349192 842575
260 915232 515474
261 604939 196465
262 497017 466029
263 437061 416269
264 507690 407784
265 329860 861595
266 634595 149032
267 465850 379652
268 412072 93311
269 475136 55935
270 892376 497320
271 511213 29493
272 394523 65309
273 285164 923188
274 328191 865270
275 902448 502418
276 322775 866526
277 885267 565996
278 351036 899296
279 485782 107273
280 18925 5733
281 539503 234415
282 623812 551917
283 480044 488134
284 582075 561870
285 5648 110702
286 505713 460450
287 449982 399003
288 862305 497437
289 456750 476541
290 518485 133248
291 -11424 75310
292 461423 54394
293 434773 420270
294 669149 217810
295 872044 499016
296 675934 472622
297 475355 439877
298 880836 521654
299 579487 172168
300 617233 201912
301 841676 460476
302 13512 56202
303 816469 499387
304 634347 531934
305 941263 516699
306 554894 69870
307 577576 40430
308 498500 51473
309 892516 480111
310 560772 58379
311 562457 70808
312 575036 128073
313 6167 96715
314 67765 42287
315 935232 481455
316 44032 41435
317 686951 562125
318 835048 473841
319 578836 57621
320 564536 139160
321 542005 105298
322 643693 514097
323 475786 413606
324 491126 417061
325 626113 536146
326 876780 482142
327 38758 119196
328 310894 860631
329 342245 889927
330 335159 895573
331 899673 482446
332 668082 550542
333 906572 500588
334 264664 901569
335 406905 417820
336 672330 506687
337 435750 117538
338 438488 81288
339 325892 897581
340 604574 213850
341 307436 913338
342 310541 881387
343 879071 484614
344 577330 194947
345 630926 618617
346 933794 479389
347 522821 243934
348 376460 903158
349 -13791 98888
350 -20167 38758
351 305807 833662
352 957641 493657
353 871131 485861
354 463958 63625
355 8466 72991
356 576845 172261
357 835931 429471
358 260956 889914
359 12268 78703
360 826382 464115
361 559719 55949
362 300740 924243
363 934188 448006
364 456246 80470
365 419249 115007
366 588056 213796
367 651983 542677
368 582764 205105
369 491180 51092
370 598259 531816
371 -22894 93603
372 654698 512442
373 307794 874211
374 529333 215867
375 913090 513785
376 447180 96234
377 536048 37602
378 315282 922860
379 438646 81617
380 334541 910647
381 275303 863335
382 13860 122318
383 913133 518068
384 898795 463892
385 540923 304486
386 635356 607436
387 -5420 135534
388 436530 15968
389 582793 184156
390 456702 77343
391 600848 44487
392 350074 878311
393 527440 425051
394 597046 117072
395 289848 852428
396 432281 481699
397 539566 154321
398 467069 421838
399 13395 33675
400 652155 587029
401 -31585 44281
402 562347 85840
403 487443 34758
404 379776 52599
405 624822 178286
406 373972 828584
407 900320 464456
408 460760 110487
409 296340 872888
410 -17112 31618
411 -6174 65050
412 628812 576425
413 19420 124080
414 600499 541042
415 534694 59161
416 622781 205549
417 578907 188634
418 366428 384629
419 575102 117488
420 438150 389307
421 433096 98762
422 515600 118075
423 876204 547851
424 646718 241402
425 481582 87332
426 -9783 120216
427 575220 203469
428 635624 542389
429 264720 909293
430 668572 532222
431 427953 59476
432 467437 430580
433 -1543 73912
434 340932 873906
435 893281 498414
436 565369 153959
437 17454 44869
438 856304 419664
439 387518 421226
440 986678 533250
441 284136 874866
442 471485 88312
443 452757 91421
444 301402 860544
445 892015 485118
446 656305 533942
447 455250 130284
448 642664 226759
449 670288 524172
450 605733 564278
451 -23580 76909
452 382346 884283
453 878601 455468
454 465015 403089
455 324082 873780
456 353420 919802
457 477870 459813
458 529312 131356
459 428669 385136
460 926032 514708
461 10239 96201
462 637112 278675
463 805219 440545
464 689704 281869
465 562179 180066
466 -776 59457
467 378225 854044
468 610667 273204
469 527728 66528
470 572886 77778
471 304535 988744
472 2980 105041
473 563657 103831
474 873982 524322
475 458185 103075
476 37303 43693
477 -38238 108262
478 527298 94125
479 -47905 81793
480 508422 417415
481 -1377 123236
482 413370 90047
483 579691 150764
484 405873 61172
485 605793 540226
486 370635 119967
487 572953 39155
488 290870 854611
489 450688 413219
490 669630 556794
491 529781 181288
492 13854 33394
493 378030 911368
494 486165 99862
495 625687 198904
496 469894 432172
497 307506 832500
498 478516 413863
499 575099 219507
500 908516 447420
501 869127 455802
502 641957 512691
503 455087 410188
504 304658 936138
505 66613 75806
506 403111 115265
507 528896 92176
508 410741 75653
509 52418 116424
510 580545 107798
511 592035 203970
512 587182 530840
513 877890 446037
514 505722 463432
515 687281 495876
516 364818 899987
517 682456 513866
518 417659 443948
519 463791 131789
520 77638 83395
521 39044 101094
522 463364 464021
523 430494 503519
524 23179 -9604
525 519810 433836
526 438348 406913
527 929616 518494
528 259902 839989
529 604800 505772
530 441996 80651
531 570347 55883
532 449890 415985
533 531021 103813
534 594550 6541
535 613573 519632
536 294758 905812
537 856983 548392
538 603075 188377
539 355630 867199
540 617309 149387
541 574722 48009
542 564563 114047
543 622171 656056
544 568495 87283
545 649639 556977
546 30490 37662
547 565025 111427
548 495817 96169
549 435474 450286
550 350905 844755
551 464962 134660
552 913623 404566
553 575481 101528
554 -1211 65518
555 551074 81204
556 298679 870158
557 578171 76486
558 522755 115704
559 309421 905854
560 957554 517936
561 437029 196432
562 873557 507069
563 316440 967389
564 625937 585531
565 621410 561466
566 943951 556776
567 45124 10180
568 857332 438501
569 597450 176179
570 429921 22627
571 640337 542715
572 32381 87998
573 462688 376382
574 907158 488452
575 548720 57301
576 603795 181645
577 856552 526818
578 473315 400487
579 422108 443392
580 848918 423228
581 496219 419125
582 512344 414431
583 581099 206879
584 623773 535561
585 551502 128688
586 306421 885449
587 900415 501755
588 -1150 83109
589 610448 127302
590 862570 577167
591 554573 129624
592 470863 454310
593 -74346 110600
594 575273 126311
595 571596 170926
596 637844 213754
597 463970 103071
598 571101 122902
599 411623 105708
600 584021 87164
601 605468 186326
602 457419 334913
603 324645 882880
604 502045 69819
605 614566 248312
606 429090 395284
607 569320 46247
608 470304 409446
609 674285 556759
610 600736 160246
611 -11474 138298
612 910811 456666
613 -36630 125641
614 567768 192859
615 64996 36200
616 31313 79448
617 917424 493512
618 583687 176587
619 882607 550957
620 445877 144486
621 18600 96529
622 412658 13162
623 436620 446185
624 937102 460126
625 -35589 72272
626 883147 450402
627 469505 71620
628 -36474 47164
629 445632 376357
630 650475 578227
631 877415 448644
632 441934 -1647
633 32418 111404
634 313519 930296
635 923109 442352
636 52537 53737
637 550818 115407
638 458646 406610
639 465614 85965
640 522776 209609
641 29220 117405
642 688925 596453
643 527423 53854
644 28269 78420
645 467574 81188
646 415786 110850
647 846000 515007
648 393350 78745
649 462938 408735
650 489881 440483
651 511009 474414
652 588605 86503
653 389345 66923
654 340166 930741
655 46551 86416
656 550129 101135
657 607677 47092
658 841807 524354
659 914614 528628
660 602044 78978
661 411465 457648
662 48279 57005
663 397560 108837
664 905125 491219
665 597851 476781
666 584682 143240
667 500664 93836
668 517762 80337
669 554074 187600
670 341652 877928
671 726091 540748
672 558837 113127
673 338299 916029
674 423026 426935
675 470745 368853
676 460916 46758
677 324617 897226
678 860420 491633
679 893522 499320
680 656687 577322
681 613433 65125
682 392452 66970
683 879973 452161
684 833863 480434
685 584679 30595
686 484145 400396
687 491578 410329
688 472027 399290
689 571583 103736
690 710019 564529
691 372396 386599
692 403891 115025
693 476708 130067
694 8035 93724
695 -11990 68407
696 928391 459859
697 435850 424977
698 -6464 98810
699 15768 82593
700 -29503 91293
701 470333 501344
702 534987 85400
703 286692 894596
704 459922 144083
705 264827 914952
706 634987 504681
707 577549 65318
708 871297 579352
709 632536 92913
710 98321 124078
711 61638 84598
712 906290 504621
713 542858 101379
714 711837 568719
715 27139 106353
716 858905 501254
717 44517 80671
718 550636 168651
719 446815 400579
720 553953 233040
721 648811 50569
722 572230 185798
723 540737 163853
724 579143 202509
725 884594 524779
726 42218 48527
727 572727 28576
728 950998 469901
729 500830 80407
730 639324 578408
731 608143 138296
732 526748 152596
733 307121 887661
734 661113 557808
735 4208 129807
736 365101 925699
737 591474 271461
738 36870 54437
739 519710 108635
740 515995 67595
741 644287 585624
742 74094 71541
743 597098 95203
744 274769 875825
745 -20413 88547
746 566340 53179
747 607553 102127
748 574582 150575
749 900458 525554
750 32889 106420
751 483368 138142
752 98621 124301
753 922839 508751
754 635481 580836
755 455863 427625
756 472672 462572
757 548758 49568
758 455485 63151
759 884142 422773
760 555161 159622
761 358347 898620
762 627997 198541
763 435600 411083
764 581860 526929
765 331690 892163
766 555288 46046
767 588919 501202
768 647919 553502
769 307520 884715
770 537420 71059
771 882732 504035
772 265302 899672
773 682097 541532
774 475891 453842
775 684042 209154
776 537976 124575
777 411096 432304
778 587091 96927
779 632986 600544
780 415827 414231
781 887782 512128
782 332987 848010
783 643830 123915
784 408883 396838
785 338225 848546
786 884278 569814
787 930164 508772
788 19443 95563
789 608276 145037
790 938000 488233
791 684540 559057
792 600135 203501
793 359200 882951
794 393656 900791
795 331694 885903
796 605839 164276
797 613245 494180
798 529866 56134
799 373531 888407
800 480978 421103
