NAME : portcgen-400-402
COMMENT : portcgen N=400, seed=402
TYPE : TSP
DIMENSION : 400
EDGE_WEIGHT_TYPE : EUC_2D
NODE_COORD_SECTION
1 798041 181253
2 945339 525215
3 859023 386202
4 1003511 483423
5 461564 817730
6 759756 199131
7 793233 227039
8 931691 479020
9 875860 469295
10 476762 837257
11 704432 181294
12 932424 567213
13 497123 877120
14 706755 235547
15 912411 538199
16 855874 438710
17 529164 896477
18 723985 145564
19 960634 486012
20 795514 157477
21 931895 529422
22 484020 869075
23 848667 533194
24 906097 463165
25 845134 229578
26 945830 579143
27 499983 877046
28 490214 749402
29 880319 527911
30 444062 901014
31 446396 786588
32 883222 510550
33 710688 165152
34 493488 878287
35 965563 486787
36 458480 861845
37 682876 225239
38 783988 251411
39 452600 849895
40 819625 190567
41 765269 189765
42 824602 220306
43 739273 226293
44 1010615 509550
45 395841 907156
46 414158 893938
47 732352 255551
48 426825 891613
49 453850 789690
50 937442 516941
51 937742 502149
52 945084 511582
53 890610 546828
54 975437 522623
55 920995 546902
56 841093 180647
57 520804 788278
58 481594 780668
59 752287 124902
60 437017 786690
61 911816 529449
62 965462 511260
63 460653 827178
64 432620 747082
65 893596 577626
66 860609 557813
67 939124 427648
68 678007 254073
69 982262 590045
70 531941 856822
71 861149 629487
72 824207 211432
73 906733 487996
74 349338 859888
75 877414 503441
76 415655 855327
77 891655 578434
78 930106 493556
79 999677 504928
80 963992 503104
81 909460 538558
82 812182 526988
83 402209 836615
84 406345 812991
85 963225 509236
86 1011904 554082
87 801923 254834
88 984984 478046
89 929142 517911
90 941277 474272
91 958042 523806
92 978790 612760
93 848278 451752
94 1018575 556727
95 843524 200337
96 924208 541525
97 404891 850842
98 877004 249988
99 430181 788485
100 892642 599272
101 454958 889941
102 937195 530945
103 789939 282176
104 421640 859223
105 978748 447167
106 472537 838702
107 527839 885913
108 947363 624915
109 777684 173196
110 444878 834870
111 1093272 566992
112 353499 866520
113 432645 814753
114 835982 118887
115 951876 558613
116 1009338 510057
117 924842 551312
118 836510 569158
119 432520 875524
120 909452 584426
121 994384 548284
122 608263 768050
123 783577 247330
124 971767 507515
125 1031685 592092
126 1003922 445139
127 529358 902668
128 974384 480941
129 925712 597582
130 720026 259967
131 991311 531027
132 871294 506970
133 917886 540003
134 671862 176997
135 859655 197936
136 845068 488768
137 890129 584322
138 469940 833876
139 504477 867422
140 760479 244430
141 485544 777767
142 862418 418350
143 361392 871833
144 950521 500246
145 892833 476354
146 766043 153194
147 899685 500096
148 1003532 625294
149 944754 566129
150 951411 464289
151 932426 546612
152 903024 440098
153 401179 814330
154 1012194 513478
155 466574 777658
156 928342 583734
157 968952 479048
158 477082 901511
159 958195 493695
160 923015 481837
161 755945 196131
162 896800 546389
163 811983 125167
164 438963 888634
165 940000 527346
166 1035453 518299
167 904642 489039
168 657832 217912
169 939114 555164
170 360871 893135
171 1007406 473978
172 919126 457584
173 775548 169448
174 886819 524623
175 462284 846996
176 999865 537067
177 437385 881357
178 707995 211035
179 945041 513607
180 875402 288354
181 708340 160649
182 740432 144314
183 455049 763790
184 886335 552502
185 817073 233089
186 420709 840720
187 778362 187708
188 414930 837248
189 751922 172649
190 843628 239573
191 720516 241593
192 442249 815625
193 836997 490107
194 943046 462239
195 939922 565159
196 786673 297316
197 698395 250450
198 746692 166268
199 745444 546395
200 787567 206510
201 904576 449610
202 982335 462147
203 922828 521572
204 467366 876760
205 943452 561832
206 771100 256542
207 936064 469465
208 981435 566534
209 432802 804961
210 415422 875454
211 943810 483094
212 938123 471692
213 836202 281394
214 887549 561470
215 855787 516174
216 389420 842399
217 756229 251215
218 880556 216246
219 982375 427926
220 943578 518110
221 950359 529405
222 884919 554119
223 845738 476119
224 963960 540606
225 881436 613591
226 378802 744590
227 758578 176859
228 811351 568361
229 932675 563551
230 1067142 525018
231 924063 275859
232 484313 889500
233 1033398 549020
234 873082 622930
235 762768 138880
236 414692 971566
237 812620 158294
238 499605 738937
239 883427 282990
240 953456 535499
241 905755 588174
242 895820 301450
243 909218 604471
244 725614 273672
245 871073 467142
246 873035 663596
247 703081 302344
248 928143 625926
249 926977 516972
250 405444 765357
251 430812 831269
252 514669 859436
253 895549 592236
254 901950 571390
255 727744 256928
256 768125 223079
257 786651 147062
258 890116 518095
259 721395 247870
260 831535 487977
261 752691 201155
262 482704 886046
263 703667 136352
264 506495 868547
265 731551 259076
266 670285 215931
267 424812 814420
268 928063 545670
269 909684 447633
270 902317 538486
271 762889 154907
272 928035 525831
273 439315 773105
274 552443 802697
275 762816 224328
276 783596 316440
277 994873 527422
278 570244 852303
279 852944 574541
280 717777 291927
281 834409 145259
282 772725 208577
283 751090 151630
284 857521 592908
285 766773 226836
286 439457 785248
287 893156 420617
288 896382 516976
289 953013 538614
290 487919 885989
291 807114 266321
292 791187 302828
293 413763 818468
294 494597 843844
295 482634 882014
296 716493 183732
297 448068 854426
298 826780 215979
299 860740 480222
300 496049 817238
301 997768 576769
302 886973 524226
303 972073 503068
304 404108 825148
305 918613 205533
306 1000801 513915
307 746443 311962
308 488115 816164
309 818165 273643
310 763909 272642
311 745062 160441
312 722339 244603
313 942263 504315
314 1017465 580356
315 770991 206340
316 458224 829437
317 1031521 475486
318 446109 883078
319 959491 443759
320 908146 514876
321 905910 568739
322 747285 301031
323 737016 225813
324 941488 535876
325 555604 846268
326 978514 473979
327 727819 202545
328 988295 574469
329 773790 214539
330 434798 837433
331 930974 475655
332 882693 608177
333 970168 473803
334 781247 206116
335 979944 507502
336 827855 229206
337 919313 524701
338 922050 404195
339 805886 187743
340 930888 631691
341 425898 838659
342 778726 226893
343 815289 159405
344 904210 541153
345 920071 444408
346 468817 736008
347 379299 775111
348 857085 541669
349 887486 452012
350 829860 254930
351 738869 136102
352 893537 470808
353 979053 624164
354 957069 474041
355 446633 870778
356 860438 554473
357 498381 827287
358 762629 257155
359 870189 608691
360 1002262 532777
361 873967 581259
362 1014143 551850
363 492408 797779
364 436856 780553
365 907007 226987
366 931887 449076
367 876909 232046
368 703883 163286
369 1003117 396309
370 904856 533193
371 949110 484492
372 890639 466908
373 796610 168087
374 419433 762493
375 748796 286028
376 914180 519554
377 957394 445804
378 414943 783652
379 984152 429869
380 850107 222558
381 519553 805216
382 726870 182273
383 935167 559036
384 804988 259664
385 443528 907006
386 979274 534309
387 834947 523524
388 429701 848046
389 500886 877004
390 451868 844270
391 498166 801822
392 746755 276734
393 945137 527616
394 1014820 499182
395 695003 216533
396 881001 153426
397 957372 553242
398 462644 820335
399 439289 855954
400 807569 530193
