NAME : portcgen-700-709
COMMENT : portcgen N=700, seed=709
TYPE : TSP
DIMENSION : 700
EDGE_WEIGHT_TYPE : EUC_2D
NODE_COORD_SECTION
1 643500 806082
2 820018 246386
3 800860 287186
4 934547 381680
5 205342 649432
6 956548 443104
7 1034097 805293
8 973103 396062
9 801488 299033
10 846866 230799
11 571082 718398
12 556563 792155
13 616410 752087
14 779996 224697
15 683169 845644
16 805745 288909
17 1004529 829587
18 504512 701164
19 626783 748733
20 182699 558279
21 781148 206606
22 961151 832507
23 969075 814226
24 782699 417502
25 866704 214320
26 575627 747926
27 832355 391396
28 215724 535213
29 737968 373308
30 808956 273355
31 802793 291241
32 493991 689574
33 960060 888556
34 561840 807391
35 1040042 922973
36 171284 614063
37 551927 753987
38 870253 394425
39 238017 652887
40 941836 844782
41 185858 672912
42 179302 659154
43 882817 414591
44 191131 555529
45 596647 719484
46 640717 823258
47 945654 414043
48 616816 727885
49 701433 798718
50 498297 778012
51 701652 401687
52 504429 744267
53 884228 934893
54 785185 291885
55 256729 624800
56 724916 456871
57 559322 657853
58 527221 737252
59 840511 322624
60 843907 309525
61 588763 700643
62 616062 791817
63 535775 770936
64 964693 758375
65 797667 317348
66 747565 427165
67 565507 810637
68 861336 253936
69 903663 446566
70 746263 294708
71 827786 186260
72 903679 294238
73 918880 416803
74 272494 647204
75 532012 739792
76 979837 857741
77 548260 684837
78 775926 429045
79 594753 836987
80 809511 296721
81 855369 382904
82 839823 355467
83 564762 758616
84 238397 649405
85 641317 819947
86 915106 409162
87 903666 437312
88 888932 407259
89 968413 861008
90 696601 441159
91 635464 784029
92 537969 745365
93 951926 370357
94 871074 449152
95 830018 308427
96 844246 354309
97 278524 650009
98 939531 394591
99 975050 923555
100 580664 848767
101 267099 688314
102 599069 810731
103 698778 457571
104 947304 858327
105 834741 272927
106 949944 434977
107 762146 436928
108 859567 445481
109 557778 836609
110 559966 763580
111 191490 640559
112 581015 822681
113 819555 315780
114 883207 252722
115 551131 750469
116 969518 807301
117 697848 464225
118 589566 815908
119 552202 689491
120 770198 425622
121 202674 630357
122 929433 854041
123 592809 822754
124 823104 313072
125 904421 303448
126 684711 447483
127 605415 814482
128 703601 724170
129 472091 701233
130 248630 604970
131 735336 436462
132 750636 402866
133 925461 868657
134 789157 231606
135 750074 510785
136 174993 553487
137 747488 407701
138 965043 440970
139 723338 481502
140 575687 840926
141 736138 395548
142 777159 422817
143 803239 267286
144 527864 742966
145 601514 718000
146 276954 610642
147 821252 219628
148 975550 395692
149 719664 451629
150 1012121 823628
151 966735 863449
152 225655 751115
153 620856 770518
154 571691 701996
155 715159 463736
156 579872 705547
157 212365 662748
158 567031 756926
159 568822 705222
160 823241 242600
161 1003644 828421
162 948741 920215
163 600766 739149
164 865167 405821
165 701465 501407
166 599734 728792
167 669181 467354
168 973825 883444
169 979141 864886
170 857983 454100
171 220543 602724
172 780895 300322
173 1061642 938359
174 965600 835970
175 944991 437957
176 873904 285481
177 939669 431823
178 941263 859146
179 628267 774515
180 787373 408070
181 762007 464444
182 989949 816723
183 565371 709771
184 916702 487153
185 957940 857295
186 750437 368501
187 732672 367288
188 1019965 808449
189 186223 629793
190 959726 938280
191 867352 289547
192 960209 437170
193 994815 854958
194 690649 435931
195 903254 481235
196 900923 480651
197 659791 818140
198 556857 840129
199 286115 632677
200 552985 704059
201 247513 668914
202 972923 881606
203 698725 372068
204 704757 410254
205 765386 444631
206 769332 445466
207 738841 290030
208 603432 710676
209 916969 408697
210 861201 217021
211 790780 222612
212 913270 741121
213 836409 324464
214 791008 238411
215 906081 407221
216 817636 253361
217 540235 735973
218 848103 226426
219 678815 424275
220 997913 805012
221 861929 246144
222 1049243 870980
223 267474 664760
224 686253 820085
225 695713 384189
226 988955 857615
227 637982 804120
228 856143 370641
229 828088 277373
230 550661 734962
231 285767 613103
232 961171 860325
233 637602 805674
234 831160 302136
235 911845 419312
236 150578 616325
237 657716 793704
238 787031 217052
239 641502 789378
240 959557 845584
241 920170 409574
242 982397 866641
243 498344 727777
244 533976 763361
245 824296 246890
246 871254 472406
247 504767 757373
248 471832 734700
249 459399 684014
250 967109 871926
251 511388 779573
252 515633 727588
253 763056 264567
254 544342 693026
255 571958 782762
256 715241 271961
257 742536 388670
258 809360 250748
259 822667 293026
260 615308 823468
261 880070 445761
262 294375 632493
263 640327 685877
264 659047 811579
265 824055 219096
266 920837 469312
267 672447 434623
268 753269 436475
269 925584 466319
270 1009514 799216
271 917654 481471
272 793178 313116
273 500020 723147
274 874758 264326
275 768026 428117
276 986930 837355
277 710714 453693
278 964429 830199
279 1003406 853479
280 933727 868279
281 652549 404354
282 950142 428845
283 143398 578083
284 583941 741448
285 545031 792819
286 949491 453635
287 219336 584698
288 617857 867650
289 577459 776507
290 754294 398445
291 507227 722047
292 646747 860326
293 916854 556315
294 825012 220154
295 799484 377283
296 995742 892440
297 818096 263218
298 569044 670693
299 542707 741294
300 845490 236695
301 663245 847532
302 579116 817221
303 785922 261443
304 909831 846481
305 555093 660603
306 785181 309079
307 710811 443615
308 201447 619925
309 814137 224685
310 827132 275337
311 229573 644311
312 277976 671722
313 236330 594182
314 646139 714087
315 608791 800692
316 868386 234520
317 617666 813240
318 842452 232903
319 510868 723172
320 1008069 829795
321 784881 479422
322 742979 303983
323 765418 350116
324 817753 261763
325 528770 742982
326 1017628 869746
327 718851 408133
328 632627 764941
329 1019964 864929
330 933313 397964
331 723197 364229
332 760985 414513
333 728610 392658
334 944641 852092
335 928150 886781
336 812862 317468
337 829675 302491
338 734351 420829
339 786214 367528
340 617644 806212
341 820913 229449
342 959640 936297
343 774879 440175
344 124403 718231
345 957776 868672
346 778106 261985
347 705583 428159
348 185695 622348
349 1073817 866403
350 695736 385865
351 774601 355729
352 208993 654822
353 576395 813456
354 584008 768370
355 785641 444453
356 624987 776941
357 954161 881793
358 195249 666248
359 280277 663668
360 95582 572844
361 660053 852736
362 1027044 842833
363 199755 677271
364 733668 392460
365 661908 778635
366 584560 784867
367 919577 435483
368 850774 269067
369 716120 420479
370 794995 229601
371 961081 916887
372 156504 700270
373 264765 635956
374 964868 463232
375 763691 410182
376 891896 358003
377 859752 427601
378 1054867 827305
379 186555 638495
380 727810 393448
381 925328 862935
382 1022383 862761
383 830061 303066
384 184922 653351
385 883749 236939
386 909652 413223
387 783822 392553
388 828048 297444
389 217458 655892
390 216338 676748
391 740256 428553
392 796389 235878
393 938454 834353
394 734474 477535
395 868001 276534
396 635636 812562
397 858830 240329
398 787971 435450
399 631748 710598
400 447697 743286
401 495209 764959
402 766663 271240
403 829463 210102
404 573238 727404
405 985812 831836
406 852464 405703
407 847661 267882
408 275845 667419
409 932808 486474
410 675174 799556
411 752583 277142
412 571557 702686
413 952870 386771
414 145422 649440
415 193765 657149
416 623051 839102
417 947102 879819
418 855257 290998
419 632395 839929
420 964105 900279
421 523573 750348
422 237079 654180
423 696738 430076
424 912753 406243
425 557676 774845
426 877922 387487
427 521140 751612
428 977379 876149
429 783465 274962
430 955573 850750
431 146420 648672
432 507021 750968
433 984117 915397
434 742557 439083
435 643393 778655
436 762819 355120
437 189661 602161
438 557539 702369
439 955908 824453
440 958031 438095
441 611041 791419
442 584563 680333
443 912880 857125
444 1012959 889313
445 254640 659548
446 545854 752807
447 873824 406563
448 247377 659435
449 609413 781072
450 218787 666711
451 660178 832079
452 964954 889449
453 782413 305611
454 931819 249815
455 934625 380945
456 553658 810849
457 662167 759984
458 708246 439093
459 531283 695665
460 729078 428343
461 930681 847648
462 950035 456694
463 115798 666467
464 660150 828004
465 918027 443996
466 705502 407736
467 763597 431011
468 706737 420857
469 813364 279538
470 755394 439405
471 904410 466554
472 641414 760331
473 818685 416957
474 900130 374924
475 923711 462026
476 955307 881988
477 773291 343670
478 905082 225609
479 615812 769943
480 225117 687214
481 585812 796631
482 641780 784293
483 494198 717245
484 873821 496340
485 545083 723659
486 578627 730618
487 805762 202485
488 838184 198712
489 761060 410702
490 1029135 848184
491 779037 400477
492 238628 627227
493 259766 632394
494 910428 432596
495 584792 778128
496 175009 622905
497 208717 603983
498 250993 674846
499 550420 785550
500 830528 250276
501 236669 634056
502 533380 767354
503 995034 908140
504 243872 641847
505 650208 790674
506 516297 722586
507 592781 682168
508 549886 743117
509 951860 859927
510 512020 745462
511 982183 957334
512 814632 189993
513 696572 348141
514 651743 783482
515 546934 825227
516 801263 305977
517 596518 855825
518 655985 792307
519 987369 392300
520 836274 249058
521 608523 820844
522 982156 834781
523 724749 423684
524 880427 445104
525 660016 801335
526 972876 883219
527 519632 693939
528 662994 907673
529 763745 453438
530 829247 294498
531 554650 787681
532 784123 439105
533 755874 459273
534 588338 854619
535 544480 695252
536 901422 426447
537 543618 731096
538 259470 619552
539 911036 450879
540 214511 709909
541 750919 426429
542 907976 459527
543 752090 395960
544 255260 643644
545 189747 700218
546 671054 405629
547 875484 419310
548 823202 309597
549 980262 998617
550 901880 433217
551 560876 752668
552 870279 249030
553 552312 734162
554 900959 390098
555 958157 826607
556 644556 879270
557 749458 257755
558 674441 836119
559 514693 724621
560 886656 432984
561 661048 801043
562 526510 747255
563 170703 654619
564 598984 844254
565 829698 284520
566 679909 421852
567 742791 420443
568 706869 357524
569 717788 401680
570 961449 473885
571 132410 636451
572 977224 922618
573 722721 349439
574 784337 300194
575 268910 658394
576 799464 279896
577 1020427 904770
578 887086 418564
579 587891 816975
580 963032 878304
581 617590 829621
582 497691 696669
583 701369 479269
584 1035588 831739
585 838099 304047
586 899541 800864
587 851107 487214
588 187298 665115
589 852373 316490
590 730576 384926
591 766786 399579
592 988936 888334
593 231366 649196
594 958824 837141
595 787197 296463
596 777853 449446
597 248279 611948
598 217636 642409
599 947601 836005
600 949168 396504
601 1040779 898351
602 613927 828373
603 203336 615052
604 790502 443351
605 997824 378237
606 520628 723777
607 772052 383110
608 964564 890016
609 739609 276674
610 517906 760568
611 614213 755942
612 553403 663264
613 555895 690931
614 616507 676901
615 563489 738062
616 203665 623096
617 227551 610740
618 818493 251204
619 171499 642277
620 517677 812955
621 185782 667629
622 500403 693960
623 990369 891366
624 589935 817675
625 976785 875913
626 865900 437837
627 259891 701233
628 827748 478419
629 561897 712860
630 824728 246295
631 843188 278698
632 938117 492536
633 967608 931436
634 876871 844631
635 466014 754538
636 219245 599273
637 595928 819927
638 162479 582417
639 757442 452011
640 618476 730853
641 944433 456864
642 785217 240154
643 168217 585888
644 797127 283723
645 535764 725360
646 850343 219715
647 821063 240816
648 971707 419149
649 513360 721723
650 234942 659516
651 599902 761939
652 696404 811480
653 672659 767021
654 777727 211443
655 588838 708163
656 943293 491090
657 819178 267768
658 834826 309566
659 583642 827575
660 249528 641156
661 234128 610549
662 527905 745795
663 903879 385974
664 1004580 842308
665 617414 794097
666 204681 644094
667 784944 377478
668 912237 827820
669 559026 753204
670 979046 873155
671 1000086 896721
672 140365 614365
673 977942 433010
674 921970 441601
675 629559 819037
676 739071 435147
677 634705 845044
678 778123 271916
679 888790 394891
680 269085 661648
681 1003837 926162
682 880278 285600
683 607428 816907
684 802565 227867
685 202190 629005
686 983190 833775
687 726428 448749
688 734957 475324
689 521810 747017
690 689999 395325
691 564744 758578
692 806172 385556
693 540502 774248
694 904000 464536
695 951664 468880
696 604726 700027
697 155202 667750
698 491830 694096
699 587341 865193
700 233220 647077
