NAME : portcgen-1500-1510
COMMENT : portcgen N=1500, seed=1510
TYPE : TSP
DIMENSION : 1500
EDGE_WEIGHT_TYPE : EUC_2D
NODE_COORD_SECTION
1 645007 245601
2 887715 340245
3 681589 214631
4 152818 964648
5 81759 334690
6 547567 325598
7 515914 347575
8 124516 896035
9 526204 529880
10 148874 253797
11 547397 546292
12 692665 359982
13 486664 516413
14 727109 315808
15 154737 227483
16 52173 260149
17 110126 303607
18 576515 291241
19 189306 113432
20 379109 381363
21 97992 258871
22 85503 912840
23 873157 315000
24 133848 156469
25 104830 950222
26 81255 240126
27 569535 275611
28 176362 136230
29 576301 328049
30 696667 453680
31 119505 169230
32 214300 205129
33 794144 492249
34 114002 303136
35 120624 900083
36 762649 415145
37 97794 363742
38 866122 400878
39 770740 484677
40 916719 334931
41 86469 225397
42 633741 442199
43 182494 979667
44 546469 256038
45 172459 911396
46 628797 430674
47 521516 291704
48 683659 427793
49 128571 920773
50 174161 975897
51 561807 506056
52 511463 516351
53 46546 372799
54 672850 192722
55 510137 556028
56 654741 440728
57 51517 310943
58 103513 891101
59 64973 296290
60 715562 275816
61 168428 160808
62 95891 362345
63 187672 174348
64 189621 993704
65 183369 1001337
66 500576 537328
67 880863 306743
68 159261 927407
69 691442 215344
70 167602 135106
71 57215 223677
72 643168 395865
73 120022 269201
74 784656 462974
75 523470 251746
76 520434 311746
77 64592 903846
78 823072 323918
79 493951 551884
80 676333 228791
81 703919 328260
82 391793 390965
83 701060 295472
84 151476 390754
85 62709 336983
86 526432 518029
87 121126 185574
88 852504 356746
89 176666 951259
90 38705 338471
91 528424 534652
92 180481 917194
93 96161 846136
94 525488 558519
95 524896 287559
96 654187 421004
97 672155 346631
98 545520 575876
99 108213 243644
100 68607 292061
101 372550 422577
102 81181 284637
103 169817 1011972
104 468100 299427
105 116690 302191
106 100111 338559
107 141914 131457
108 379399 446768
109 72266 229828
110 516870 326751
111 70611 889141
112 889020 383062
113 107710 918993
114 388856 377730
115 70067 353257
116 839958 334882
117 138428 176160
118 742598 493029
119 755089 316298
120 620609 397925
121 733118 310558
122 72657 300420
123 98419 314637
124 583340 346402
125 536965 290263
126 371405 402983
127 212995 985255
128 395512 459308
129 737432 461294
130 100902 306225
131 406046 389106
132 163462 991914
133 143609 121862
134 51620 266458
135 720479 284375
136 705867 226619
137 567131 546729
138 21132 300716
139 72716 244726
140 364587 420466
141 704683 435021
142 183601 204485
143 377343 391032
144 675547 227650
145 193194 992022
146 560084 339112
147 421100 443172
148 843187 492729
149 120379 199379
150 519979 263616
151 519303 302384
152 565321 361473
153 351591 394061
154 140856 163201
155 178843 201549
156 708648 286035
157 906190 292112
158 703181 303505
159 138381 129469
160 116253 928691
161 729139 314863
162 631809 445077
163 97942 315014
164 49809 325379
165 645336 218029
166 18670 313059
167 645991 364848
168 361985 458137
169 373700 421118
170 557735 331115
171 547187 553667
172 122297 261122
173 152030 173557
174 699887 275715
175 93884 270469
176 551174 520190
177 124590 128241
178 139909 178692
179 629835 453246
180 700948 226783
181 82325 900394
182 743719 511178
183 676238 328247
184 124405 228624
185 905865 354314
186 119393 165821
187 83184 220074
188 640728 421903
189 375536 402401
190 503995 309050
191 724982 287130
192 762548 481347
193 718813 274387
194 649956 441326
195 168589 145646
196 734261 173460
197 765357 498273
198 413370 420666
199 111766 225014
200 80722 244960
201 612381 461894
202 124181 862605
203 176971 163473
204 926220 344828
205 681838 456877
206 140578 298754
207 864016 305617
208 206949 156428
209 225007 201705
210 160743 200866
211 119608 845621
212 680077 234475
213 749193 185497
214 749181 293963
215 177641 1019037
216 194520 210419
217 579117 302560
218 95401 304662
219 54381 333830
220 115736 252803
221 692608 326928
222 171611 126399
223 580272 309779
224 165685 902028
225 534153 275143
226 662864 433416
227 207017 1007922
228 95013 304324
229 99028 875947
230 721509 305428
231 675814 491524
232 387904 382314
233 180480 128792
234 854103 353557
235 176515 178583
236 528221 547615
237 26601 366179
238 126233 908040
239 66173 265736
240 725401 536823
241 860184 298864
242 757482 484943
243 378058 449179
244 224510 988978
245 45219 229929
246 37044 347464
247 39715 325797
248 137224 330014
249 541438 331149
250 66151 343694
251 506833 313865
252 188588 210554
253 111091 938910
254 38189 302103
255 391295 377426
256 65523 329449
257 713023 231053
258 168215 986164
259 445762 397852
260 172961 1006352
261 114530 240837
262 192506 967708
263 665499 474605
264 66962 282997
265 191480 221522
266 520808 519206
267 753293 500850
268 42962 321365
269 58793 307858
270 194541 978349
271 534833 306446
272 746131 469187
273 756820 514008
274 873842 338886
275 693757 418343
276 101004 220190
277 723900 292563
278 192984 222296
279 655689 412016
280 874626 274821
281 178629 982120
282 361296 390919
283 645682 445043
284 845903 359035
285 866806 329683
286 688217 262390
287 215661 977529
288 578403 313996
289 893373 341038
290 105755 903556
291 535521 328559
292 119107 897620
293 759062 462829
294 64046 329861
295 100908 895890
296 836021 336136
297 68634 918028
298 67351 302639
299 86174 246600
300 122601 901637
301 179242 188388
302 745627 270090
303 888834 296536
304 711968 217102
305 381151 384697
306 108032 203758
307 734390 449194
308 164750 173961
309 360356 415145
310 139053 215045
311 596557 339393
312 854272 329730
313 118660 267410
314 740480 281622
315 175847 1023017
316 160372 144731
317 170304 121919
318 519779 357826
319 534713 318324
320 155065 170598
321 690198 217052
322 184987 173001
323 91709 351345
324 93596 957908
325 381754 369926
326 645938 402154
327 692726 219483
328 712238 299924
329 70023 251505
330 408719 363890
331 76889 238852
332 127598 922419
333 95232 912187
334 208004 1001277
335 687347 174491
336 163352 132751
337 509535 328827
338 91147 292945
339 489312 498653
340 140018 140674
341 194324 216525
342 752925 424479
343 577732 277773
344 470683 505005
345 32842 317705
346 150152 180528
347 686655 214704
348 62962 202672
349 96971 274019
350 141331 868771
351 663745 201894
352 163782 195619
353 176695 221850
354 527226 307441
355 682474 271896
356 37381 353938
357 376722 450586
358 144247 178563
359 678655 202618
360 190734 151766
361 92548 331901
362 96139 335533
363 701936 221792
364 99090 847523
365 167528 180749
366 651751 440453
367 774932 473384
368 809973 317339
369 383770 418702
370 634695 470080
371 527935 280339
372 815393 474585
373 55502 312641
374 88027 240248
375 748554 334053
376 671760 233069
377 702340 325037
378 25548 335895
379 728379 521410
380 700158 242342
381 655215 452732
382 90451 254184
383 179230 132947
384 136253 883332
385 535555 521770
386 38170 290876
387 76995 259046
388 682264 408174
389 73863 369504
390 644723 380120
391 154324 117105
392 788494 525424
393 644410 428663
394 23092 290590
395 685111 437002
396 152433 172736
397 84718 317185
398 751951 492382
399 91552 917937
400 120971 158736
401 866687 360840
402 401167 411691
403 89727 239719
404 158624 124725
405 553088 248949
406 621351 429584
407 104602 151437
408 512070 315439
409 521185 297396
410 531770 581868
411 887833 329647
412 24566 332380
413 125452 235488
414 151628 297709
415 750309 253567
416 91779 895926
417 185955 980000
418 909826 349620
419 738116 320006
420 150724 187570
421 377685 384289
422 37201 270466
423 637257 319212
424 757749 292839
425 834213 304772
426 162794 241079
427 81325 260086
428 84469 364732
429 662359 228639
430 153365 197545
431 700486 277294
432 151575 195575
433 67618 296008
434 893272 334512
435 192742 183101
436 919347 284223
437 129082 139440
438 185521 132379
439 713489 322199
440 866061 360974
441 805482 452420
442 142073 119248
443 688770 272368
444 546925 554602
445 762273 504339
446 675597 225694
447 110443 855345
448 120979 221844
449 160988 174521
450 89477 247815
451 874194 333588
452 374817 364107
453 119478 204767
454 23384 208743
455 536753 331651
456 478495 531138
457 119657 902609
458 212902 971771
459 63373 351088
460 653068 181102
461 381462 407801
462 115123 919137
463 800789 486381
464 100012 362480
465 651749 442390
466 102133 208112
467 69417 219190
468 179808 983641
469 123216 978999
470 73601 328161
471 168138 980600
472 731519 363648
473 712210 310033
474 524690 327147
475 30961 298256
476 523245 489588
477 574978 517603
478 85431 320653
479 734113 299139
480 116212 190722
481 520322 544710
482 44396 350903
483 837263 357890
484 789351 513706
485 85456 891998
486 186621 941228
487 176643 975379
488 93977 231600
489 192702 144006
490 695703 230443
491 164558 937139
492 566554 320588
493 119379 154258
494 860926 348594
495 488889 523319
496 59747 316826
497 174287 959203
498 78129 348147
499 688538 272387
500 100716 355998
501 181616 954266
502 493530 535225
503 61094 250939
504 505890 519912
505 791488 495355
506 628329 450032
507 76831 252295
508 44589 206549
509 772678 491567
510 92949 877943
511 643066 457938
512 141917 922640
513 128879 102806
514 860157 323772
515 544302 519351
516 424862 387293
517 561142 316781
518 57572 327510
519 720211 312966
520 828988 515076
521 871369 381503
522 511328 317189
523 413106 345253
524 799170 529834
525 27439 356483
526 715249 281477
527 154855 1002598
528 105401 304411
529 527815 317686
530 674286 452767
531 160528 953658
532 476882 540439
533 526847 528643
534 519510 315783
535 848873 325400
536 512556 520477
537 558582 526575
538 150925 966957
539 111521 912120
540 107098 851135
541 109409 925887
542 356935 403047
543 382775 406327
544 750899 464808
545 729035 317406
546 65229 286250
547 56859 307171
548 104330 240890
549 741111 416846
550 201601 195056
551 572557 312090
552 468557 548091
553 776998 476966
554 704547 227332
555 683446 298543
556 598609 208883
557 164297 152516
558 42173 377877
559 363983 379027
560 500096 493071
561 131442 251189
562 539093 497272
563 530023 295119
564 531881 539098
565 63290 908976
566 163758 957400
567 165365 999525
568 137115 217194
569 -8283 336341
570 687137 321269
571 90149 905622
572 669515 351998
573 365090 426891
574 544625 331720
575 719936 339731
576 353013 434785
577 41115 281663
578 593240 303693
579 202724 154468
580 173915 177450
581 709449 281746
582 210991 161779
583 147488 917398
584 872701 330800
585 182705 206875
586 63545 327164
587 708240 318231
588 779114 487089
589 623774 404752
590 890074 334125
591 175377 207423
592 732627 290276
593 635476 440311
594 161267 149763
595 498389 546219
596 227531 938893
597 40384 328581
598 539457 337646
599 218363 949133
600 780570 454298
601 701733 255856
602 554895 308476
603 476713 291115
604 519885 571804
605 660897 204258
606 103659 919304
607 511703 494003
608 409871 427953
609 579977 319206
610 121420 166353
611 672358 307526
612 815236 319519
613 514403 251758
614 177873 993360
615 147405 143048
616 195587 992331
617 507379 321049
618 672742 335478
619 35010 219862
620 622470 418729
621 164015 160376
622 376848 461234
623 788868 534154
624 208674 993787
625 321485 428507
626 47878 334391
627 883912 383079
628 40491 297201
629 810512 312279
630 139827 182374
631 133658 174361
632 390458 448027
633 676991 201801
634 673525 234383
635 370327 402875
636 794865 506072
637 171877 193060
638 52480 292341
639 117129 356826
640 22197 318484
641 555942 516131
642 149738 184511
643 365375 381391
644 147971 140486
645 426550 420320
646 77769 263596
647 880355 354526
648 773314 508338
649 866583 363509
650 537999 324483
651 17426 307628
652 140258 366253
653 705652 244757
654 533516 321857
655 825408 319314
656 53823 263249
657 250330 1004818
658 651825 429693
659 493117 554012
660 698452 255544
661 386127 413901
662 795017 509813
663 873473 379366
664 154384 877834
665 632232 476915
666 358461 432790
667 123172 335871
668 372528 443386
669 686710 221266
670 672577 212043
671 77331 888675
672 652715 419980
673 192278 217879
674 20260 326760
675 31694 269397
676 166535 1012771
677 174023 987148
678 66398 330599
679 726973 233394
680 560369 325651
681 38938 227374
682 107648 910403
683 62977 255345
684 102502 162702
685 144949 184250
686 96973 322120
687 177887 146195
688 888621 285336
689 107889 993214
690 137101 913187
691 689937 194657
692 197689 964026
693 163995 968793
694 691066 462680
695 517468 337843
696 103755 900139
697 369949 423786
698 104796 178313
699 124145 918358
700 696509 484331
701 514663 525984
702 684751 261963
703 651844 364897
704 758426 490420
705 89536 321464
706 433411 410284
707 33947 322161
708 114143 354735
709 525647 290325
710 92254 303024
711 152280 170965
712 106202 226816
713 721080 331460
714 532868 534548
715 127388 959446
716 166733 182572
717 699658 459043
718 774055 484120
719 733491 330533
720 208374 931748
721 529556 334018
722 848526 395725
723 102371 309575
724 82662 216111
725 540703 320799
726 147235 151619
727 368683 382105
728 685644 189247
729 46567 261498
730 605872 435541
731 149852 168567
732 38230 303660
733 755934 464689
734 118482 356935
735 78634 946084
736 541864 528060
737 771469 489355
738 39752 336987
739 73892 300619
740 625656 368791
741 839558 313161
742 124497 999896
743 510468 275458
744 361550 372025
745 133290 898934
746 862561 373903
747 702932 231354
748 876304 322729
749 656771 418320
750 525012 519383
751 121459 192824
752 790669 495892
753 763553 496849
754 668789 454368
755 351253 412387
756 528678 332685
757 154827 943674
758 111427 268158
759 -24598 337286
760 37036 314313
761 558396 278826
762 165702 73647
763 794337 488211
764 852243 403607
765 172384 974310
766 151081 186274
767 96548 920482
768 653011 238283
769 97127 316245
770 167018 184299
771 519202 536183
772 523436 545318
773 93687 344805
774 183937 863318
775 122584 205233
776 57004 911820
777 138092 266168
778 126592 227773
779 168016 979244
780 527267 532520
781 757287 177845
782 595393 343634
783 158920 207393
784 108320 351826
785 116827 285727
786 122074 352215
787 223448 977946
788 728117 268975
789 67562 944809
790 115936 234422
791 110798 250102
792 536891 281278
793 533617 567524
794 143289 176803
795 693772 289343
796 154186 183660
797 116373 894544
798 80699 936187
799 883081 318866
800 537368 523671
801 134802 169938
802 734845 311114
803 682585 195906
804 859367 348135
805 692535 201992
806 366595 370218
807 123113 91857
808 88725 338299
809 716695 325391
810 73823 315036
811 80831 245093
812 198995 206389
813 731147 507742
814 152446 972603
815 174633 158502
816 134516 947370
817 560657 357224
818 724323 275963
819 188904 168386
820 549656 306895
821 728632 491770
822 70902 310315
823 660439 422952
824 125636 926077
825 896644 375050
826 700017 270545
827 674608 406535
828 55125 369642
829 43403 343112
830 111466 922717
831 61258 279298
832 207711 986966
833 697528 400017
834 763853 304415
835 662198 489893
836 845733 320213
837 73742 267672
838 377284 399191
839 740076 531842
840 124902 135212
841 706618 397463
842 770007 452208
843 383610 416626
844 564512 534560
845 551517 549151
846 531829 289958
847 569263 329188
848 755412 481658
849 916217 360962
850 543556 314313
851 582507 282711
852 211949 964980
853 754282 531238
854 109837 353604
855 104130 233751
856 201597 146685
857 354728 363026
858 571735 508068
859 406192 384326
860 739737 189260
861 531003 336533
862 104031 900781
863 70632 314092
864 125751 175881
865 548413 340933
866 123358 297728
867 143503 106871
868 128253 172329
869 677830 237128
870 159067 222447
871 391076 413786
872 657909 389577
873 660471 443543
874 925905 350558
875 4640 344054
876 573609 331551
877 635538 431996
878 550761 369306
879 324360 394740
880 538452 524123
881 120925 944347
882 92296 334521
883 549954 303928
884 749730 372441
885 810410 442487
886 700406 290649
887 571309 506531
888 195017 204933
889 556350 312929
890 115090 935096
891 74752 359599
892 892374 366459
893 154806 150183
894 534741 297292
895 721381 218978
896 103796 210890
897 529801 545186
898 540527 339405
899 640998 422021
900 169501 982878
901 719510 232414
902 563321 520568
903 380498 367644
904 90315 328151
905 158089 155634
906 724383 295315
907 395671 433493
908 801735 466925
909 551545 324308
910 857493 339891
911 108024 904286
912 671740 404891
913 114217 324585
914 527182 487589
915 780014 486243
916 650828 422086
917 695436 218026
918 623799 203206
919 69145 241046
920 661277 441387
921 108426 318064
922 132719 348059
923 499936 505810
924 158921 167848
925 387417 440759
926 190284 990176
927 109726 908091
928 62413 952451
929 371395 382805
930 414030 422602
931 622288 446348
932 146680 975157
933 675403 212033
934 182636 252231
935 668960 419767
936 592648 328690
937 715177 268581
938 356088 416004
939 532704 290855
940 572001 312357
941 170731 103799
942 678563 376200
943 681571 458026
944 159450 230969
945 357681 416034
946 91569 881870
947 26866 286683
948 127825 1054215
949 691946 228096
950 729675 443953
951 376847 376774
952 184159 128662
953 547603 527736
954 100708 333754
955 836448 309030
956 730493 506469
957 683866 329513
958 122467 900338
959 911813 302290
960 739218 495423
961 710089 240255
962 33103 342985
963 143423 889351
964 90473 917138
965 121878 290474
966 167522 974685
967 158064 193213
968 145701 188334
969 687649 319869
970 511619 571492
971 645059 445456
972 660964 203867
973 728177 520225
974 83326 290170
975 381946 386853
976 528142 319626
977 80682 859367
978 165120 192570
979 698880 184476
980 917671 355208
981 559078 315563
982 128138 225832
983 91477 362549
984 690850 250915
985 33359 313169
986 126416 895704
987 787565 495926
988 634344 432158
989 87517 321088
990 883461 334551
991 81400 338764
992 730946 301642
993 526011 340638
994 110515 855304
995 371382 445111
996 546716 353100
997 36190 335442
998 155258 223167
999 843358 346826
1000 88150 241545
1001 483987 361627
1002 44752 342269
1003 96415 330653
1004 847777 318592
1005 105632 341897
1006 682118 458028
1007 588080 302111
1008 100459 318225
1009 689822 322743
1010 546183 546145
1011 552195 510430
1012 697482 295308
1013 683112 399903
1014 513935 519845
1015 42301 255993
1016 30516 373070
1017 74117 318260
1018 660829 229713
1019 590439 331090
1020 379937 407531
1021 751120 262934
1022 38363 366176
1023 356431 397484
1024 360859 421585
1025 892495 315653
1026 703288 266560
1027 22855 295574
1028 526499 529694
1029 181203 142545
1030 911097 311915
1031 89466 255605
1032 73150 323167
1033 860567 355019
1034 91265 882238
1035 73341 363554
1036 320663 443221
1037 901849 372751
1038 716172 295725
1039 762039 471681
1040 96843 251227
1041 701733 277580
1042 77935 899498
1043 102089 242746
1044 167525 183957
1045 637286 461468
1046 198080 206851
1047 14326 914192
1048 726892 289610
1049 70394 318382
1050 92714 329993
1051 165893 109280
1052 659283 203822
1053 139881 168199
1054 659153 482481
1055 743126 492378
1056 495731 570477
1057 782988 455016
1058 547061 308813
1059 161581 212161
1060 773556 506458
1061 776306 474583
1062 221214 181296
1063 156158 159366
1064 75457 913119
1065 399003 401177
1066 384341 449065
1067 132838 917995
1068 822964 309417
1069 545028 335799
1070 531638 520444
1071 562471 350118
1072 728173 307190
1073 100812 151357
1074 773309 510134
1075 73670 236066
1076 905598 353193
1077 873523 327417
1078 645437 430478
1079 332404 417028
1080 755341 324277
1081 153487 146812
1082 175318 123972
1083 183891 167917
1084 80635 304415
1085 485567 336043
1086 79043 185484
1087 145748 156813
1088 475956 483269
1089 136195 155622
1090 516734 509129
1091 362660 405664
1092 158367 130869
1093 584693 320680
1094 387459 414998
1095 190033 247412
1096 628161 401612
1097 400801 401216
1098 64649 338291
1099 560753 320574
1100 688579 313385
1101 556975 586308
1102 754837 314744
1103 145968 176241
1104 148408 182087
1105 114869 885738
1106 519144 501136
1107 164325 193092
1108 166714 1025911
1109 128722 228478
1110 53937 387121
1111 165616 186940
1112 692797 144372
1113 352518 399717
1114 866580 335501
1115 104136 309849
1116 23276 305714
1117 218173 210084
1118 27893 340805
1119 138454 162543
1120 70287 278258
1121 94374 329769
1122 634051 438475
1123 89812 935809
1124 72571 214399
1125 98303 230016
1126 84692 268972
1127 125260 332120
1128 172667 966979
1129 778723 503179
1130 511507 311133
1131 647058 413788
1132 134164 122813
1133 553153 318018
1134 505700 329769
1135 75416 330580
1136 719769 313042
1137 143784 1013677
1138 493656 554198
1139 689657 427110
1140 318400 417094
1141 711190 502132
1142 114451 393022
1143 670238 165229
1144 514496 537086
1145 777892 487954
1146 682735 458392
1147 730753 294940
1148 200574 216650
1149 813713 492130
1150 653671 440858
1151 71034 908284
1152 887055 341884
1153 666757 415019
1154 61063 319077
1155 125358 858657
1156 144709 187755
1157 -33 318126
1158 136105 152167
1159 187002 166109
1160 75483 277212
1161 665628 450882
1162 556124 326917
1163 238146 993459
1164 367820 396738
1165 177507 216405
1166 362751 438691
1167 690554 328915
1168 657761 278024
1169 117809 225174
1170 143435 992038
1171 116275 882204
1172 535898 306808
1173 525604 316368
1174 741901 313318
1175 644666 464557
1176 213519 1024791
1177 91652 148473
1178 728817 294117
1179 683880 335432
1180 723274 501161
1181 529515 551411
1182 174420 134909
1183 653447 436024
1184 171489 161871
1185 532139 497512
1186 169582 167452
1187 107714 262686
1188 63959 303176
1189 564861 331956
1190 857457 331011
1191 156809 154472
1192 150106 994898
1193 95992 894968
1194 652838 218195
1195 561455 281664
1196 33757 337415
1197 109510 237651
1198 50585 285647
1199 782683 480956
1200 111732 372929
1201 679456 453051
1202 362253 387570
1203 186275 201356
1204 73670 346627
1205 534905 523059
1206 674306 231442
1207 683118 312085
1208 84839 237721
1209 100684 919305
1210 27982 206206
1211 79851 227854
1212 165824 170857
1213 389830 411943
1214 185182 933996
1215 671608 426669
1216 765565 339590
1217 174087 1003536
1218 92637 300895
1219 173523 116040
1220 101471 879163
1221 102045 246320
1222 23932 260575
1223 630554 415474
1224 686457 411841
1225 360182 364620
1226 850633 359053
1227 528548 518537
1228 49661 248937
1229 42341 353361
1230 705293 201481
1231 50562 322076
1232 115115 293447
1233 657705 457227
1234 235414 169200
1235 742072 303339
1236 898571 300992
1237 863436 334186
1238 71906 209198
1239 540345 521248
1240 182584 981625
1241 888763 320453
1242 479993 510124
1243 70242 352498
1244 652889 171923
1245 780794 507677
1246 812678 481096
1247 79108 235291
1248 66759 305603
1249 93477 276320
1250 533941 288242
1251 182582 982141
1252 139207 144955
1253 182799 965313
1254 187006 991840
1255 127140 181629
1256 92792 910422
1257 680913 287551
1258 37225 342022
1259 649291 448056
1260 343796 409499
1261 879227 341149
1262 96038 914636
1263 190931 966102
1264 645298 436520
1265 390602 394391
1266 526027 494896
1267 380839 412995
1268 680082 197737
1269 71206 368237
1270 676682 223403
1271 190890 996671
1272 106485 231113
1273 567614 528115
1274 42321 326584
1275 96572 973242
1276 51048 862416
1277 567663 298300
1278 696110 219331
1279 34564 343022
1280 21427 311883
1281 558380 342366
1282 141910 151990
1283 132217 1012320
1284 425630 425084
1285 775689 441750
1286 666778 166835
1287 771970 465684
1288 544315 343140
1289 126208 904125
1290 749594 330284
1291 57323 277507
1292 138168 934394
1293 632560 404621
1294 533039 541175
1295 36145 333864
1296 192436 181294
1297 12500 335863
1298 508254 309990
1299 675399 260269
1300 124017 141874
1301 143162 182436
1302 404930 377346
1303 69101 298156
1304 492445 517162
1305 72048 288480
1306 740983 287122
1307 866443 341659
1308 766087 505783
1309 520126 546601
1310 89759 261752
1311 30985 228335
1312 530752 528447
1313 93810 107140
1314 128360 906524
1315 143217 133931
1316 186498 191682
1317 199301 1021106
1318 535624 272559
1319 96077 317041
1320 156851 201955
1321 534019 359900
1322 836031 333295
1323 117239 204367
1324 846205 360868
1325 744462 463561
1326 85556 266248
1327 66994 240569
1328 656813 245126
1329 892885 312450
1330 131243 141674
1331 60788 300008
1332 535526 525817
1333 39306 350052
1334 531899 562703
1335 461568 554494
1336 8977 299157
1337 656238 200046
1338 76908 352485
1339 126931 160686
1340 863512 307699
1341 631874 436396
1342 231378 146002
1343 188756 983890
1344 552589 497378
1345 801672 439417
1346 559889 333476
1347 544428 517800
1348 716066 321580
1349 704447 330170
1350 669508 211800
1351 158416 148187
1352 786946 504952
1353 81592 220110
1354 182008 932830
1355 582045 541470
1356 508121 286200
1357 673902 392198
1358 634088 438697
1359 764145 430127
1360 839136 326176
1361 857423 342003
1362 625586 456561
1363 755586 442654
1364 93199 307657
1365 893987 354320
1366 644689 434874
1367 391885 440610
1368 722464 453863
1369 64849 339989
1370 81988 328333
1371 362478 488337
1372 538337 532371
1373 846747 305611
1374 687305 351186
1375 557608 306646
1376 156021 900507
1377 832338 379049
1378 542947 519914
1379 211771 189831
1380 684383 266497
1381 512624 536894
1382 740605 289232
1383 537226 270963
1384 90625 311969
1385 181731 1013393
1386 107138 355430
1387 134875 929528
1388 38746 350061
1389 197219 983744
1390 148964 154782
1391 651527 231556
1392 99867 265236
1393 108876 309412
1394 519562 510363
1395 594015 342239
1396 745656 323879
1397 685387 226688
1398 91443 258999
1399 877840 333803
1400 893014 352790
1401 77287 266011
1402 32420 238934
1403 651123 453097
1404 666201 280949
1405 146512 965726
1406 878632 337118
1407 363305 423110
1408 179750 180980
1409 669545 176603
1410 767363 493691
1411 668672 181546
1412 544492 341104
1413 706960 251886
1414 790046 430975
1415 150543 173700
1416 101897 308596
1417 735158 312633
1418 150881 140672
1419 34661 322893
1420 171886 205597
1421 759616 272657
1422 44073 309507
1423 93472 310165
1424 531641 523168
1425 658107 437912
1426 48301 302905
1427 877358 259770
1428 166228 179488
1429 168576 985777
1430 298006 396205
1431 108161 257057
1432 521987 316495
1433 104895 385167
1434 208931 988859
1435 90581 319716
1436 338863 469473
1437 549218 308250
1438 25273 326815
1439 49703 234545
1440 55107 309047
1441 743335 319872
1442 753908 485447
1443 612953 456689
1444 68721 269515
1445 779523 512570
1446 758760 479521
1447 554716 303187
1448 552798 500616
1449 814216 328981
1450 80622 223514
1451 185673 194611
1452 131840 249297
1453 673386 449395
1454 58664 283792
1455 832330 343968
1456 516922 291518
1457 734760 233558
1458 675654 200483
1459 156885 209192
1460 381373 458398
1461 541315 538353
1462 778177 513140
1463 702307 428507
1464 904597 324914
1465 698095 250453
1466 777755 484184
1467 791514 493087
1468 125891 917590
1469 69416 297143
1470 551070 275357
1471 198695 1010284
1472 150157 216357
1473 792183 544143
1474 774122 472138
1475 122580 151114
1476 768559 482508
1477 691911 218452
1478 136341 128762
1479 695844 342975
1480 633264 447224
1481 85187 301234
1482 743721 232053
1483 46658 295730
1484 850728 345197
1485 699315 279253
1486 78898 339317
1487 526489 332691
1488 773716 480540
1489 50060 298088
1490 189673 197596
1491 159887 1008008
1492 104636 329081
1493 174953 178778
1494 140471 859298
1495 402379 425136
1496 556814 541432
1497 77393 256197
1498 738680 190129
1499 150024 928833
1500 148778 215529
