NAME : portcgen-400-407
COMMENT : portcgen N=400, seed=407
TYPE : TSP
DIMENSION : 400
EDGE_WEIGHT_TYPE : EUC_2D
NODE_COORD_SECTION
1 430817 77650
2 407985 164534
3 833198 263215
4 923430 94377
5 453620 181564
6 401124 101710
7 358715 246507
8 487935 264910
9 448352 159381
10 348370 176336
11 1030964 150349
12 974437 80335
13 989954 273884
14 356998 76748
15 367904 84489
16 488231 103613
17 358940 94900
18 1032975 102447
19 393555 196716
20 461013 135942
21 946993 307828
22 377820 170022
23 410833 103522
24 402203 136826
25 898371 315278
26 903268 225004
27 362110 80748
28 829136 221300
29 955247 168461
30 376275 132691
31 822446 186333
32 951613 216559
33 900515 190093
34 404349 152852
35 961701 246080
36 948110 236766
37 316344 188101
38 967488 91164
39 884145 169155
40 529095 233832
41 839369 197863
42 457057 125556
43 527785 102454
44 414407 174817
45 1057397 114385
46 1003089 122840
47 1063133 36356
48 934218 178440
49 441293 161112
50 477204 222156
51 500462 95214
52 922886 247520
53 493351 256936
54 459840 139708
55 350872 85629
56 945000 58792
57 938926 73439
58 314206 169064
59 374281 183965
60 994097 72401
61 1023021 126874
62 424863 185787
63 944724 309646
64 367380 210216
65 884899 187358
66 1018550 88482
67 390909 116596
68 432451 117203
69 402644 140610
70 1004504 271639
71 296302 129863
72 325154 144163
73 994125 77915
74 378624 282905
75 960061 276504
76 996263 130387
77 1034885 2440
78 414510 226532
79 1069117 94760
80 902861 185315
81 1044270 197560
82 1026735 74695
83 954194 132658
84 443996 109754
85 1008627 128312
86 354327 158438
87 947804 156756
88 949270 100919
89 977776 86063
90 413807 167915
91 447891 164803
92 461321 176797
93 430013 148641
94 1049678 84298
95 1004115 97840
96 441210 172031
97 1035065 102493
98 330851 238928
99 371183 160451
100 993788 120470
101 384527 176895
102 957856 322020
103 365570 94999
104 502204 121348
105 386019 136913
106 837789 190584
107 1033325 115169
108 882423 280769
109 1008357 211694
110 968947 68936
111 341560 103118
112 1054380 59864
113 1021079 23512
114 360830 177157
115 944602 67891
116 500017 144620
117 447166 184384
118 943723 277924
119 884344 123548
120 968827 103193
121 948716 192088
122 361046 168303
123 432899 169634
124 448230 104838
125 363451 51951
126 883162 223390
127 1037199 245124
128 469274 75353
129 1046440 124593
130 349614 152730
131 1002501 151838
132 829462 267012
133 984143 106666
134 916903 58810
135 378859 155443
136 1000332 117005
137 455655 124063
138 521393 197242
139 363813 165164
140 327758 20674
141 996552 22792
142 436762 226973
143 430189 162268
144 313103 129296
145 979672 109917
146 453427 188965
147 449967 134258
148 398680 88410
149 968084 216996
150 917794 226886
151 444329 155579
152 967497 51037
153 972903 235100
154 950172 272524
155 449534 176550
156 426172 135078
157 414469 212508
158 960636 198238
159 332181 204045
160 1028901 101321
161 828253 262465
162 930900 345879
163 357176 141915
164 982160 37561
165 1033140 121638
166 374066 98468
167 908664 193521
168 321015 62492
169 446874 104032
170 434037 71074
171 926946 287543
172 928443 236474
173 895152 361883
174 451672 80250
175 304970 213437
176 988237 65647
177 916103 262957
178 339060 170661
179 391951 116201
180 421248 77718
181 434615 173980
182 1019978 62114
183 363926 189148
184 478010 170808
185 473988 95415
186 502749 125614
187 921713 192981
188 924494 311095
189 887752 233909
190 429665 178431
191 367372 166637
192 397271 185585
193 903100 159487
194 1048136 195595
195 942935 382174
196 992520 276840
197 941476 228693
198 443882 206940
199 984637 268224
200 856330 293824
201 339771 134596
202 407881 177362
203 432691 125062
204 833980 252443
205 957410 270627
206 346557 226718
207 947304 155723
208 926864 174821
209 913741 153580
210 916996 260203
211 415501 140232
212 1049323 35516
213 890100 202058
214 946881 85780
215 1036707 220260
216 920473 176748
217 825694 187263
218 1056089 140971
219 927435 118256
220 1043615 128375
221 335773 117533
222 981677 221957
223 993546 158942
224 871111 236689
225 951551 208946
226 421122 191779
227 894025 295646
228 370072 164289
229 934236 175004
230 943242 167183
231 343765 136803
232 1046937 95983
233 398843 181601
234 1089727 -12695
235 356841 146909
236 872138 138299
237 1082756 128210
238 923411 201933
239 932575 148324
240 1016357 76749
241 808627 266751
242 950213 65738
243 1005020 80248
244 406362 141929
245 556142 218602
246 901280 203516
247 454383 98076
248 329295 187232
249 526507 147734
250 356618 150189
251 421040 175606
252 483316 137078
253 346085 208236
254 440400 283479
255 420649 152628
256 1061518 83459
257 453098 203297
258 460799 177464
259 447487 117081
260 349431 171808
261 1020554 69066
262 865182 -55939
263 393633 170760
264 372518 168479
265 1020671 111902
266 289000 92847
267 467642 223537
268 445909 145044
269 986849 38285
270 403109 156217
271 441089 142504
272 350348 214703
273 947327 196635
274 881418 216947
275 851707 259795
276 403102 171100
277 1012819 57516
278 445406 200153
279 961177 140976
280 965073 71449
281 969355 70092
282 361904 188595
283 993220 175393
284 848659 235030
285 1005463 13832
286 933650 281931
287 387658 145121
288 1003658 78126
289 461012 187924
290 326048 236913
291 1015191 174364
292 417039 208162
293 379428 130793
294 450169 154716
295 992301 264458
296 428688 43732
297 867203 283077
298 393383 113318
299 899589 353720
300 401593 166890
301 994618 49954
302 435641 186805
303 327809 182689
304 444380 135875
305 982550 232500
306 423463 191468
307 1003183 190504
308 1012231 35503
309 386423 181993
310 357793 231308
311 451086 178255
312 940619 135800
313 887836 323835
314 980270 79187
315 930422 255022
316 394929 146904
317 439612 126803
318 461565 179880
319 495738 296462
320 420826 158246
321 877901 240767
322 348179 116694
323 424315 164997
324 1010499 120740
325 392964 155346
326 991282 181357
327 918786 195901
328 416966 151742
329 1049901 94229
330 882754 263101
331 862785 249666
332 438664 189168
333 451107 129142
334 997632 219976
335 922568 140968
336 431492 168655
337 924662 35308
338 482084 235293
339 914487 155181
340 370429 164822
341 458917 131577
342 301439 102033
343 379307 200924
344 352214 153289
345 331657 102179
346 297615 170651
347 320846 50213
348 947752 242537
349 851011 154871
350 924452 43376
351 828537 132011
352 336374 115446
353 1001306 92036
354 351755 176176
355 1062172 104663
356 965083 83727
357 894500 240424
358 942662 99458
359 318222 144943
360 340648 53346
361 387473 189849
362 332053 209659
363 870031 284944
364 965180 260472
365 288664 144922
366 821493 257204
367 911053 167262
368 924408 162531
369 1007593 63681
370 355373 179468
371 353202 215112
372 707098 276214
373 357439 76643
374 413262 145973
375 950800 152114
376 847251 349648
377 515983 135767
378 935064 105090
379 992992 111054
380 921393 177539
381 822142 164072
382 375078 133890
383 1023421 27239
384 908546 274449
385 968580 298017
386 1006287 93481
387 418511 79162
388 965451 82355
389 935048 159896
390 864843 196200
391 943250 257344
392 970625 123456
393 992523 167281
394 340585 186967
395 456918 121601
396 349196 134575
397 425290 141312
398 943125 256274
399 427002 70441
400 862177 162212
