NAME : portcgen-800-807
COMMENT : portcgen N=800, seed=807
TYPE : TSP
DIMENSION : 800
EDGE_WEIGHT_TYPE : EUC_2D
NODE_COORD_SECTION
1 258031 703307
2 143555 835472
3 68230 275286
4 440606 879783
5 455219 885738
6 132936 849752
7 421392 182043
8 311960 309787
9 209404 867311
10 37337 197006
11 815604 592471
12 215284 724172
13 25568 191130
14 366675 118416
15 342478 226610
16 113616 247640
17 105259 258853
18 367043 234612
19 116065 152367
20 291263 765247
21 428964 964750
22 448065 885927
23 259562 742656
24 305148 98272
25 288121 687387
26 413821 253970
27 229321 704069
28 412048 956290
29 66670 248367
30 469693 935624
31 383707 76450
32 312 168540
33 51566 221234
34 160913 855753
35 281474 744916
36 857713 606755
37 276448 706141
38 468472 917110
39 135762 217440
40 260546 739479
41 407868 229477
42 240807 730403
43 109610 206230
44 82284 891595
45 807171 593438
46 256602 720391
47 256301 752223
48 324825 186417
49 356635 243232
50 339018 105102
51 88808 215861
52 216336 793577
53 176477 875409
54 403721 106546
55 490509 932584
56 375231 197928
57 841631 587515
58 78634 248878
59 356426 224969
60 277208 199705
61 77551 307157
62 118285 227447
63 56779 234447
64 466487 907019
65 198782 746607
66 206471 734877
67 169819 894321
68 499532 903014
69 263029 688886
70 500053 924136
71 41772 240244
72 410627 88199
73 45603 208708
74 134321 274143
75 45031 185708
76 881455 636438
77 11580 283022
78 825334 607997
79 131070 312161
80 189953 746676
81 836865 671211
82 282411 93935
83 50406 253095
84 393897 144759
85 841970 544339
86 8421 149811
87 351997 202108
88 413943 95415
89 394679 229035
90 804187 643961
91 98850 261099
92 121691 206555
93 838867 560040
94 807613 588549
95 426777 945286
96 114922 303124
97 311040 121674
98 36180 238288
99 336287 267624
100 348895 278166
101 65870 242814
102 153230 865967
103 143813 902523
104 329060 250373
105 198540 859193
106 135234 857107
107 536496 960787
108 246894 665078
109 412927 97531
110 353630 113443
111 429751 239778
112 88007 236964
113 478927 867279
114 315059 210978
115 809308 641076
116 352141 219703
117 780809 641360
118 462443 985816
119 98964 285183
120 858049 580255
121 374426 249765
122 11293 277721
123 851095 633194
124 330204 209810
125 830099 644616
126 238509 741077
127 882512 543243
128 491826 903438
129 319318 299530
130 331198 255532
131 242972 759518
132 784691 624467
133 154357 777055
134 366457 206867
135 73558 195933
136 181128 859027
137 231623 734458
138 151331 796899
139 839488 562593
140 388772 921568
141 328309 82305
142 425950 911736
143 825115 654306
144 142591 224790
145 341260 168074
146 14903 248676
147 324254 48512
148 370596 280636
149 440420 895526
150 34048 271781
151 330096 719997
152 225296 229223
153 314840 705275
154 18350 206806
155 153889 825270
156 266403 683927
157 411414 245420
158 82290 246929
159 331576 236000
160 35544 201016
161 504723 912814
162 392564 81074
163 414984 247081
164 68826 310787
165 210675 894354
166 59902 194617
167 880248 573209
168 491973 957579
169 134531 951721
170 149607 890057
171 247747 212898
172 42287 202421
173 205444 701906
174 869563 600807
175 288328 107766
176 366364 233618
177 290889 186402
178 329779 240980
179 150619 303663
180 830867 590762
181 317431 61938
182 182611 832828
183 277570 772777
184 437585 875949
185 863243 580659
186 798876 578977
187 511978 841499
188 310447 222632
189 796212 596477
190 334657 255567
191 -9164 220623
192 123860 275152
193 111214 160829
194 269150 730034
195 374111 72667
196 200729 697598
197 28919 144943
198 357660 210380
199 330479 228397
200 322937 250324
201 88167 263051
202 848308 573389
203 36141 263663
204 78556 202304
205 224322 849844
206 56129 285099
207 473831 872732
208 365884 93412
209 191778 835005
210 420418 903988
211 345942 263217
212 539366 937956
213 353559 218447
214 166635 831956
215 55896 201876
216 345625 204715
217 192276 713058
218 65553 288976
219 314268 269629
220 341500 100233
221 151751 840685
222 332798 207041
223 63053 269517
224 320489 231528
225 208306 720762
226 187094 846979
227 47994 795769
228 233856 716531
229 251846 731156
230 477661 884577
231 128719 244338
232 891100 597886
233 179116 877476
234 478346 1005498
235 310749 683277
236 361692 52218
237 352395 77915
238 205295 846365
239 852167 600912
240 342813 60842
241 434716 931932
242 105156 282354
243 81570 287937
244 111252 847341
245 285556 158383
246 416112 103588
247 857851 570244
248 36323 220454
249 406471 97970
250 473669 904184
251 73354 263210
252 27180 242619
253 380941 188732
254 21076 195467
255 803920 586871
256 218464 681746
257 343226 126449
258 777925 615690
259 54759 176509
260 90893 246101
261 356026 174178
262 154475 865810
263 400494 127779
264 361418 823607
265 892336 603729
266 267414 730466
267 447609 898330
268 292368 711084
269 322722 249634
270 166643 826815
271 122478 254731
272 461880 893989
273 158575 285371
274 97541 257479
275 187176 892069
276 121398 195137
277 850406 578786
278 385071 102035
279 64181 227913
280 408695 227487
281 21701 150148
282 316848 62240
283 100416 234807
284 334559 111361
285 310758 122844
286 302732 158389
287 873926 610800
288 49197 186551
289 357200 107885
290 231929 740764
291 255147 689940
292 346139 223941
293 110919 231336
294 40891 283310
295 206183 746144
296 278337 239335
297 849823 590417
298 181127 891640
299 325858 226809
300 240249 786527
301 402135 246535
302 226230 684536
303 243522 730700
304 328187 215607
305 383354 87818
306 468978 894673
307 261949 746343
308 237000 740583
309 315946 96534
310 51024 275482
311 833932 632945
312 411418 910954
313 466513 984757
314 24671 303650
315 262575 173601
316 67048 193232
317 288171 104953
318 138676 259704
319 70090 214272
320 332657 200321
321 124617 896975
322 144611 804731
323 857738 586899
324 184950 826816
325 320076 727354
326 62889 228269
327 82042 317694
328 99913 237573
329 322950 252002
330 79003 227975
331 332191 54419
332 424353 949434
333 -678 248124
334 64324 287567
335 133829 862060
336 186734 935511
337 268458 743980
338 476192 873768
339 783445 596236
340 486485 876275
341 135796 830104
342 219185 840402
343 243732 721523
344 322581 245374
345 833192 638189
346 407523 866122
347 320689 47811
348 106114 243552
349 75429 241041
350 119126 234865
351 43004 249457
352 259401 684527
353 323233 236197
354 344856 127919
355 442147 934472
356 56553 267187
357 839487 603493
358 837657 598976
359 456569 918851
360 412994 110062
361 860528 604821
362 316811 191319
363 910547 542439
364 39490 228249
365 123143 239163
366 354962 80618
367 117001 266370
368 314963 199508
369 68340 248403
370 140755 262384
371 55115 217848
372 393214 239716
373 780871 611004
374 110062 284936
375 241758 717673
376 360387 161675
377 809817 590150
378 812635 590300
379 360833 211164
380 119138 231963
381 79084 279658
382 240948 749034
383 259770 750263
384 261001 701314
385 172310 880725
386 804177 556810
387 55679 232799
388 287150 720601
389 772574 614950
390 466764 977420
391 327848 207131
392 307239 721518
393 -2698 184509
394 294305 177321
395 866566 593351
396 336483 263469
397 148380 859968
398 880185 627072
399 135623 820345
400 346374 100602
401 349768 149341
402 380249 220429
403 313041 670459
404 453252 938363
405 107402 848656
406 313270 241511
407 799954 642665
408 189267 695486
409 97111 217224
410 823549 556543
411 360471 89902
412 139150 803640
413 285098 34260
414 817920 688005
415 260666 762576
416 76572 264680
417 143570 814132
418 96612 275565
419 883325 623659
420 309842 213963
421 168479 703446
422 160955 742894
423 284231 66368
424 335512 231132
425 338161 136022
426 432454 874244
427 229312 724947
428 124504 869726
429 87020 299139
430 807446 588416
431 345986 150986
432 484323 922960
433 156936 863455
434 374837 243995
435 88825 244015
436 823761 594258
437 813377 568796
438 306214 250862
439 46424 231415
440 307833 70383
441 768413 604892
442 126219 896711
443 156415 776776
444 38762 214240
445 347787 291984
446 755446 560895
447 101909 258063
448 189416 715057
449 53457 290418
450 264808 690724
451 247505 685751
452 318862 196007
453 341154 245909
454 124073 869529
455 442636 905241
456 99330 298342
457 385169 66861
458 383093 210601
459 449322 941791
460 211085 825525
461 892751 639509
462 845607 611263
463 169746 169558
464 132792 824420
465 123746 859876
466 848237 642683
467 368213 252260
468 427859 891558
469 844007 636787
470 368075 217510
471 857922 616890
472 238967 797475
473 325776 733886
474 226896 809175
475 421725 908511
476 83763 872162
477 349559 195803
478 305754 172493
479 55324 207672
480 38863 210358
481 378148 135261
482 251672 776459
483 81632 162850
484 177714 856692
485 458988 840308
486 189544 696860
487 404638 859677
488 339541 119965
489 332845 246931
490 412006 861745
491 142062 887129
492 457505 100575
493 279289 651000
494 94448 218827
495 313045 176660
496 318297 84096
497 332570 318747
498 865183 613213
499 40396 176913
500 78379 279927
501 848072 595393
502 256515 721870
503 117789 248312
504 391893 247910
505 174942 233340
506 431216 911425
507 246901 770312
508 296085 224513
509 891248 607640
510 849472 595213
511 65875 239196
512 243949 822220
513 58057 277099
514 332704 222087
515 126380 797275
516 828112 607362
517 335787 134980
518 376183 266925
519 111793 244789
520 860563 611706
521 71410 305711
522 298671 209914
523 16383 217692
524 229886 779286
525 464047 889220
526 170560 842760
527 319965 177353
528 380283 191895
529 57228 253842
530 84316 171202
531 436371 193649
532 91380 875856
533 71962 184801
534 243624 703728
535 838013 545208
536 240167 697192
537 445707 974642
538 266430 730814
539 37754 167531
540 803374 656508
541 489480 858708
542 463619 892202
543 375943 263363
544 112096 898599
545 99729 193841
546 847047 571821
547 494819 935356
548 852756 655049
549 215229 708463
550 366023 237578
551 399141 70310
552 443609 935094
553 234721 668674
554 280266 302086
555 123516 177115
556 226900 707169
557 825014 604144
558 840793 659129
559 99705 890936
560 344112 211588
561 174901 882230
562 374369 73734
563 121185 771966
564 359778 188322
565 829248 592424
566 443242 918362
567 102701 879538
568 313535 152854
569 438458 878882
570 374709 89961
571 802434 610011
572 89132 230486
573 46006 248153
574 309874 87371
575 68250 259593
576 481552 951035
577 35736 233421
578 311437 93960
579 299595 706140
580 125029 196733
581 156419 842063
582 291922 37256
583 262291 762439
584 101214 224732
585 338973 184413
586 370493 74945
587 468453 903466
588 -3903 197889
589 211639 847276
590 413555 898662
591 809933 650956
592 832791 572712
593 258476 808005
594 133031 930330
595 -5699 203025
596 93815 877001
597 388975 174373
598 343455 97351
599 303960 241952
600 838113 632982
601 165380 873402
602 866136 613208
603 119142 297605
604 430339 142721
605 453910 979154
606 211533 757037
607 334107 113323
608 487652 902742
609 296619 240597
610 826002 630058
611 871336 526579
612 466365 927724
613 85942 179590
614 311965 180808
615 63201 107472
616 80753 250779
617 235542 752742
618 348696 177277
619 237766 769173
620 132868 905143
621 425381 173481
622 387863 89063
623 339500 169658
624 425722 921911
625 96949 208572
626 381657 101905
627 814205 648448
628 902893 646659
629 67379 140182
630 104342 241815
631 196325 878729
632 53133 201928
633 31320 192676
634 316409 719803
635 149989 249415
636 199678 710374
637 85045 236367
638 155607 851691
639 223050 739803
640 834074 675426
641 152526 811843
642 371826 84793
643 89003 245749
644 59099 215926
645 127948 195264
646 153334 829522
647 447741 824902
648 805396 601878
649 102864 871802
650 424073 887423
651 841747 572861
652 333351 64279
653 22172 281242
654 100912 271569
655 357376 197331
656 347461 127550
657 348704 72257
658 291254 724987
659 91688 186461
660 848946 627929
661 309073 104307
662 441618 899797
663 93718 304098
664 32073 181281
665 323539 221324
666 212908 733803
667 450783 884497
668 380108 80773
669 334572 111847
670 811663 557885
671 193873 860629
672 829958 541646
673 221794 845844
674 125668 815563
675 447559 94696
676 239280 747070
677 44863 215455
678 111425 263943
679 265858 730492
680 306103 86345
681 293695 44235
682 80463 281024
683 93438 211612
684 347544 40498
685 268594 679766
686 138458 846630
687 311704 136478
688 152486 834261
689 394855 219958
690 467558 901372
691 88119 279451
692 470122 875856
693 170201 867045
694 403861 943648
695 131951 225343
696 453182 919669
697 834844 628143
698 55895 232785
699 311785 69863
700 51553 211974
701 436818 831967
702 208617 856511
703 178364 884346
704 43474 209281
705 106624 900035
706 262356 287382
707 125267 241253
708 793206 589535
709 424997 940679
710 381401 119554
711 83747 253682
712 94294 271348
713 25587 284278
714 212875 887977
715 121909 270824
716 107786 804975
717 466314 954835
718 359673 151728
719 104863 256711
720 326059 132199
721 138160 272256
722 189036 178079
723 66070 801830
724 891705 587053
725 182873 806400
726 231631 713331
727 134258 228181
728 465951 884634
729 884459 609172
730 422728 901655
731 443401 885025
732 45753 271285
733 68008 203939
734 179283 793740
735 105085 262462
736 825270 617144
737 817386 582327
738 438889 951914
739 238489 741430
740 97279 198387
741 340242 202518
742 810821 620813
743 418482 946145
744 847729 571165
745 482175 873290
746 107153 834921
747 466046 882790
748 87834 309786
749 402504 298897
750 339863 94676
751 525193 920881
752 209782 727068
753 790508 587637
754 30036 185653
755 843654 684555
756 847364 639911
757 853678 618410
758 89272 310779
759 351389 99864
760 100600 249919
761 879273 550085
762 205457 735744
763 364148 115151
764 178185 848440
765 346659 114673
766 388250 5982
767 99521 215660
768 844931 598651
769 368668 131481
770 73774 263456
771 77994 221946
772 142851 944769
773 111044 250367
774 109460 787580
775 77466 796812
776 346728 122729
777 94180 279859
778 343501 95845
779 273903 792729
780 146227 241985
781 450555 865951
782 448839 876722
783 859502 586785
784 150652 233341
785 58469 241066
786 112388 267271
787 143953 856158
788 434155 922775
789 138516 218467
790 101054 241474
791 427026 55943
792 852870 570104
793 225030 696464
794 79508 266214
795 130677 264018
796 38120 253940
797 82686 206392
798 358032 284367
799 113179 815623
800 81718 199562
