NAME : portcgen-400-401
COMMENT : portcgen N=400, seed=401
TYPE : TSP
DIMENSION : 400
EDGE_WEIGHT_TYPE : EUC_2D
NODE_COORD_SECTION
1 187140 410187
2 34283 980706
3 14624 905371
4 827 920428
5 68375 966223
6 121303 362964
7 94695 575723
8 774620 265535
9 98140 428759
10 211180 491297
11 87547 564708
12 29426 887064
13 20763 959643
14 840234 314970
15 73517 982593
16 -10825 959753
17 156653 395394
18 93196 619273
19 768075 147936
20 185039 457061
21 24180 980104
22 101291 423611
23 95142 429341
24 3225 690034
25 176783 486920
26 106212 1000043
27 863659 146899
28 60141 912201
29 111901 497303
30 822396 128779
31 27828 1028815
32 89435 964874
33 102915 562234
34 73415 666223
35 130154 499682
36 42179 586345
37 204456 400509
38 137451 406683
39 110209 494676
40 160904 567342
41 23262 550076
42 47210 911193
43 857106 230270
44 188229 699472
45 85160 1040303
46 82478 1078499
47 104509 1041921
48 50435 472845
49 853849 168005
50 112710 453073
51 857127 130153
52 152500 935584
53 79982 619570
54 782108 195546
55 865783 172489
56 88617 595124
57 127439 459761
58 868715 189170
59 115692 529338
60 134199 484836
61 91226 1121034
62 47711 1034690
63 115113 469682
64 111766 645665
65 125069 628735
66 156504 568846
67 887278 211655
68 873565 212069
69 884020 176925
70 116466 349278
71 53315 967639
72 101110 583037
73 12277 571951
74 186341 312090
75 69690 886852
76 752164 182019
77 833997 216619
78 17115 613155
79 153172 480407
80 819199 210934
81 50689 1002499
82 828369 144617
83 66784 718345
84 156474 590843
85 99518 392279
86 950432 193420
87 793808 258018
88 241271 436130
89 72444 1065968
90 57148 639467
91 923880 161463
92 23904 1011818
93 193049 636547
94 145200 597728
95 117775 646791
96 23715 642720
97 89153 825912
98 177166 604252
99 824639 177679
100 17634 942007
101 22458 589984
102 118146 528987
103 155434 553596
104 165825 529042
105 934001 113098
106 133529 580963
107 22490 625481
108 910776 212699
109 852380 210955
110 23603 947883
111 114023 506089
112 795239 217640
113 133884 615618
114 72418 591082
115 137934 540037
116 903737 231003
117 195979 497859
118 775383 203082
119 902615 154689
120 157091 671471
121 100868 436728
122 759344 168599
123 17637 1002741
124 110124 429885
125 -63315 948233
126 90487 894348
127 826271 219776
128 124675 597802
129 123308 1036354
130 55285 618572
131 97929 974659
132 -16000 909204
133 89786 510893
134 859031 223040
135 853583 92913
136 122984 446766
137 912486 157237
138 103894 620342
139 18806 419869
140 124401 469125
141 84473 576866
142 78202 595641
143 184272 428055
144 154619 473965
145 146851 480771
146 794975 158016
147 792334 219123
148 149102 379927
149 95114 375875
150 146225 582256
151 787427 42203
152 79522 960619
153 130948 984607
154 27130 940424
155 145891 612176
156 25933 987508
157 106199 536468
158 159379 455484
159 -1592 415375
160 162536 568315
161 102685 684323
162 128605 445116
163 91429 954858
164 157206 498587
165 830475 262413
166 93301 959555
167 864832 137515
168 76012 558770
169 142146 456008
170 46574 962472
171 106698 653163
172 99582 527746
173 876077 241610
174 91966 615732
175 114998 822957
176 118573 612134
177 826907 211737
178 71430 528057
179 182038 438522
180 836109 175131
181 845568 189277
182 186021 565594
183 -20803 940577
184 47699 962372
185 73728 991538
186 51639 954565
187 155423 605478
188 930426 174755
189 44950 657381
190 56853 995753
191 32590 566161
192 865904 173826
193 76262 955576
194 180573 533359
195 106784 954238
196 782572 161732
197 801960 190623
198 93434 985175
199 106062 385747
200 -18749 560921
201 103486 619639
202 876396 184420
203 813270 118915
204 94890 886979
205 133959 505631
206 833189 158096
207 68211 880243
208 93779 435116
209 823864 196412
210 856572 163086
211 32536 982295
212 781592 230529
213 105284 635317
214 908857 302441
215 222102 482443
216 873717 255880
217 93745 440577
218 918660 206137
219 83596 594761
220 180043 703217
221 66113 1016839
222 57730 978375
223 771693 269096
224 94274 430484
225 93714 336234
226 114998 578747
227 849611 186907
228 126939 718179
229 116902 491373
230 74906 937549
231 160194 466525
232 95238 626771
233 823607 203957
234 117057 557710
235 100860 433152
236 109395 1023919
237 819612 261787
238 856103 261036
239 42990 577401
240 879137 187957
241 59096 961725
242 117445 384847
243 8474 969710
244 148656 411577
245 864018 228071
246 50852 957175
247 34673 635600
248 850583 179658
249 107316 385845
250 69106 578857
251 87899 416174
252 74308 951893
253 60296 556743
254 83108 993700
255 67160 552258
256 79040 625026
257 87421 1020044
258 103756 1003705
259 29320 518207
260 154871 550378
261 820856 192193
262 77312 457059
263 23401 980825
264 94534 658621
265 85529 982775
266 874944 323577
267 68702 990882
268 845249 239633
269 885429 268412
270 804779 219587
271 21258 996178
272 776397 165488
273 2830 900429
274 217871 526493
275 138677 407851
276 957027 201696
277 874934 167654
278 870136 211084
279 116452 612545
280 97151 946090
281 790191 210991
282 75176 562154
283 104844 961519
284 811066 188898
285 889826 251539
286 872349 180718
287 99716 1028988
288 186387 510897
289 838276 244784
290 816108 68278
291 88837 563414
292 54186 995096
293 41179 933199
294 109406 425278
295 814472 177387
296 870513 152523
297 97522 431692
298 93937 933209
299 145281 617328
300 -62442 931865
301 166367 516983
302 -15376 594699
303 111697 986186
304 145658 507668
305 58644 477979
306 218772 511782
307 94754 622283
308 128073 446579
309 826996 185621
310 127384 616854
311 96241 341887
312 864010 121028
313 167674 426449
314 140304 541363
315 30409 991002
316 64547 413955
317 -22612 1059627
318 33314 879946
319 52298 996103
320 782299 320314
321 830583 158106
322 815348 156128
323 50898 666467
324 56903 475925
325 97901 590710
326 117188 573561
327 88611 997421
328 156061 394184
329 154239 511803
330 833631 99644
331 825000 140317
332 899233 131656
333 100242 456047
334 136140 541040
335 61648 527255
336 882166 223954
337 871664 221189
338 140938 459399
339 802546 283644
340 119662 613675
341 73449 495902
342 124171 414309
343 79973 561746
344 85330 970081
345 107652 567504
346 820585 118497
347 87540 559712
348 931632 190957
349 819403 216080
350 41602 999412
351 74799 951738
352 95871 418594
353 -45846 1033084
354 118056 446260
355 118631 535836
356 810914 170412
357 866783 189488
358 855322 223972
359 142838 353431
360 182414 538405
361 140785 547087
362 -19478 578455
363 847077 265164
364 171086 467812
365 38943 1033719
366 170008 528469
367 135765 865848
368 143765 440100
369 101979 411372
370 -8459 949324
371 131184 527731
372 176869 608069
373 70371 572137
374 81361 662053
375 260835 410023
376 728361 168267
377 77784 580638
378 98183 981000
379 831218 223287
380 -3578 881389
381 923722 138985
382 155050 470428
383 20197 871873
384 154503 589492
385 893392 289085
386 75986 990090
387 105855 480740
388 -16175 974196
389 -6913 929897
390 80548 678915
391 165169 428595
392 921218 158957
393 140621 523365
394 89602 595233
395 148141 446862
396 37037 624198
397 151878 441287
398 58557 978479
399 184810 450698
400 98186 934530
