NAME : portcgen-200-205
COMMENT : portcgen N=200, seed=205
TYPE : TSP
DIMENSION : 200
EDGE_WEIGHT_TYPE : EUC_2D
NODE_COORD_SECTION
1 835531 516070
2 801304 328258
3 726579 526165
4 776991 512239
5 809006 490866
6 808512 475688
7 781349 499741
8 574259 421197
9 828291 274292
10 791334 482295
11 648801 366517
12 776344 501105
13 735624 438632
14 699487 417417
15 739959 354075
16 786682 572837
17 757973 510248
18 854712 514307
19 715913 471963
20 711146 387344
21 715065 336423
22 822057 381237
23 827560 351253
24 829789 497336
25 856373 504422
26 802404 436325
27 690753 435055
28 871037 358139
29 861895 481827
30 760248 566381
31 819602 598177
32 785405 476376
33 902566 432680
34 762979 612899
35 745881 408320
36 805546 385416
37 833815 527660
38 746582 461862
39 856579 233650
40 725350 563573
41 878347 297502
42 830738 280822
43 867673 279075
44 746570 285300
45 741387 478077
46 792449 278016
47 709123 525093
48 743383 563314
49 740277 528288
50 822849 486235
51 715814 500449
52 800630 432918
53 775045 521384
54 713583 330088
55 780876 451373
56 868181 474344
57 844417 287552
58 903139 365170
59 801578 450979
60 905851 298204
61 667194 333129
62 735917 374040
63 755822 451312
64 711525 552721
65 812186 424956
66 781206 502981
67 762148 378496
68 864349 443439
69 643774 374799
70 740349 354821
71 817728 359658
72 686400 449853
73 858051 617236
74 765047 416320
75 881765 536161
76 750060 364084
77 563575 491291
78 750695 553364
79 946103 397338
80 832068 429970
81 620581 544008
82 890626 508318
83 853077 584135
84 695660 370577
85 827459 496724
86 812654 448058
87 782206 461731
88 773047 715390
89 728646 438998
90 762508 346230
91 701421 313938
92 862456 375279
93 780397 578427
94 741655 355380
95 799806 698057
96 778303 566121
97 717422 406825
98 898560 428145
99 758566 497762
100 727317 445663
101 853762 404912
102 677304 481162
103 893108 681884
104 895748 406961
105 850015 296469
106 776066 391846
107 765227 625226
108 813705 542815
109 762244 507564
110 711753 478623
111 893620 594416
112 673291 242310
113 735102 306035
114 801966 570207
115 820685 510762
116 857888 698310
117 797626 335590
118 674389 416426
119 714330 482933
120 722900 433742
121 839117 434978
122 671589 490291
123 751787 465094
124 855863 639087
125 846370 544105
126 787519 654095
127 718382 387943
128 716533 495190
129 795535 557488
130 712751 567911
131 746723 619886
132 613700 413896
133 718618 595489
134 775658 561953
135 741579 482193
136 733633 406902
137 791088 512913
138 638717 349695
139 769570 419602
140 826097 405290
141 753775 430056
142 722300 353005
143 756220 302411
144 859563 698675
145 779755 468408
146 961424 490537
147 802575 705070
148 848641 481935
149 786415 582661
150 799534 387439
151 827955 682630
152 762136 277725
153 659118 470562
154 786537 377934
155 730807 337147
156 778742 451017
157 898585 417328
158 782562 403228
159 738856 539320
160 749976 450175
161 823239 374442
162 681220 466987
163 704067 417201
164 788358 529399
165 814411 511131
166 791309 515802
167 846721 547427
168 795752 454109
169 838768 491790
170 793876 404860
171 748467 563187
172 818846 503362
173 817619 436033
174 634377 568782
175 863811 338676
176 867252 459943
177 686457 447704
178 821434 438483
179 576425 515674
180 653891 383186
181 746118 522043
182 871956 336662
183 822490 389022
184 729175 368336
185 702516 245602
186 957533 521718
187 745705 416073
188 740904 528751
189 832487 491062
190 769089 569610
191 828051 391658
192 851311 580690
193 699555 470499
194 749707 418856
195 807960 470509
196 657172 368722
197 795552 468058
198 878098 543617
199 911764 419766
200 790659 449413
