NAME : portcgen-1300-1301
COMMENT : portcgen N=1300, seed=1301
TYPE : TSP
DIMENSION : 1300
EDGE_WEIGHT_TYPE : EUC_2D
NODE_COORD_SECTION
1 398035 481647
2 314244 600014
3 374228 217727
4 217928 192703
5 654503 337865
6 689359 299243
7 296247 613602
8 320240 214965
9 549015 860407
10 356743 257451
11 286887 574773
12 335527 284906
13 550793 779991
14 433129 601750
15 377793 528512
16 444868 581800
17 550812 800678
18 224720 97830
19 566290 736768
20 306168 614678
21 285071 563823
22 670262 338179
23 275617 520679
24 881964 966057
25 312897 654593
26 389182 282771
27 551596 760573
28 313106 233860
29 872336 945103
30 219517 104292
31 302752 551392
32 331345 580303
33 508078 28185
34 540960 933525
35 576656 724183
36 678356 317153
37 395932 493315
38 954873 965953
39 677618 354246
40 432684 597279
41 573695 4850
42 340539 718058
43 478540 564322
44 389963 429420
45 326826 433146
46 542196 903783
47 254989 596831
48 342419 571486
49 397200 461992
50 280341 612334
51 172916 75026
52 416273 238936
53 334683 543418
54 240088 221705
55 657033 354880
56 612375 36424
57 953541 884594
58 217770 191162
59 322737 303785
60 579895 13678
61 537539 884210
62 342707 523337
63 208711 213822
64 508587 908563
65 199724 93058
66 525389 892492
67 527594 904252
68 184154 260594
69 275128 218129
70 548710 -26945
71 568111 795780
72 431480 578442
73 587202 712943
74 334996 649460
75 352246 539268
76 560625 37569
77 430418 442534
78 220249 223132
79 934409 954886
80 190724 201625
81 173254 63220
82 519149 911336
83 368082 524074
84 249634 567843
85 361637 585511
86 920987 931074
87 545449 896489
88 382540 485618
89 294532 609055
90 687187 375463
91 552065 785708
92 168881 217258
93 931074 996847
94 237887 600586
95 403048 590873
96 554432 910113
97 200792 229526
98 380357 274123
99 535891 760174
100 350500 644050
101 609727 741332
102 350557 526583
103 296412 569742
104 155145 178764
105 174312 186967
106 449133 569213
107 659894 309548
108 672678 354359
109 932029 935833
110 421750 460305
111 568106 730535
112 363249 242081
113 226009 125046
114 893160 969160
115 282166 572418
116 370692 517542
117 157444 117680
118 589576 24735
119 610332 71537
120 595874 749341
121 577737 796478
122 520864 893268
123 292489 554170
124 924056 916066
125 381725 520295
126 546600 21276
127 574191 691185
128 547051 842337
129 605392 754169
130 544182 25074
131 727689 312424
132 521887 947661
133 384672 570281
134 545954 720547
135 428427 431927
136 523733 902533
137 316233 555181
138 609911 765921
139 525914 881718
140 233973 550194
141 579627 44413
142 391693 427051
143 374760 415158
144 881754 909826
145 171299 133482
146 437029 606404
147 403972 626677
148 375485 566073
149 377424 445759
150 889777 921998
151 666961 326186
152 328788 229025
153 326933 606424
154 545008 721157
155 257004 570194
156 181389 117636
157 330432 676882
158 711649 327941
159 417273 569925
160 375295 248575
161 386875 467132
162 390256 595856
163 275610 540015
164 301984 283307
165 622002 -19976
166 605025 730516
167 410569 445604
168 175484 191344
169 372764 268899
170 213515 222099
171 175100 120530
172 590970 28621
173 347177 534083
174 200546 134986
175 557304 756687
176 562368 869319
177 570006 36190
178 400820 232921
179 659025 374568
180 847655 912869
181 179038 162923
182 245619 493538
183 198075 123871
184 192505 203683
185 527999 43821
186 233713 531358
187 373931 428979
188 896005 975452
189 438987 581177
190 412526 617224
191 580391 -15042
192 239124 560575
193 322107 577139
194 382013 545410
195 593108 714729
196 533075 775435
197 375922 526768
198 326789 610469
199 527101 909147
200 163331 86483
201 446294 587526
202 901416 944551
203 609552 31816
204 321127 226233
205 405020 511174
206 149954 213588
207 176466 118583
208 300088 612700
209 155812 208758
210 568666 742472
211 159438 206664
212 580820 754048
213 370153 508856
214 378333 437975
215 829499 902270
216 897514 940424
217 313346 609712
218 887123 966282
219 396297 506819
220 392210 475144
221 286624 544694
222 331407 623122
223 624861 790093
224 552899 15447
225 525420 888271
226 346406 277779
227 892178 953029
228 886537 958282
229 734226 325671
230 382448 527419
231 674349 336002
232 316093 513161
233 334060 530471
234 565215 729491
235 355538 543916
236 285494 235670
237 596462 24177
238 252476 592309
239 370332 297689
240 213529 181710
241 615951 755100
242 373098 540540
243 441199 608408
244 580134 723785
245 154904 126686
246 425578 605997
247 562201 751603
248 272413 515655
249 581180 765398
250 347224 455376
251 601442 32175
252 548590 -42112
253 562078 808214
254 432499 593716
255 554353 773954
256 338048 220267
257 536322 728781
258 575421 766371
259 537709 758109
260 428534 572288
261 461719 583749
262 334655 524449
263 910921 961043
264 290129 557397
265 190589 139059
266 615812 24469
267 386540 448799
268 686776 371787
269 315145 255089
270 843708 910267
271 300099 528692
272 239177 557069
273 667190 316812
274 671971 290044
275 303701 271534
276 179708 152753
277 184261 46905
278 639074 348721
279 604481 23783
280 647523 331320
281 338457 653031
282 278896 277770
283 571120 775714
284 849529 985647
285 424532 600003
286 697423 362393
287 294506 564526
288 891132 933233
289 583104 34748
290 337580 234342
291 701650 269648
292 916989 989335
293 666716 319345
294 563387 784546
295 582333 775603
296 197608 121678
297 565059 718999
298 543118 752535
299 684478 320273
300 892916 969522
301 557648 22201
302 697260 322042
303 176292 245563
304 654321 396037
305 582407 670499
306 330308 565359
307 542305 7636
308 262208 546845
309 393931 575097
310 414595 462539
311 168543 123943
312 370001 600373
313 270895 559229
314 620712 778942
315 848220 977555
316 352177 438452
317 556808 927090
318 401746 477292
319 183758 207998
320 549560 34074
321 365920 536091
322 592790 59032
323 331716 610021
324 588066 934132
325 292865 531844
326 695672 356056
327 559066 9549
328 559272 694557
329 223756 589515
330 179273 71571
331 886636 976910
332 355642 564421
333 377128 309431
334 130192 253321
335 536241 734704
336 310337 505249
337 694670 331769
338 331782 600238
339 538345 932995
340 906230 948290
341 348624 582045
342 89310 120699
343 510904 938291
344 149282 124328
345 171096 136276
346 867725 982386
347 387050 536871
348 642857 23971
349 411878 581238
350 342303 267723
351 569590 892890
352 423233 592535
353 274061 575983
354 277000 561650
355 343809 574086
356 304578 522627
357 663990 289124
358 557880 758424
359 367504 459182
360 174376 119946
361 570343 742005
362 179352 136325
363 894375 945213
364 713578 382400
365 577456 771724
366 410112 496065
367 367357 459582
368 517561 -1296
369 313033 585301
370 598968 96726
371 886851 868146
372 181208 98586
373 391292 422275
374 551504 57878
375 405840 601738
376 605017 941555
377 883128 968615
378 479018 563616
379 336166 535864
380 302005 497047
381 371054 286719
382 280668 610435
383 300609 540816
384 526335 762920
385 521056 14986
386 662393 404048
387 659069 369811
388 357375 569890
389 583883 51534
390 904320 897074
391 955302 968425
392 392949 421545
393 582446 935360
394 884011 978972
395 199242 109529
396 287418 550283
397 294117 599746
398 433394 595769
399 557899 770181
400 338390 266486
401 190059 106981
402 685985 292306
403 701432 366912
404 325698 484617
405 495614 50240
406 582701 -11865
407 191848 135557
408 708394 378125
409 162503 67035
410 563704 721713
411 587606 59789
412 575885 720060
413 376673 464834
414 162403 108613
415 698475 368668
416 366787 482831
417 306733 647757
418 671850 319716
419 318702 609694
420 513377 912500
421 159955 159229
422 512741 874352
423 377352 246254
424 135129 120152
425 575131 31442
426 552547 737931
427 175129 249765
428 209921 92151
429 518611 858651
430 320504 602504
431 373961 230654
432 335442 248129
433 299171 539812
434 147439 163723
435 579924 714700
436 583754 763002
437 347327 560579
438 351178 261291
439 409348 476900
440 209764 562902
441 681121 263605
442 374958 551941
443 925538 925665
444 270604 589236
445 838678 934750
446 369157 247543
447 346374 231362
448 171600 156036
449 184965 217655
450 410420 466193
451 350418 244407
452 335523 246539
453 361234 486254
454 235618 606697
455 366610 502476
456 547369 3855
457 469660 645786
458 695575 357415
459 404694 467868
460 328147 640810
461 495085 547155
462 183095 146963
463 534009 908127
464 199589 88095
465 657530 320950
466 368617 264397
467 512809 956740
468 317725 574156
469 256599 538262
470 625846 761703
471 583130 761080
472 595573 758327
473 374324 472712
474 204014 130886
475 447197 597127
476 896255 964779
477 446410 604808
478 315470 629864
479 451679 575335
480 203590 224849
481 450302 582634
482 369239 548157
483 362089 574577
484 912094 924148
485 204422 68940
486 575272 725761
487 538036 912218
488 220025 116674
489 667556 322685
490 879079 930945
491 148791 140529
492 881589 916896
493 167994 147038
494 556411 3503
495 914755 958032
496 540112 935929
497 401056 419363
498 342634 606140
499 566451 -18229
500 584562 732440
501 603342 788408
502 319849 597508
503 662806 320594
504 580498 725214
505 249725 506314
506 370587 529893
507 136135 76825
508 586351 807980
509 538592 896380
510 369127 597015
511 301819 619395
512 439681 230238
513 314554 611194
514 382712 468419
515 702009 323168
516 458961 626234
517 164662 121683
518 160174 204638
519 342680 597681
520 389041 506377
521 386862 500534
522 306862 602075
523 201023 206519
524 387122 242509
525 560359 749761
526 890726 953807
527 192267 232088
528 303182 591849
529 433101 576434
530 527900 27508
531 183631 110140
532 202165 126675
533 139816 158726
534 196852 205971
535 363231 556206
536 351984 631927
537 350806 559840
538 282388 279949
539 182416 187723
540 719546 330519
541 897863 939913
542 416670 585590
543 386229 459150
544 647231 342916
545 340685 260334
546 387016 498966
547 131652 147394
548 157961 209368
549 357498 519497
550 223512 557897
551 332997 576065
552 348135 275853
553 387386 499649
554 595532 741549
555 567265 853954
556 171359 125017
557 191231 186660
558 264416 555017
559 358248 511193
560 382053 525689
561 332348 262001
562 858305 983446
563 107904 156688
564 542565 734862
565 205906 222958
566 160500 108466
567 523289 895709
568 151129 189011
569 442821 474784
570 906801 954615
571 894947 914510
572 393112 479087
573 307002 516929
574 918567 928194
575 200867 142018
576 595191 732411
577 200912 196942
578 190260 117455
579 919563 992221
580 430451 576950
581 293318 560387
582 198829 118710
583 335566 272734
584 327953 584611
585 302930 594545
586 891844 924490
587 610470 56673
588 174895 130658
589 370253 540363
590 244472 197271
591 224939 228184
592 565099 891564
593 452673 595367
594 603261 726687
595 531035 861231
596 580521 703428
597 545474 923713
598 183915 188558
599 508705 906432
600 289916 586037
601 336660 248891
602 602321 762890
603 328561 487728
604 304748 616710
605 270308 601347
606 951575 966877
607 708889 290570
608 419612 524564
609 559115 90809
610 180167 214465
611 410371 473500
612 350705 281200
613 169016 94471
614 422865 598258
615 696353 331863
616 184649 210895
617 669966 366184
618 166400 99783
619 492150 922316
620 173906 157761
621 953174 914866
622 561947 949257
623 339741 550123
624 496267 917063
625 139761 106306
626 534736 736482
627 885305 948714
628 361395 264679
629 630035 14866
630 170707 202087
631 708924 368881
632 379824 530179
633 673022 334795
634 615840 9567
635 357237 420477
636 592132 966594
637 183996 89720
638 577518 51517
639 679698 320939
640 316416 573603
641 484001 571215
642 436576 551117
643 503449 931198
644 459320 550224
645 262973 613676
646 936932 945788
647 709477 354897
648 547189 895484
649 350371 233078
650 343132 235341
651 232148 231590
652 307517 606087
653 253808 541418
654 180071 126006
655 663870 318707
656 387096 475585
657 368748 207518
658 343510 551189
659 393168 529020
660 201040 116809
661 677405 367099
662 422220 462066
663 612346 26732
664 151697 96581
665 179846 138047
666 434405 621376
667 362898 584094
668 199748 95993
669 620891 45038
670 303264 638861
671 323124 627865
672 411842 585818
673 336465 316211
674 266783 565962
675 581308 60822
676 568961 729122
677 618942 33859
678 594306 36952
679 607348 753302
680 124533 203267
681 572428 915139
682 561165 768696
683 187868 197529
684 306221 557167
685 277282 557954
686 307611 211757
687 259072 577803
688 513498 919619
689 546705 728128
690 269167 553023
691 471937 586047
692 244489 584900
693 210751 103880
694 638017 363783
695 252913 587250
696 160342 159174
697 187850 106279
698 377904 438390
699 186241 169050
700 299616 611349
701 716747 315020
702 200695 111837
703 291499 549890
704 243846 93378
705 500418 941864
706 719168 339321
707 547879 770564
708 303972 614323
709 347585 559146
710 333195 278559
711 491989 873121
712 604018 64544
713 465599 538314
714 327981 504266
715 587466 747155
716 903880 943662
717 226221 229659
718 381341 643856
719 581273 27251
720 704342 279076
721 239630 114345
722 512039 896063
723 169672 100429
724 514841 773954
725 317368 575713
726 175754 142352
727 526652 935774
728 243910 549580
729 950334 935946
730 711530 313268
731 704472 304795
732 155935 100588
733 244122 517579
734 373870 220242
735 874751 964174
736 301179 644918
737 583348 707068
738 150202 236703
739 319204 638105
740 182349 238787
741 561416 27612
742 394779 596901
743 142499 137592
744 892402 962096
745 163888 255397
746 254666 214024
747 175279 218222
748 902587 959427
749 441500 412878
750 210612 205866
751 671349 326122
752 333691 528397
753 495089 614776
754 893445 981346
755 593018 30006
756 571596 733277
757 305417 640227
758 454570 597066
759 705786 310248
760 909734 921312
761 447419 624214
762 895370 989815
763 585255 9882
764 600005 931424
765 333343 250064
766 683539 325428
767 250026 516223
768 289106 627542
769 274305 582587
770 687185 268694
771 383252 257223
772 568620 777401
773 578551 755407
774 518443 737474
775 223907 110688
776 538633 894269
777 697597 332834
778 629893 748309
779 289287 535483
780 317526 547679
781 286359 601066
782 276511 506302
783 431365 586854
784 426402 439914
785 712445 342358
786 703215 355830
787 534395 926001
788 261861 544692
789 568731 767284
790 656333 311837
791 183789 216454
792 546249 781975
793 390034 446882
794 590081 3386
795 598241 12399
796 367792 458501
797 506472 851852
798 676909 340896
799 404536 617995
800 408796 510710
801 401386 452529
802 580962 4198
803 680161 357952
804 901858 929534
805 686104 333068
806 185614 227125
807 364687 588000
808 681256 384555
809 882407 933973
810 143407 76967
811 367834 448038
812 314906 529014
813 369619 235419
814 295173 611787
815 925308 929629
816 901410 921749
817 338006 469370
818 158277 107176
819 213209 152710
820 614923 8297
821 281669 538063
822 405334 573109
823 411164 543262
824 343959 262801
825 710082 361385
826 672887 354636
827 901470 894490
828 586071 42949
829 407489 630568
830 563206 60728
831 869734 1039251
832 215099 222669
833 349295 605355
834 911251 937370
835 605735 51674
836 357364 296028
837 337186 242640
838 532788 926566
839 609401 931031
840 442259 579640
841 281974 533059
842 350309 576594
843 560691 908504
844 140080 215077
845 895775 949012
846 346770 475650
847 664709 312876
848 388157 602543
849 849906 990099
850 470084 592475
851 540602 942016
852 539178 919574
853 231278 556371
854 853333 931354
855 234952 94094
856 678161 301208
857 898669 926305
858 464937 562305
859 605698 763163
860 182921 151153
861 684252 356161
862 316580 614466
863 488093 961426
864 711063 322192
865 220952 174307
866 374446 249456
867 464357 554221
868 583905 778337
869 680452 307923
870 396915 544911
871 301554 562389
872 555798 885319
873 372530 555958
874 362362 467899
875 410603 546591
876 363149 556631
877 611855 50860
878 660983 327640
879 222650 69800
880 617388 62450
881 290561 631630
882 325297 632106
883 365030 545014
884 335621 222762
885 251941 598142
886 609414 7054
887 671613 310336
888 324572 246029
889 195794 104520
890 453987 604328
891 389744 568918
892 349682 469427
893 583712 814918
894 182509 213977
895 383536 456782
896 887584 974310
897 318491 244129
898 200175 177617
899 897844 898752
900 337979 525493
901 587099 28211
902 359999 548633
903 295898 603333
904 347146 210446
905 677445 323205
906 400379 440931
907 877755 876304
908 556446 956068
909 158096 78862
910 565192 742271
911 882975 930877
912 567735 756952
913 434520 587800
914 359011 245553
915 848627 923680
916 384528 489888
917 555413 938580
918 311282 564710
919 522471 914934
920 317794 644617
921 389518 483617
922 435067 628921
923 163767 162358
924 570122 25560
925 429162 569670
926 313688 590572
927 543251 44665
928 384642 538734
929 557917 889694
930 179814 164205
931 203975 192367
932 159081 183835
933 691694 295136
934 591996 764251
935 520752 915770
936 362863 440608
937 315389 503929
938 564827 742729
939 397785 275951
940 658707 350988
941 301907 587002
942 234704 219390
943 314878 526694
944 500001 939599
945 434607 558784
946 181106 159724
947 603166 763787
948 231715 135286
949 345543 625954
950 159745 104085
951 304662 601734
952 183298 202077
953 285431 513113
954 417261 623500
955 215393 146659
956 429473 562207
957 363255 536865
958 335718 528771
959 550995 888406
960 541441 92663
961 555886 768520
962 585364 31780
963 191035 188924
964 324806 591689
965 218589 540267
966 187776 121149
967 892618 953625
968 369177 474108
969 171769 235260
970 358914 272080
971 389222 432228
972 405087 518239
973 296872 619313
974 335102 540962
975 322597 582232
976 928780 923535
977 240626 578492
978 314026 551469
979 346216 529421
980 212650 551516
981 404201 427808
982 178179 128181
983 373363 466921
984 407571 651197
985 573671 886806
986 379334 438249
987 342441 261094
988 314068 223445
989 250229 603736
990 630908 358039
991 886364 963705
992 653442 315452
993 346826 540173
994 676186 305088
995 181430 115565
996 688410 332793
997 374226 576183
998 579176 733818
999 550654 745932
1000 584942 1900
1001 388194 466538
1002 315566 527628
1003 322437 228052
1004 437448 588801
1005 590240 809681
1006 589456 58090
1007 251346 551710
1008 867908 928612
1009 426869 575947
1010 590212 36413
1011 629454 735130
1012 573137 742454
1013 142035 124227
1014 337041 638027
1015 892163 927758
1016 194131 186585
1017 271846 576097
1018 527793 890860
1019 378041 562627
1020 308652 183448
1021 424527 547513
1022 340463 223244
1023 622467 784416
1024 351945 607844
1025 421057 462408
1026 410100 476691
1027 686226 337309
1028 265672 529492
1029 912958 964709
1030 359219 528701
1031 186942 232695
1032 618901 382037
1033 201748 125878
1034 376184 518026
1035 363943 410614
1036 526581 771827
1037 929990 970808
1038 529693 773447
1039 724638 274446
1040 357139 486626
1041 413598 473567
1042 565007 166
1043 307989 610561
1044 853808 932457
1045 477287 623662
1046 430143 590741
1047 336213 530535
1048 689528 340761
1049 169049 222780
1050 366070 620955
1051 338368 570291
1052 920488 928287
1053 551260 85004
1054 157003 159785
1055 180230 192469
1056 623948 4564
1057 925363 969221
1058 172993 121562
1059 593662 725661
1060 956031 948371
1061 941170 975979
1062 308564 629480
1063 532905 918350
1064 545962 960473
1065 355152 247513
1066 357615 455616
1067 320770 521394
1068 615826 20466
1069 285944 517386
1070 303360 647120
1071 181510 126178
1072 859550 950701
1073 203923 105332
1074 325209 536444
1075 659926 349715
1076 267236 555317
1077 502297 908989
1078 580806 887837
1079 582800 702229
1080 557126 21063
1081 299304 589873
1082 343256 609159
1083 342668 618021
1084 585925 754198
1085 588873 37102
1086 353018 254068
1087 872898 942473
1088 317639 616728
1089 348392 267223
1090 694338 371338
1091 199454 191501
1092 423389 547993
1093 213280 189034
1094 179459 176420
1095 349367 505582
1096 345964 284400
1097 251694 521557
1098 384075 455055
1099 170799 193902
1100 531198 921102
1101 186478 182307
1102 392499 433772
1103 694993 358034
1104 188656 149593
1105 384771 519455
1106 551993 905814
1107 306782 588292
1108 613649 743725
1109 212460 557594
1110 260883 614555
1111 525620 918391
1112 441114 568373
1113 195665 218617
1114 566623 776674
1115 320913 601343
1116 341089 221711
1117 333125 482622
1118 298347 252335
1119 328445 642626
1120 283914 541642
1121 887140 944141
1122 235872 124492
1123 284809 546041
1124 894042 925712
1125 588568 13057
1126 191450 93047
1127 210833 129460
1128 587007 718739
1129 312282 568266
1130 333456 639010
1131 370573 467177
1132 194329 73664
1133 303135 644555
1134 344126 508913
1135 467084 586713
1136 422505 583640
1137 373457 551899
1138 553207 734038
1139 408925 463398
1140 152210 182631
1141 313250 588311
1142 586901 2981
1143 209321 216647
1144 216123 181105
1145 931834 941255
1146 242233 556703
1147 555067 886801
1148 918756 930600
1149 185383 217579
1150 344728 500195
1151 408338 474945
1152 889539 935679
1153 630864 49593
1154 146587 127737
1155 252097 557915
1156 566227 758631
1157 590950 60881
1158 557933 743800
1159 393970 467321
1160 269673 557144
1161 262250 555167
1162 316296 458845
1163 250433 584339
1164 895904 998055
1165 192418 139141
1166 901476 963329
1167 390636 455610
1168 183400 121864
1169 337675 581030
1170 600725 885565
1171 557395 27937
1172 184112 221977
1173 592268 919260
1174 388847 514731
1175 582254 70029
1176 572504 5305
1177 191383 219992
1178 367840 556762
1179 632606 366582
1180 597463 4331
1181 316510 636124
1182 392188 505692
1183 350701 253525
1184 231733 219944
1185 559595 940481
1186 299433 579417
1187 343072 504157
1188 165090 100732
1189 382648 578724
1190 375446 486202
1191 195829 167812
1192 338779 478313
1193 220216 211533
1194 391457 472324
1195 539297 806908
1196 312302 657800
1197 268455 603530
1198 340874 550493
1199 423890 622432
1200 879465 918557
1201 572426 740417
1202 424705 655025
1203 301694 598202
1204 580074 49062
1205 270044 535430
1206 862797 930992
1207 200104 136087
1208 440944 603459
1209 501093 556855
1210 849509 958672
1211 356457 545848
1212 384697 464667
1213 559778 919002
1214 255903 585280
1215 393997 552635
1216 363112 275324
1217 580236 43013
1218 904829 915917
1219 656545 330960
1220 690278 386109
1221 709029 294253
1222 181773 102674
1223 424312 571138
1224 308379 664765
1225 300913 504059
1226 348576 579331
1227 248868 555803
1228 179262 123039
1229 457717 543446
1230 230708 123765
1231 928143 994503
1232 904077 915763
1233 282671 573733
1234 637806 44684
1235 931334 946370
1236 573034 766301
1237 348308 286629
1238 853022 1010954
1239 364058 591757
1240 709462 347814
1241 355936 270527
1242 339831 263680
1243 849672 879263
1244 446591 594466
1245 204566 222849
1246 403557 605636
1247 370030 577479
1248 183485 135020
1249 598182 742145
1250 668497 322343
1251 703424 353079
1252 369424 521398
1253 177355 151240
1254 360754 271834
1255 580926 13435
1256 555360 49479
1257 371211 495215
1258 607764 -1854
1259 638145 -11341
1260 485251 939852
1261 451776 549749
1262 373637 527716
1263 557235 922749
1264 338919 542295
1265 505045 904317
1266 324077 593577
1267 241598 552123
1268 883087 929408
1269 481089 670709
1270 308399 483590
1271 164556 191208
1272 336036 275851
1273 399514 424731
1274 684155 338267
1275 150726 64311
1276 435450 574360
1277 436458 542798
1278 315716 271046
1279 245262 522275
1280 556412 769068
1281 165130 72257
1282 221249 212679
1283 641052 339349
1284 371945 249708
1285 674156 357908
1286 737847 377544
1287 632314 327434
1288 545917 877616
1289 446720 568520
1290 391746 549291
1291 601212 41383
1292 627652 -34388
1293 873002 916782
1294 385531 455990
1295 338046 535444
1296 327796 247210
1297 913416 949684
1298 283637 542076
1299 566113 884283
1300 173555 223542
