NAME : portcgen-700-707
COMMENT : portcgen N=700, seed=707
TYPE : TSP
DIMENSION : 700
EDGE_WEIGHT_TYPE : EUC_2D
NODE_COORD_SECTION
1 631266 596367
2 681192 339634
3 563907 580856
4 692370 315886
5 586803 641287
6 673629 629264
7 603550 610834
8 257309 130088
9 629773 726386
10 665645 434623
11 614385 332834
12 609311 628470
13 623853 735331
14 741995 497480
15 948123 816071
16 641312 733695
17 975241 769216
18 712030 341288
19 621593 633587
20 164130 732728
21 663172 312639
22 617667 306842
23 607322 434308
24 82154 745733
25 904438 817407
26 138590 694611
27 635948 318978
28 609069 605446
29 987799 764011
30 685640 245279
31 672211 569112
32 156760 692288
33 250032 191704
34 180496 641360
35 118274 712678
36 544650 604359
37 625701 473815
38 640246 307007
39 878575 782647
40 714146 287765
41 541077 716993
42 614434 450076
43 694300 443509
44 224076 107777
45 644405 496919
46 668699 348538
47 243359 186079
48 572224 744817
49 944626 761340
50 672736 314457
51 585973 718669
52 625365 472243
53 663397 515371
54 559014 708142
55 144112 697722
56 669470 794787
57 640452 755625
58 668818 511735
59 187026 203833
60 938897 768592
61 202337 117714
62 249730 225036
63 573327 739059
64 678843 307280
65 691663 284086
66 224002 188452
67 969795 752432
68 288164 126003
69 543673 624593
70 910164 714560
71 640841 609433
72 169732 754178
73 671413 615453
74 619691 680013
75 714561 311216
76 292736 107400
77 641767 499740
78 1001266 761177
79 612004 813258
80 256359 142951
81 667771 428033
82 627358 515517
83 569184 604494
84 688075 264236
85 133526 626549
86 271163 120906
87 581062 503452
88 719461 781982
89 250057 209324
90 668104 758746
91 74999 706179
92 654607 821976
93 723577 474160
94 289793 177967
95 660745 602919
96 169743 665818
97 156226 719781
98 105733 660781
99 220463 109520
100 650996 375733
101 689490 593164
102 656093 301345
103 926239 842975
104 878237 809676
105 691072 343024
106 308053 107401
107 636192 605488
108 617683 730446
109 584751 714044
110 646514 623729
111 968091 787214
112 596051 741218
113 703863 500556
114 930980 753521
115 692221 276781
116 594025 696992
117 707101 507465
118 574850 761245
119 285274 107192
120 625105 476330
121 696705 342856
122 701804 490109
123 902075 798071
124 892185 740851
125 651509 333766
126 106548 682523
127 684180 336783
128 630234 356851
129 711199 570210
130 610751 789681
131 700806 791090
132 204810 176007
133 213209 147586
134 656052 323586
135 116939 742788
136 600951 470398
137 184710 716342
138 103589 670583
139 903236 753960
140 923273 710290
141 564047 595602
142 646076 454077
143 653677 475089
144 626872 751981
145 687591 528021
146 126089 688467
147 672050 414176
148 127518 750098
149 604658 595981
150 877452 770791
151 659831 580593
152 630162 612457
153 657579 319861
154 721039 526952
155 180355 745403
156 580530 478123
157 617422 788906
158 327437 180347
159 927505 758497
160 920925 754889
161 106458 585061
162 932311 793435
163 148495 655255
164 136288 693968
165 879077 745149
166 667050 746498
167 702215 491075
168 944017 707057
169 612334 793079
170 660827 722399
171 111231 661090
172 630239 612013
173 897790 687512
174 617808 467931
175 632546 719288
176 112340 697281
177 703501 305414
178 308908 157649
179 634854 537277
180 84386 696697
181 653643 441554
182 688078 284860
183 619375 618634
184 229162 213197
185 570140 791914
186 630204 374567
187 625845 625427
188 648523 618951
189 600600 668938
190 111729 743088
191 591753 616193
192 539729 778696
193 695004 509576
194 636649 685510
195 174061 178874
196 901670 732854
197 655820 634332
198 645388 306777
199 717345 302803
200 953742 791127
201 676067 488460
202 594714 594557
203 670228 339937
204 637336 290348
205 572723 744396
206 271050 227500
207 711452 331319
208 675540 494369
209 943127 840068
210 620743 588298
211 660318 508869
212 597070 830592
213 82420 750520
214 685506 326355
215 301089 145509
216 621060 652208
217 703773 335793
218 599787 497301
219 222165 201508
220 703713 495159
221 649450 354176
222 223910 147451
223 651230 622976
224 592655 560898
225 646252 649033
226 233928 185128
227 681193 304473
228 662582 286623
229 117151 663223
230 860968 796065
231 700415 342198
232 748309 292581
233 660721 590170
234 251823 79414
235 316249 111136
236 855775 813188
237 681935 290739
238 985444 712741
239 677014 426515
240 597326 615651
241 723038 236487
242 635340 483422
243 279463 141377
244 940741 801456
245 320675 121713
246 691297 329841
247 222551 134196
248 273305 167820
249 667159 468849
250 111822 702693
251 716804 318358
252 675952 624274
253 237546 203660
254 673977 651088
255 885077 767376
256 910744 705019
257 713172 277048
258 254969 193677
259 696059 297329
260 655492 454585
261 599137 735957
262 815507 694297
263 632433 513930
264 107702 750468
265 182532 674522
266 140444 675466
267 841624 839842
268 147391 704928
269 153720 664641
270 612232 609865
271 609824 328161
272 520088 769414
273 608321 513047
274 833229 753351
275 872815 771043
276 242170 182963
277 860628 741109
278 269824 110436
279 664837 346080
280 71854 600911
281 290642 170795
282 613942 516658
283 636116 590270
284 639173 516528
285 946462 732220
286 182560 777201
287 657705 538792
288 697513 490591
289 241314 115026
290 630108 597629
291 249761 182659
292 650964 322751
293 894866 762562
294 864888 707970
295 190501 696445
296 874064 759728
297 123091 670930
298 136815 705178
299 674607 456641
300 737164 348997
301 589527 770076
302 243801 115545
303 617385 614495
304 609816 439942
305 931971 803786
306 634052 298114
307 666498 605419
308 692712 259984
309 174997 642063
310 898330 795202
311 591532 571169
312 118487 758538
313 617454 462481
314 162328 689429
315 283561 58048
316 207531 192499
317 897633 734140
318 615010 511828
319 953599 782782
320 864281 776680
321 147391 754694
322 624001 489793
323 167217 709658
324 274016 141118
325 619233 414600
326 880842 786205
327 696816 491327
328 623913 761001
329 706540 327543
330 203812 186502
331 891444 780201
332 768680 306117
333 671067 499727
334 628131 737870
335 291633 128825
336 566401 796307
337 126883 728485
338 642242 286347
339 864110 781948
340 658124 687932
341 622707 514255
342 745142 294533
343 566966 805292
344 152394 711966
345 949980 738475
346 650118 329672
347 268870 205374
348 651804 320516
349 821409 728683
350 147236 737428
351 926467 815734
352 292458 126943
353 635702 620180
354 170406 688190
355 634877 691644
356 680109 352750
357 252952 701757
358 290020 207186
359 629304 502331
360 715162 768554
361 662703 610560
362 621447 608848
363 256507 138860
364 677418 315253
365 229697 200450
366 535633 606701
367 627147 689761
368 898525 778842
369 628326 585304
370 644454 635878
371 255826 181948
372 661928 635236
373 89430 711841
374 640585 236084
375 640541 551099
376 618186 620329
377 607359 762899
378 680089 743550
379 685096 396028
380 194859 185364
381 880785 731179
382 779617 379298
383 741933 268118
384 911390 806948
385 634865 338506
386 572489 710975
387 623403 536836
388 666923 446773
389 890511 705165
390 629196 719990
391 528162 731704
392 575767 623409
393 371656 166658
394 657065 489195
395 744725 334656
396 625573 342383
397 224683 177180
398 629114 563693
399 681586 294631
400 664340 361164
401 224124 194327
402 159329 733171
403 883038 760992
404 637011 632410
405 190825 159960
406 928686 750622
407 873085 803781
408 129877 714454
409 884537 754968
410 620450 516043
411 622299 656244
412 557216 753550
413 567784 771533
414 696067 440069
415 626211 296817
416 604431 606264
417 628171 642321
418 602266 741734
419 682266 306024
420 564102 781630
421 650108 609895
422 858687 754212
423 560849 777264
424 122108 725779
425 746811 292600
426 590175 637085
427 629688 578342
428 610630 664522
429 698478 340956
430 708075 267311
431 630398 287878
432 275292 144110
433 225705 713994
434 645003 425664
435 748040 258722
436 729114 289571
437 637814 336176
438 314957 133499
439 657606 485926
440 642168 608072
441 684768 487766
442 553070 743575
443 713669 437124
444 276375 141349
445 638143 576775
446 710199 270486
447 722351 569868
448 719498 415590
449 915529 833501
450 121523 670390
451 193957 138993
452 567222 666331
453 702290 511282
454 634280 775812
455 632469 778077
456 711876 514706
457 716669 484405
458 669300 318427
459 583130 759073
460 599265 716281
461 872282 803168
462 283792 143287
463 690649 497526
464 269671 136595
465 734057 357514
466 280251 225685
467 549350 703901
468 208457 724425
469 115854 656168
470 618732 539094
471 585199 811079
472 853557 784926
473 864358 746385
474 87654 751863
475 587759 764155
476 142616 652120
477 85529 597521
478 678194 285629
479 660207 802553
480 664956 660051
481 669812 476163
482 229897 195803
483 650671 608019
484 902090 780767
485 255435 234713
486 761067 482807
487 163933 738562
488 532794 794560
489 610650 791527
490 615999 761159
491 899267 765883
492 108342 746582
493 828503 743767
494 143777 711113
495 670699 343089
496 598451 731477
497 910614 784376
498 668181 779231
499 861993 828738
500 668184 520899
501 881567 680205
502 699506 522382
503 165760 725128
504 593480 550833
505 685107 522670
506 969189 778035
507 662476 354572
508 129984 721017
509 660699 778937
510 947872 754238
511 686804 428268
512 225010 192155
513 937241 784281
514 601764 443052
515 654336 460277
516 241958 156762
517 899125 807220
518 326195 138465
519 536406 644252
520 290208 212663
521 681071 325673
522 604537 777699
523 530727 763141
524 122327 708165
525 242335 159824
526 675961 616312
527 685209 342481
528 329417 127570
529 624704 418261
530 661324 657070
531 142982 705562
532 614003 796328
533 531689 824967
534 197260 83690
535 663639 726743
536 640954 633916
537 147077 656664
538 550346 799009
539 213189 746147
540 248790 151992
541 633319 477808
542 679022 646423
543 888317 762586
544 625140 521645
545 208556 713311
546 692325 522289
547 730209 500610
548 945675 790671
549 652090 442490
550 634021 633708
551 655389 478301
552 101991 687419
553 174970 189222
554 649766 616987
555 639526 750726
556 657099 482483
557 659861 614523
558 629587 629388
559 282184 142621
560 581572 542508
561 263576 180046
562 595259 370195
563 325392 193519
564 638773 449470
565 122735 700459
566 637054 658241
567 132364 692977
568 922079 824907
569 999468 743024
570 657851 605177
571 587198 751443
572 599977 701809
573 567039 579655
574 649531 545739
575 630891 547357
576 643909 765195
577 588105 762553
578 974092 783795
579 244209 686774
580 952056 786055
581 706085 600184
582 917445 805055
583 633460 641971
584 577959 723827
585 685836 304085
586 761109 314763
587 675457 516010
588 650906 331707
589 688739 512747
590 698999 262299
591 557949 745661
592 701199 296988
593 732283 486849
594 327345 122637
595 635431 431231
596 602324 785328
597 898836 735432
598 713155 608689
599 125167 653044
600 637140 658484
601 166185 708902
602 604832 360069
603 595932 600028
604 589913 653558
605 92071 711246
606 875782 784570
607 668236 318166
608 169730 732743
609 166600 791237
610 879814 721833
611 640748 752501
612 604381 780867
613 233480 146126
614 692801 514968
615 242167 121265
616 737051 463827
617 937875 792057
618 699884 297372
619 703172 564749
620 697280 609950
621 88153 655065
622 225267 143237
623 678674 327003
624 298312 175393
625 235596 108471
626 68537 747853
627 271953 152940
628 913855 723820
629 281960 164915
630 184640 690760
631 636244 620878
632 653564 640358
633 957479 821954
634 642130 337236
635 883261 769852
636 665086 517407
637 650179 485985
638 900425 743959
639 643386 498657
640 203760 732705
641 919941 751538
642 923842 714687
643 632394 581725
644 712626 280147
645 904235 765345
646 623153 584038
647 611679 568248
648 600069 602631
649 689945 277815
650 736822 383354
651 879833 733624
652 608158 734899
653 620133 654513
654 577584 750195
655 563040 803649
656 249895 241619
657 625067 579358
658 664673 580224
659 600486 603991
660 716232 415483
661 624941 478781
662 665566 582659
663 656636 550845
664 142540 685437
665 666727 540372
666 173948 702499
667 166417 697158
668 715252 330321
669 943754 747739
670 925134 805951
671 632536 594581
672 82101 718644
673 929060 740292
674 271445 207665
675 918133 790881
676 596777 636673
677 534750 768040
678 619021 600085
679 654072 645576
680 643285 772177
681 268538 162347
682 128763 727125
683 685964 517488
684 631354 326600
685 648784 473868
686 880775 771788
687 266396 222690
688 649576 577193
689 205265 728282
690 583716 708996
691 650962 568510
692 661381 442426
693 286225 119385
694 184551 779593
695 917652 668642
696 95448 728278
697 957767 764085
698 598584 569473
699 932685 757672
700 891913 811244
