NAME : portcgen-800-806
COMMENT : portcgen N=800, seed=806
TYPE : TSP
DIMENSION : 800
EDGE_WEIGHT_TYPE : EUC_2D
NODE_COORD_SECTION
1 87381 641946
2 604878 904525
3 169576 451125
4 640323 974902
5 590295 986454
6 770382 665390
7 313400 663834
8 398449 587951
9 677893 393452
10 652935 978888
11 671116 424836
12 647185 911841
13 232000 419578
14 376704 544036
15 295976 599512
16 600004 937295
17 649719 375648
18 301972 773370
19 46527 625095
20 40847 683468
21 584430 971592
22 14496 618608
23 328929 572558
24 618857 405212
25 389138 568563
26 258991 558560
27 312918 621794
28 338206 633393
29 662809 616156
30 658465 313856
31 288704 777529
32 756208 674011
33 10873 652488
34 384335 614106
35 308294 771288
36 163331 476700
37 333142 791239
38 672740 361614
39 50941 614394
40 21072 706172
41 249429 814279
42 623073 956398
43 155053 406043
44 636239 376332
45 677435 401798
46 386091 593246
47 631293 1038646
48 212588 843174
49 605259 926342
50 691603 320076
51 749408 644671
52 211117 775121
53 327495 546451
54 3698 683810
55 338761 646411
56 361415 650011
57 567579 988266
58 410833 635827
59 51413 641625
60 131661 434236
61 256552 725151
62 217168 396919
63 793575 642805
64 344087 610870
65 295022 804218
66 807967 677402
67 610345 985360
68 573478 943786
69 772025 671567
70 656172 655915
71 294817 626703
72 273396 716304
73 245448 801681
74 150026 511200
75 200565 485239
76 187907 493493
77 206701 479462
78 225385 846081
79 456495 542060
80 732492 636055
81 216054 786842
82 546045 922553
83 234719 430696
84 609086 920031
85 181610 425734
86 234007 741994
87 815967 590689
88 198513 428317
89 179083 460906
90 646527 314733
91 642545 947914
92 111155 412969
93 685040 346850
94 670789 257385
95 321590 540390
96 329148 622635
97 23057 668627
98 216078 801262
99 736029 680142
100 651408 432765
101 207535 391425
102 357805 605302
103 176122 438855
104 358168 596540
105 183746 448907
106 348459 569334
107 -16033 640318
108 422555 584558
109 398760 542113
110 174887 437803
111 222943 721528
112 521619 906919
113 729991 666280
114 754665 657622
115 603206 954005
116 35783 640674
117 238911 502069
118 221705 389917
119 320894 641662
120 290587 688026
121 331890 570119
122 287792 615735
123 617023 321867
124 301917 606468
125 620012 374779
126 235599 753552
127 420940 585415
128 734094 671367
129 300891 633680
130 59013 714688
131 355427 545297
132 637049 989623
133 200928 767226
134 142984 380960
135 247308 558882
136 32653 703960
137 267459 833990
138 562749 955581
139 -23705 668922
140 379449 624982
141 349030 600509
142 322175 601807
143 619398 318072
144 352386 620256
145 9518 618228
146 802523 699049
147 358618 598420
148 3698 629839
149 546309 962685
150 739171 623096
151 746265 580782
152 505889 955295
153 180266 459256
154 247654 690248
155 263711 796463
156 652172 346709
157 134946 352182
158 741318 360429
159 292398 694534
160 16298 723523
161 601954 327150
162 627843 905907
163 23849 638866
164 563107 984928
165 671 692561
166 254005 789396
167 381232 536299
168 235099 756404
169 157808 453484
170 662807 320960
171 305196 637054
172 40474 642075
173 657613 351522
174 310815 593313
175 185756 436750
176 686274 644935
177 -31452 665456
178 645405 423154
179 592951 957959
180 106648 707829
181 340733 598333
182 286905 525495
183 579393 914518
184 236667 728526
185 346262 544282
186 260678 741056
187 581313 915314
188 744320 670797
189 721458 611822
190 18384 674402
191 404644 521647
192 649458 363465
193 297272 621936
194 660090 361452
195 683492 296550
196 280841 788420
197 26374 668795
198 336270 688504
199 296549 740347
200 70815 595054
201 196862 793287
202 572761 942226
203 730764 567422
204 570605 1005789
205 603193 938516
206 234239 402051
207 631090 903669
208 247434 766341
209 335304 580470
210 359269 575335
211 341289 649877
212 92037 654695
213 219474 624037
214 767289 417738
215 730337 647645
216 206661 423641
217 679667 955774
218 377885 571816
219 364639 624109
220 219560 796218
221 788891 622771
222 95976 632020
223 741269 599151
224 618295 939454
225 329104 529203
226 100887 640263
227 221128 787038
228 27405 708976
229 569809 904787
230 619129 380692
231 294499 596757
232 728801 636434
233 263887 788746
234 663250 409829
235 411957 508245
236 612232 968634
237 299252 695500
238 308261 625320
239 195995 436488
240 18579 690052
241 276738 670735
242 713643 360649
243 409880 598596
244 544549 953833
245 693998 651055
246 281470 782672
247 -22818 669326
248 240566 720847
249 311144 625897
250 298300 614225
251 751155 655382
252 34065 693343
253 585374 975645
254 776899 633615
255 282375 799640
256 579225 967882
257 773381 592355
258 293039 783496
259 60160 679352
260 752616 642833
261 740744 628674
262 -7859 688814
263 110207 648053
264 15460 644197
265 725484 577956
266 765070 557788
267 278062 712001
268 605715 935115
269 351397 625798
270 715837 568011
271 379425 656614
272 206870 478603
273 584729 305602
274 741117 602964
275 732588 401434
276 708444 429784
277 449692 519206
278 251051 752559
279 376268 464553
280 123216 662832
281 289479 616514
282 542529 1002517
283 550940 906561
284 811577 644842
285 601139 985977
286 287411 644642
287 791469 654261
288 281903 549053
289 274907 617192
290 542929 962386
291 693099 376045
292 675892 338359
293 622937 969177
294 586275 930178
295 702485 371641
296 191763 433629
297 612349 383276
298 1668 720063
299 62686 683893
300 262637 777331
301 765524 642356
302 2749 677404
303 566856 944174
304 317299 578070
305 301407 622309
306 276522 602993
307 778809 591398
308 715300 577491
309 630849 886436
310 650475 363457
311 607250 947372
312 648805 338282
313 587446 954011
314 697806 396099
315 598347 955444
316 94779 453293
317 324524 507652
318 -10617 691973
319 263530 827496
320 768500 633794
321 704455 384581
322 818944 633456
323 417741 676103
324 31482 670271
325 81687 636097
326 -28800 724545
327 666210 646980
328 167309 395700
329 580033 933187
330 142661 765369
331 55130 640456
332 32578 623603
333 282295 628056
334 200986 432648
335 369410 568119
336 361556 590686
337 602441 978718
338 351286 562364
339 646474 945472
340 693992 309350
341 649210 336541
342 170724 459673
343 713245 294466
344 676727 352414
345 702311 624216
346 190352 452259
347 615172 931430
348 274726 608525
349 586722 951610
350 366668 613410
351 614464 851543
352 208740 442366
353 315230 659293
354 637942 371089
355 421086 535842
356 377445 611686
357 218449 420987
358 618904 412229
359 235557 736329
360 217559 774537
361 57169 695559
362 682436 403180
363 292360 630218
364 416645 590032
365 256263 766950
366 634677 385647
367 624830 946227
368 57550 657324
369 653644 359454
370 780668 621936
371 259230 789089
372 301316 724277
373 637724 1021457
374 771351 557503
375 705188 612033
376 27121 659415
377 313483 785152
378 57969 693375
379 333505 596390
380 679512 287718
381 647274 415146
382 198295 421932
383 758200 689925
384 205600 412740
385 642078 882035
386 749040 604069
387 803299 591654
388 655670 435756
389 341205 660788
390 392202 592985
391 358114 610253
392 283619 604460
393 772379 658123
394 680919 331890
395 403418 579655
396 339000 606366
397 809612 614169
398 359350 594401
399 -1696 683692
400 259291 771698
401 571089 946622
402 335532 616548
403 647693 401092
404 721170 596437
405 602736 970056
406 582654 946870
407 426552 543261
408 171034 444713
409 589572 926126
410 363681 550690
411 10506 713085
412 214085 409556
413 430619 650285
414 236439 819277
415 801926 563847
416 642713 322343
417 279376 795511
418 21335 642451
419 194174 447251
420 -20041 652327
421 201905 420415
422 20147 714103
423 609422 967371
424 588401 974078
425 390174 622620
426 599369 947021
427 -39405 670213
428 259001 772371
429 380565 625780
430 647801 308931
431 763989 609101
432 279580 763550
433 153769 405501
434 611580 887459
435 321754 618129
436 596864 992469
437 146352 433680
438 727767 365446
439 272594 747791
440 17492 631613
441 197452 417403
442 727943 428862
443 649117 394965
444 644659 319099
445 176195 472589
446 10922 610946
447 166846 489689
448 786854 607410
449 24050 698832
450 320761 570972
451 782957 678481
452 613254 355809
453 322846 582758
454 658486 1003204
455 213793 430258
456 391744 603416
457 606604 345851
458 647469 319852
459 28616 697561
460 297836 621344
461 55440 690298
462 656691 1012646
463 37843 629722
464 731586 640357
465 189996 407271
466 629824 922068
467 273153 776812
468 303249 539132
469 688111 348635
470 799175 597395
471 645278 375911
472 174047 406052
473 -3635 712196
474 315815 622254
475 663364 298152
476 606991 949079
477 355143 587155
478 161601 452331
479 790630 607420
480 407957 613824
481 559266 897156
482 354387 580238
483 649489 397235
484 695228 328587
485 321130 536347
486 210461 425767
487 592651 901327
488 -13235 667392
489 586663 953544
490 24037 654422
491 166511 507061
492 209046 739594
493 248396 758403
494 657595 365901
495 56819 672387
496 541486 918985
497 266333 621840
498 351837 577947
499 343978 575652
500 290643 775322
501 377879 561116
502 767572 549816
503 580016 914955
504 683893 630447
505 139530 465039
506 606140 911213
507 452854 562076
508 727693 333043
509 302356 577222
510 694884 388714
511 343021 630189
512 40049 655217
513 709047 566210
514 185721 429888
515 547247 938210
516 620560 932045
517 159839 416741
518 681111 584414
519 73346 675038
520 425129 614898
521 669189 380528
522 726585 587475
523 651599 379591
524 348596 596142
525 741150 622469
526 574632 895714
527 298071 646226
528 289900 776292
529 299397 581012
530 145430 445556
531 215679 805939
532 3890 653152
533 583671 958435
534 318720 601352
535 779756 617123
536 636595 981169
537 48447 705756
538 300629 670363
539 428238 564000
540 684413 349418
541 187407 451344
542 48084 630391
543 335762 569817
544 678755 637652
545 241779 459995
546 157256 432836
547 270764 606647
548 712773 324704
549 154827 363747
550 294411 576103
551 1652 694648
552 185392 724341
553 53900 655876
554 341148 615874
555 665345 343491
556 237022 436101
557 232662 585668
558 421634 600350
559 67240 686092
560 429302 535968
561 748422 351117
562 643923 930109
563 710131 579807
564 661204 358492
565 735327 646366
566 595718 917232
567 143638 437549
568 313561 608617
569 716072 608979
570 178884 813152
571 653732 358053
572 319641 598283
573 294492 777236
574 357394 615334
575 391549 576433
576 357034 611951
577 261265 778179
578 715297 316630
579 696812 383552
580 656070 360583
581 646214 335111
582 229656 731548
583 360478 538876
584 305730 598640
585 422486 568939
586 316989 617029
587 33888 653542
588 690278 621379
589 607677 951204
590 241487 792221
591 709995 404524
592 663661 340713
593 52323 673180
594 28792 679406
595 54469 704052
596 605160 1039193
597 30453 656155
598 249716 765081
599 302033 596819
600 20203 738287
601 338654 664684
602 230987 428410
603 33344 711440
604 16929 717879
605 155861 422509
606 46476 708062
607 692547 365536
608 293815 611969
609 75058 666863
610 576846 936892
611 255895 680755
612 730135 592323
613 64928 625328
614 376687 589204
615 631014 339320
616 211779 453322
617 582907 933914
618 374599 524550
619 188271 442438
620 638984 365429
621 574270 966997
622 630560 370693
623 748549 607583
624 301682 594566
625 61458 658562
626 106755 724885
627 742373 561859
628 41916 631809
629 253739 773773
630 345480 580794
631 305959 713977
632 664681 395334
633 581732 919128
634 303524 589571
635 292021 759852
636 745304 611505
637 227208 802790
638 293088 798503
639 301968 546295
640 555078 959728
641 613965 916988
642 363659 517957
643 608953 429197
644 253536 419086
645 705505 324203
646 131445 415765
647 232213 340347
648 267455 786567
649 631686 950444
650 550326 992744
651 14437 685873
652 426643 598642
653 35602 685411
654 319623 568201
655 65701 701881
656 684400 372530
657 301194 635419
658 435003 529806
659 649172 423458
660 265318 776150
661 673087 966933
662 632676 363924
663 318130 539376
664 661408 936589
665 232006 751917
666 749662 638524
667 660194 311803
668 756402 660746
669 36005 724695
670 193585 446020
671 8851 635660
672 264329 754983
673 190071 406064
674 12623 643738
675 274000 601904
676 286134 827301
677 249283 754072
678 -6099 721516
679 274142 659176
680 359741 594393
681 220293 761482
682 313912 567220
683 258242 756937
684 319473 667155
685 292757 635989
686 673798 350318
687 315792 564208
688 183711 507222
689 306812 776200
690 659568 995692
691 52491 702166
692 733571 375884
693 662462 346890
694 46285 737116
695 76530 719842
696 663871 382690
697 274364 624839
698 383021 588593
699 772926 603972
700 758431 605317
701 47393 740737
702 682685 341712
703 853265 616730
704 157971 460565
705 633597 366574
706 280297 627889
707 221620 806709
708 293943 525899
709 616393 955353
710 2705 646736
711 743188 680129
712 280410 819376
713 519277 897783
714 230062 804547
715 159834 416926
716 402938 597777
717 -23439 607347
718 801523 527327
719 323845 598841
720 325512 590419
721 629557 925358
722 62801 711193
723 630763 949930
724 21731 726689
725 796667 646221
726 776959 580110
727 -40950 647418
728 588108 910440
729 639265 965062
730 715042 594403
731 226361 586594
732 315720 572076
733 209116 444505
734 726888 340503
735 390995 636673
736 713512 610532
737 258964 752568
738 756305 617205
739 774416 614849
740 12521 640224
741 159350 405696
742 613369 320040
743 731826 576640
744 329227 782208
745 306476 582948
746 659383 1022063
747 178613 412244
748 52604 632712
749 720841 581266
750 555004 981869
751 144827 412209
752 316370 781633
753 190686 740153
754 158285 434801
755 723838 632250
756 66878 694135
757 213849 386418
758 306441 626627
759 293067 600908
760 600730 964955
761 149898 455062
762 704298 596312
763 152985 481366
764 203524 440638
765 256242 758137
766 224206 845198
767 658929 320609
768 465090 592671
769 251269 416428
770 638804 403308
771 292077 588835
772 834075 636263
773 581786 439759
774 8812 695072
775 405312 592480
776 435046 618013
777 272359 770998
778 333123 584132
779 85146 676049
780 566942 953817
781 81312 656690
782 632661 884074
783 669222 360676
784 75954 669546
785 282263 733047
786 307404 754369
787 -26705 638800
788 363169 576340
789 694880 394079
790 70140 719394
791 619724 983126
792 774281 652381
793 289086 560877
794 361586 559547
795 654936 326601
796 370881 581550
797 313970 556211
798 600007 985579
799 618490 1003862
800 185645 426952
