NAME : portcgen-1000-1006
COMMENT : portcgen N=1000, seed=1006
TYPE : TSP
DIMENSION : 1000
EDGE_WEIGHT_TYPE : EUC_2D
NODE_COORD_SECTION
1 512438 382565
2 482128 394176
3 731463 15512
4 309083 218478
5 369351 235402
6 337468 160096
7 476336 404156
8 375028 194240
9 484453 380506
10 703620 53675
11 758900 767935
12 714431 8291
13 539488 417686
14 553769 375417
15 330310 237919
16 717704 781525
17 736453 24680
18 565720 419812
19 513671 401260
20 986897 212975
21 556336 408865
22 505783 322296
23 722297 787474
24 462486 362092
25 349003 244700
26 606032 110912
27 857780 536593
28 559402 389937
29 777880 78721
30 803393 504524
31 757203 805395
32 483880 363407
33 322813 217217
34 767776 819764
35 711498 69680
36 700189 142642
37 312121 308763
38 424097 325597
39 486532 363470
40 481104 352435
41 730555 742928
42 452856 290957
43 312287 225303
44 810775 507851
45 712863 125224
46 688468 103623
47 675724 99682
48 702502 706433
49 504486 378389
50 914626 231064
51 380062 250301
52 713707 23913
53 567954 427162
54 866685 532591
55 938690 324122
56 512116 425354
57 716656 745112
58 949532 231825
59 801476 533413
60 477408 403117
61 501325 333627
62 558225 478012
63 669991 111317
64 983898 253206
65 692464 778533
66 669709 118937
67 548322 368141
68 515561 362907
69 548898 393576
70 923848 228210
71 737444 783695
72 827031 472826
73 856810 487133
74 482369 413270
75 668780 76122
76 845990 537454
77 529587 378796
78 806071 510792
79 811371 499056
80 461125 326872
81 278696 235760
82 642159 385515
83 797933 566194
84 677438 758516
85 588638 388337
86 663821 116718
87 511987 363452
88 741262 751234
89 715863 785902
90 505694 402357
91 785664 110870
92 726532 108418
93 329346 226745
94 525038 422197
95 992594 234176
96 472913 333763
97 362262 230242
98 949606 272592
99 464726 330947
100 465913 357157
101 770845 494196
102 739650 696131
103 592736 407148
104 331472 231040
105 700799 751868
106 313686 286703
107 701776 726865
108 538033 340104
109 521759 377771
110 818353 532813
111 473392 314853
112 926891 205317
113 967882 246857
114 790306 2570
115 576153 432187
116 720504 778722
117 518420 358174
118 505797 384016
119 696158 754264
120 744139 764302
121 756134 801164
122 739905 729535
123 572825 425460
124 335490 241125
125 862739 553128
126 513827 372237
127 727984 712695
128 682542 20386
129 729482 44382
130 733817 15107
131 318849 238580
132 714890 11190
133 977840 213830
134 755283 8636
135 691785 751384
136 772708 523355
137 719972 66653
138 514011 280669
139 481996 461078
140 501134 319850
141 737859 755425
142 682132 764401
143 500465 400745
144 902939 246042
145 740487 1466
146 757386 763967
147 731097 714892
148 928202 202985
149 526205 418339
150 733332 821701
151 687603 766823
152 595819 384929
153 349250 223384
154 839471 542817
155 970927 266920
156 681769 708814
157 386352 190280
158 735745 94963
159 768174 742624
160 808475 510042
161 949043 327478
162 1005846 229190
163 745188 -54248
164 693427 734872
165 554864 365211
166 528202 340144
167 718977 783743
168 652885 81328
169 735441 193275
170 752654 746560
171 612695 433255
172 769357 788434
173 707757 783943
174 725097 38704
175 728321 715149
176 300338 239332
177 929236 295770
178 720220 81586
179 658841 746619
180 784351 1040
181 684390 706358
182 613879 460745
183 484864 339106
184 765569 748308
185 472801 398869
186 668959 108424
187 324771 284844
188 892424 271057
189 924507 300360
190 745616 746898
191 760740 12213
192 343963 223962
193 719500 142038
194 744349 -16543
195 541228 382133
196 666379 70013
197 510773 346076
198 740948 707492
199 959140 271891
200 753744 740921
201 486154 388576
202 912818 217189
203 675523 123523
204 699989 767151
205 773592 -25998
206 758710 745774
207 802352 745612
208 470445 403853
209 784697 501942
210 788436 756829
211 321822 287305
212 717289 748498
213 710504 762873
214 1031949 303585
215 689127 119445
216 690410 800924
217 862733 538926
218 574713 385842
219 943031 224675
220 804833 571245
221 480590 341615
222 699153 839663
223 443423 375972
224 692093 752683
225 754711 528511
226 810581 499270
227 728626 735364
228 348574 193844
229 667115 770694
230 759202 126227
231 701429 791519
232 734932 800624
233 779774 544117
234 828595 537737
235 450084 350424
236 702838 757035
237 493755 357069
238 437891 449381
239 527190 357176
240 710590 730873
241 763899 724473
242 559977 360553
243 286990 255164
244 320032 176192
245 720971 790714
246 763654 771922
247 543099 383610
248 643676 821034
249 622494 412766
250 756754 801761
251 738206 64137
252 710290 15820
253 712344 92596
254 261134 269016
255 673112 775261
256 503845 381942
257 709782 140826
258 737963 777149
259 310559 260413
260 955729 234901
261 354348 200850
262 768995 752865
263 843719 540815
264 692616 767740
265 736699 164101
266 356075 280356
267 977544 216703
268 720328 721938
269 755756 169038
270 917205 286145
271 963699 211100
272 958833 229573
273 853655 580429
274 924337 266298
275 705869 761354
276 279509 286244
277 540643 367703
278 542196 351843
279 762262 753371
280 649016 153692
281 340854 198899
282 347466 313567
283 708963 -11065
284 686367 742220
285 729560 763997
286 555372 394511
287 938363 220244
288 705356 160436
289 529443 392348
290 319095 270616
291 737047 752039
292 865366 486155
293 333607 220900
294 379238 216109
295 974226 210566
296 733474 749490
297 726455 722111
298 602688 447424
299 714061 -2798
300 496730 352356
301 662727 724387
302 326860 210501
303 673548 31259
304 706079 785800
305 479568 361083
306 960274 263842
307 574549 411582
308 725221 709627
309 556526 423184
310 668193 721175
311 684678 99663
312 517355 375438
313 507425 341086
314 955243 213028
315 485269 342254
316 725463 51898
317 760991 723184
318 491585 425400
319 757940 760211
320 729834 72742
321 709249 843009
322 1001438 302663
323 971757 224524
324 758296 746281
325 485234 369167
326 691256 139185
327 683814 751111
328 690672 75229
329 968696 229726
330 837279 521298
331 377373 245429
332 825881 505906
333 507617 435129
334 961506 228662
335 545399 373628
336 954714 287444
337 501587 346076
338 654726 119634
339 465222 401433
340 668422 145619
341 832018 440804
342 510829 340731
343 512663 336472
344 333064 200308
345 382182 248622
346 873519 523693
347 550056 408879
348 608290 390338
349 617580 390317
350 332653 211881
351 711945 729805
352 703474 793236
353 768639 -5635
354 668561 107901
355 550833 432525
356 714043 -8282
357 670229 134166
358 537195 382187
359 316478 272466
360 593537 400706
361 748752 762075
362 850835 529120
363 733040 -22182
364 558180 395669
365 767843 773750
366 567057 391384
367 764965 777341
368 978294 234558
369 776046 753049
370 758769 739063
371 920289 280021
372 708516 782103
373 913775 234412
374 971301 223064
375 739120 748049
376 691146 66554
377 807285 571739
378 513080 380422
379 522691 439780
380 678714 53641
381 494160 364421
382 521869 406314
383 288370 211623
384 397320 196174
385 843307 485177
386 513822 354928
387 525131 337278
388 747529 748828
389 502406 370642
390 352229 187021
391 936046 265279
392 368038 260362
393 775973 71015
394 684865 34252
395 989154 242651
396 714558 778755
397 497377 387329
398 689701 725235
399 992160 250020
400 769164 775744
401 487572 318925
402 879541 333616
403 726936 34741
404 679523 790526
405 757381 -16431
406 769214 75747
407 388132 208966
408 742144 754910
409 950623 298351
410 626159 140359
411 865210 508284
412 712299 71853
413 466635 363745
414 846761 516441
415 722820 127036
416 372123 220858
417 700740 769049
418 583819 377624
419 352104 214115
420 348575 256171
421 805362 513477
422 691702 123111
423 314081 235771
424 936706 243131
425 741927 726480
426 712937 769579
427 340869 267205
428 713511 21411
429 680955 82069
430 687276 52778
431 747388 20586
432 770922 85350
433 508259 356041
434 753588 757587
435 692873 747309
436 730265 801681
437 705878 785450
438 507529 374265
439 530586 403342
440 719473 804516
441 733323 21367
442 496095 428179
443 745447 562392
444 550178 427492
445 700837 42856
446 697915 123559
447 345507 237162
448 824967 516658
449 950949 304271
450 526149 422361
451 735161 722692
452 811834 535081
453 733708 53271
454 468989 361994
455 722960 137608
456 290781 207532
457 701682 153391
458 770392 491887
459 756978 771937
460 693585 781446
461 1028859 236923
462 556944 397123
463 523616 321494
464 728048 25050
465 815620 481570
466 655939 102709
467 391797 209658
468 763439 706063
469 577913 395559
470 725889 13462
471 520597 322140
472 952194 224410
473 1047780 290038
474 971330 288806
475 956538 252273
476 724469 770628
477 458568 373860
478 491626 315619
479 514614 353330
480 512849 335598
481 769578 68132
482 339619 305723
483 549345 416394
484 733431 770614
485 785460 509008
486 532900 393262
487 446070 402425
488 723955 805020
489 652392 116298
490 639754 99391
491 727532 758071
492 755734 713009
493 837545 560053
494 921786 293895
495 772980 747203
496 559572 359861
497 369730 257451
498 707705 806453
499 754457 791924
500 828258 505998
501 651792 69428
502 755864 33556
503 740306 59760
504 695734 747325
505 719554 100448
506 805424 553154
507 484563 390540
508 590530 462052
509 706240 25849
510 318862 215545
511 631189 398944
512 704849 113195
513 746175 715161
514 702219 107360
515 951318 199705
516 1005440 216010
517 550185 416548
518 529179 372116
519 462224 396621
520 706118 750534
521 342986 214120
522 719154 747955
523 581811 418061
524 555514 413071
525 531346 406614
526 515231 424076
527 351489 234756
528 713640 136540
529 773029 560173
530 541790 408583
531 707860 751922
532 585510 420186
533 688399 38276
534 970657 240951
535 542210 391325
536 748440 757176
537 602520 88435
538 689302 794479
539 327969 269803
540 747269 2852
541 496064 346799
542 930047 191412
543 516861 363711
544 728846 39312
545 700892 799845
546 723271 824731
547 724115 769327
548 734625 784326
549 952217 273380
550 707892 734613
551 526679 413405
552 381373 219341
553 936696 252136
554 669412 765238
555 554296 359484
556 507441 385815
557 705974 122051
558 920834 303999
559 346442 249604
560 702358 122660
561 517317 392694
562 534778 348786
563 713308 758482
564 723003 739732
565 531620 419005
566 553371 353776
567 996241 237794
568 685872 146218
569 533193 436984
570 318744 258395
571 464653 386816
572 578020 448472
573 523849 304292
574 518777 341278
575 444910 327371
576 394584 237396
577 846377 576738
578 732983 44737
579 958645 284943
580 486616 361837
581 693210 9753
582 837558 497103
583 319324 260138
584 958925 272167
585 720113 775295
586 317135 241565
587 485865 369415
588 529891 424730
589 723160 823616
590 698930 774802
591 706459 69436
592 720943 744429
593 793562 501902
594 731500 745274
595 522103 359126
596 497752 358180
597 750402 748019
598 713466 47550
599 433123 406046
600 839179 470118
601 393595 199385
602 717823 766404
603 675824 773057
604 835540 534331
605 761145 762801
606 1005718 270192
607 716388 52412
608 529595 413407
609 755996 764507
610 991043 248652
611 1002487 293215
612 457084 341282
613 740805 689298
614 976119 277956
615 1024360 266134
616 656752 48116
617 856153 491941
618 705267 740216
619 446429 389270
620 708481 772752
621 782302 773684
622 468995 433690
623 373660 232592
624 707705 819859
625 723454 90992
626 714072 120208
627 691917 741585
628 710342 96387
629 695093 743346
630 675125 781598
631 977178 230882
632 716414 774737
633 738517 757579
634 799094 551380
635 809272 544558
636 827431 511058
637 566541 348852
638 568788 355169
639 700840 107563
640 415437 255010
641 741448 672466
642 703697 124572
643 631159 105812
644 678801 90868
645 376289 287158
646 757186 81770
647 602529 438930
648 495890 371001
649 819265 580803
650 714819 86198
651 674656 95299
652 739095 59211
653 530464 359579
654 797450 537513
655 621963 374138
656 833741 534336
657 566574 394770
658 749688 725820
659 955724 213068
660 723184 763718
661 545034 400818
662 341383 244412
663 714215 48773
664 470554 381435
665 656085 125309
666 865968 540693
667 751289 772663
668 507040 352828
669 836084 556241
670 681533 106670
671 492468 333576
672 533495 400694
673 700921 733312
674 466758 356545
675 355994 222064
676 756505 803588
677 763090 526582
678 906185 251889
679 689713 115400
680 532555 407652
681 480696 421539
682 806651 502275
683 388713 250425
684 716652 788357
685 701868 71726
686 464142 355860
687 760253 771823
688 478672 365422
689 708344 738166
690 503445 354967
691 515089 381210
692 732527 88101
693 694927 781745
694 694800 784828
695 686473 771251
696 524441 367631
697 583644 410534
698 303763 203192
699 483282 364063
700 640041 719603
701 801163 501500
702 979091 280940
703 471996 388090
704 489361 339656
705 677941 772985
706 261581 226693
707 542228 393641
708 490064 429953
709 744638 786699
710 346887 247462
711 513123 401597
712 822987 555396
713 709491 35805
714 723365 756872
715 949049 254381
716 532910 364601
717 659845 81254
718 502129 322204
719 522478 354410
720 898989 230916
721 671057 699630
722 736290 697722
723 518580 402807
724 828703 508906
725 719710 121103
726 956395 233262
727 986412 272498
728 757324 757832
729 495454 373121
730 732340 753264
731 938750 267450
732 369520 161117
733 682239 724857
734 712001 117517
735 964879 301254
736 551256 367253
737 753315 743144
738 716864 760689
739 805436 561020
740 741312 779928
741 742992 752444
742 522037 373762
743 504553 376387
744 324135 207464
745 513697 417100
746 656138 48119
747 575732 323658
748 974228 257718
749 846821 547234
750 993905 204593
751 751821 782269
752 497899 297000
753 694235 86991
754 574087 417317
755 696163 17440
756 482426 341316
757 350427 257366
758 385416 266265
759 712606 743078
760 946455 230940
761 479188 387847
762 705283 783133
763 738045 770960
764 820628 512011
765 716741 742848
766 334990 259271
767 501396 368486
768 463110 349289
769 534368 393332
770 693976 125063
771 346409 249115
772 637366 124078
773 498088 337737
774 709605 740427
775 516910 339568
776 739538 30019
777 484253 355054
778 726206 769952
779 552804 371676
780 475579 399673
781 846741 510131
782 319688 143190
783 696573 111091
784 720023 751979
785 531557 423994
786 976460 274657
787 669622 84514
788 712286 64158
789 734979 756113
790 612144 424920
791 539620 407783
792 768829 829439
793 756123 769808
794 581272 343327
795 974091 312434
796 703223 97736
797 973021 215355
798 710632 789910
799 808599 463109
800 356281 234624
801 888388 530457
802 542242 357759
803 473416 394645
804 571459 409742
805 522568 446200
806 760083 100325
807 679123 752608
808 677907 776310
809 722393 787751
810 237908 257220
811 726157 84578
812 696927 796586
813 957402 234580
814 705565 81511
815 648230 86921
816 627330 100460
817 479239 339331
818 517652 389841
819 324531 226354
820 375260 185880
821 961022 227749
822 526998 402681
823 748095 31184
824 896433 271305
825 923230 260517
826 958621 274812
827 433493 302347
828 484249 337606
829 664429 110641
830 757821 5712
831 935851 270260
832 561005 392735
833 529687 357241
834 754000 712470
835 708961 -4461
836 731802 714536
837 854936 533887
838 1007246 253902
839 725950 49378
840 713699 41393
841 528332 495457
842 824027 472509
843 508125 391553
844 603343 418705
845 522131 363112
846 849099 490496
847 763416 776327
848 717815 9787
849 461346 393282
850 577676 397550
851 553922 456635
852 616060 412749
853 737766 733377
854 794168 511252
855 306509 274157
856 638888 63077
857 783106 769751
858 461222 351692
859 816399 563494
860 714968 755660
861 705488 732331
862 339877 182692
863 814070 533125
864 627662 81921
865 309950 204914
866 329483 260448
867 620556 70277
868 515414 381003
869 700492 734539
870 726081 54823
871 495665 343813
872 528092 361669
873 720082 734346
874 516965 398480
875 474119 407260
876 726643 778417
877 494857 403805
878 811849 521549
879 565645 395742
880 723644 802309
881 829473 513915
882 959989 249451
883 534514 388450
884 837649 532584
885 952200 277618
886 508025 375247
887 742643 522624
888 518147 331084
889 800099 528199
890 977599 263854
891 954468 252079
892 740970 829475
893 962313 277491
894 732255 745837
895 640955 802973
896 960707 218649
897 430555 351449
898 365254 275505
899 1003966 298239
900 728084 -15829
901 819085 561182
902 836025 570819
903 465811 388304
904 521332 380924
905 378239 243433
906 708269 776718
907 805898 520360
908 473005 420529
909 734196 757098
910 804605 541152
911 550901 384897
912 718016 809085
913 674785 150052
914 492274 316168
915 772923 758415
916 798599 471407
917 729336 744528
918 755973 70365
919 822004 519121
920 699729 754882
921 467593 398966
922 711129 800406
923 664633 74555
924 703622 85749
925 330692 197176
926 773004 61000
927 750482 764613
928 664579 100078
929 300262 243336
930 487856 344693
931 260621 293688
932 731907 796780
933 704268 131622
934 719911 765974
935 700667 780356
936 718699 149866
937 791093 520812
938 725363 76485
939 708087 733656
940 849561 538451
941 527087 393075
942 276344 267904
943 760873 61988
944 516582 388827
945 668099 115395
946 555889 419656
947 538126 392537
948 546423 387069
949 699991 126653
950 712567 94547
951 708803 763491
952 732386 22072
953 456207 413613
954 911452 226719
955 743249 74263
956 709733 715344
957 745715 689150
958 664977 99542
959 953838 212874
960 285398 198314
961 784759 768775
962 713544 126228
963 749411 740370
964 939717 229352
965 490612 335882
966 712168 20606
967 604533 400973
968 344278 225475
969 607921 403831
970 731956 60839
971 569467 375464
972 908942 278703
973 701597 765193
974 327241 267557
975 688939 756767
976 334245 212205
977 990926 206702
978 668376 777780
979 707281 744210
980 675495 746612
981 662935 747649
982 508733 419635
983 559380 434051
984 720862 40304
985 685852 36838
986 524785 399521
987 501692 385037
988 576047 448942
989 725564 54286
990 454817 360905
991 472140 400180
992 800252 451737
993 679991 145598
994 984291 261074
995 999474 277338
996 864491 482411
997 597631 415671
998 497939 377922
999 337651 239781
1000 742192 701423
