NAME : portcgen-1400-1409
COMMENT : portcgen N=1400, seed=1409
TYPE : TSP
DIMENSION : 1400
EDGE_WEIGHT_TYPE : EUC_2D
NODE_COORD_SECTION
1 125822 771215
2 890421 975726
3 869212 568109
4 864788 978218
5 519784 936712
6 554547 209430
7 536859 314729
8 50173 853186
9 967043 683008
10 476733 904126
11 532750 922849
12 95286 772955
13 406731 57769
14 20676 778394
15 411864 46338
16 533740 899822
17 602081 197395
18 909219 745613
19 406227 993474
20 517023 939122
21 557925 309699
22 306086 88870
23 845443 549349
24 519657 950365
25 924407 653532
26 885998 765678
27 19968 798846
28 421942 63236
29 559854 193635
30 39229 852198
31 383003 61381
32 361254 162779
33 374287 928583
34 427894 110114
35 569157 205056
36 903473 679702
37 318102 71373
38 78591 786689
39 451935 226598
40 558875 145462
41 403584 960411
42 904097 651102
43 565568 267277
44 834940 953104
45 915847 753781
46 556604 266003
47 393472 79829
48 106179 878336
49 703438 395744
50 583935 329765
51 415775 166660
52 866551 785961
53 390165 175459
54 334314 978675
55 891519 958397
56 21147 864971
57 537676 878344
58 465930 110509
59 357521 213834
60 323069 81592
61 888530 689602
62 473871 96413
63 500289 907780
64 355443 180453
65 443233 220652
66 392436 190422
67 480362 865569
68 688918 403018
69 972591 674974
70 858703 539525
71 917309 723566
72 804831 565117
73 709561 429417
74 437411 156988
75 558918 180714
76 889685 741955
77 938258 631837
78 944036 699323
79 25545 842801
80 821538 989835
81 894623 711587
82 365965 986534
83 928792 731920
84 561118 314398
85 584748 278153
86 817899 907893
87 910711 671878
88 366745 155312
89 333632 46134
90 893760 706513
91 461044 88473
92 137886 756786
93 883697 1016545
94 580238 204173
95 354976 931501
96 146760 746067
97 530164 290732
98 910788 630037
99 321935 60012
100 6869 809099
101 539259 270551
102 427832 63325
103 719165 427857
104 83076 817925
105 915946 685382
106 464348 900202
107 80607 714175
108 320040 72719
109 862613 572269
110 446674 88561
111 902478 969136
112 853165 541549
113 420316 215703
114 715829 391805
115 540586 929218
116 76193 777807
117 822033 948206
118 571901 262481
119 850471 984127
120 894182 733368
121 945844 675078
122 27932 835063
123 588257 249400
124 600635 221083
125 329859 47440
126 19653 830545
127 82569 767606
128 570691 332778
129 916763 636007
130 594349 172025
131 364227 931470
132 14640 893166
133 693752 396789
134 423569 89325
135 45018 846795
136 578544 233447
137 921955 713442
138 554319 200112
139 565243 155350
140 822065 562311
141 720368 397265
142 619603 228407
143 639601 197488
144 565630 221829
145 949975 651563
146 340677 117551
147 99044 790584
148 433296 135748
149 953225 735126
150 436610 50772
151 934716 745296
152 403570 75018
153 119476 803223
154 573743 201367
155 908047 752529
156 868436 683237
157 11160 815337
158 888541 717709
159 942465 704622
160 554592 331289
161 932125 644139
162 91812 829101
163 847493 964075
164 921597 701951
165 769173 539661
166 104860 810417
167 730696 394113
168 824507 920519
169 535957 288757
170 851977 627576
171 572680 272269
172 908060 730001
173 438789 108297
174 540826 905638
175 336522 47520
176 439499 57649
177 879042 910384
178 378151 190780
179 71907 840838
180 400839 111902
181 889120 699445
182 399816 110837
183 384553 915948
184 919319 727570
185 607160 255038
186 949278 737352
187 977858 712682
188 340444 873571
189 440380 67662
190 323517 85314
191 736894 452129
192 425789 63219
193 462441 204526
194 399879 948574
195 603924 180023
196 395544 102066
197 905018 668009
198 501528 884977
199 900248 681140
200 877121 691131
201 19135 873051
202 891591 741480
203 382037 7120
204 364899 948686
205 830476 501474
206 393059 213904
207 443734 227962
208 842741 995615
209 974576 656053
210 569748 261719
211 546449 892605
212 653305 406326
213 125262 782427
214 946064 681518
215 683754 422657
216 741587 537516
217 363726 72239
218 315857 50633
219 125735 801644
220 76657 811866
221 163089 804237
222 849990 1010305
223 500726 887374
224 885359 707093
225 546774 306226
226 353884 961836
227 411438 196768
228 62397 826595
229 905115 741569
230 962651 664355
231 412697 947978
232 541091 193372
233 817047 571449
234 86868 847370
235 351343 28445
236 429159 926067
237 844630 964336
238 354722 72929
239 412657 962474
240 390047 62954
241 867587 595777
242 574424 290654
243 61596 830436
244 355638 906790
245 534817 945944
246 842912 538012
247 855632 926254
248 839276 576900
249 921205 616356
250 488641 912718
251 844422 963249
252 589534 136079
253 75969 791823
254 430798 126822
255 681387 408572
256 818807 556864
257 548637 283630
258 813480 921289
259 707438 409715
260 84686 861641
261 914027 631188
262 559302 173198
263 63396 756132
264 933858 645245
265 864373 715962
266 719132 436271
267 835097 535361
268 129957 782941
269 332582 67947
270 414275 908497
271 44649 791721
272 547950 266544
273 395674 208967
274 841183 574841
275 593670 221399
276 519850 915570
277 536241 319383
278 512312 899422
279 338596 35434
280 609985 350188
281 849787 546886
282 420953 121022
283 454479 34274
284 481332 943726
285 443302 15696
286 373308 961641
287 648334 386846
288 574461 270135
289 88518 735657
290 142131 781636
291 425204 86297
292 826739 595637
293 380686 944952
294 602506 338724
295 621124 291498
296 508283 937854
297 143665 778154
298 821211 559252
299 966013 609319
300 381299 61587
301 325941 86311
302 567131 203900
303 115737 804675
304 886423 983333
305 537129 928351
306 348523 4643
307 919745 750227
308 378515 949315
309 391570 178786
310 26171 826467
311 524203 895568
312 723348 360934
313 439732 73163
314 918121 714202
315 403668 54885
316 930296 736387
317 405041 899821
318 836012 954704
319 533819 291606
320 950029 692187
321 559341 286889
322 410301 193759
323 464831 67260
324 961911 675540
325 577018 915954
326 846648 523540
327 624433 332076
328 948012 682056
329 360359 48077
330 536852 928722
331 824032 981477
332 874761 926012
333 851123 940310
334 701488 360215
335 766632 590699
336 471694 938534
337 312128 34869
338 -2455 877555
339 516569 204988
340 412292 190913
341 450309 100673
342 853462 1004080
343 919435 689241
344 344738 28170
345 869873 939948
346 603090 174832
347 583411 889060
348 563688 284680
349 122296 823856
350 392998 42389
351 329828 36631
352 861660 960425
353 421709 951407
354 409829 928080
355 412362 940748
356 547801 883005
357 522326 927164
358 611358 310182
359 897816 714403
360 522421 246559
361 799051 521463
362 372231 191804
363 357322 59534
364 865504 742904
365 537885 325158
366 953467 948651
367 519384 958495
368 61374 859907
369 557683 322679
370 433946 114077
371 543523 336994
372 386292 41456
373 149314 778569
374 423432 75322
375 912184 653393
376 685394 393637
377 661022 392688
378 35287 832715
379 579752 186306
380 814693 592652
381 848156 477562
382 500245 978189
383 422128 50250
384 120794 767346
385 359567 937257
386 98078 740800
387 439455 60471
388 905522 724267
389 917556 747822
390 875680 975876
391 533300 966669
392 422191 102974
393 531461 284562
394 863173 714298
395 491764 933812
396 906373 693641
397 359985 967227
398 854153 565719
399 141934 730884
400 135572 759702
401 920930 656163
402 555323 331234
403 383646 201919
404 442620 189410
405 430468 102765
406 720662 388276
407 540743 943950
408 26864 798813
409 367508 939610
410 430432 911847
411 430286 127878
412 879687 963030
413 902333 735021
414 947199 673282
415 441851 106007
416 111398 778016
417 846176 908046
418 331072 67298
419 887457 954504
420 36121 902623
421 299302 44781
422 831767 583173
423 428742 152998
424 931166 640186
425 604622 207834
426 890272 680001
427 557137 336273
428 566511 277014
429 500793 912648
430 427847 197154
431 888353 727066
432 932090 713876
433 435968 940729
434 950726 686438
435 420252 1002981
436 446638 174005
437 46767 806010
438 47423 872381
439 505049 277072
440 522150 902894
441 924695 633585
442 401587 227225
443 362025 916206
444 383487 175055
445 531004 943561
446 400608 960756
447 674176 354482
448 328782 6124
449 385540 921148
450 718670 401013
451 492751 924167
452 397959 167339
453 548713 199911
454 584737 191584
455 100556 841433
456 719808 385620
457 850154 958548
458 43673 845526
459 919566 716361
460 833285 510691
461 102422 746311
462 838362 510932
463 868653 713032
464 338831 981821
465 549791 922071
466 932822 707433
467 387624 172670
468 541326 974099
469 821049 935759
470 458115 38215
471 880662 924347
472 412919 94431
473 720180 365376
474 948427 694826
475 842721 535125
476 63416 866653
477 376883 888464
478 737621 397645
479 541782 339385
480 598053 212935
481 578236 193482
482 413676 896715
483 855597 537586
484 677710 381398
485 607063 182845
486 391965 215790
487 550428 190107
488 385099 91259
489 364707 54501
490 41353 845041
491 435172 197004
492 578266 228234
493 563310 282002
494 380037 923975
495 453608 114493
496 852272 929674
497 869244 711262
498 599799 298854
499 554526 295703
500 393732 199426
501 889259 949721
502 406138 973592
503 135448 792199
504 150765 737142
505 386856 943670
506 450353 82152
507 101143 765148
508 551731 283492
509 38693 880187
510 956785 623040
511 428700 73364
512 684770 414527
513 361012 64667
514 836096 931224
515 141022 773714
516 874967 973152
517 853163 952306
518 551321 313233
519 513413 948073
520 35688 825385
521 526952 309281
522 517008 948822
523 914987 1009678
524 374542 96313
525 934806 668253
526 890085 584447
527 912871 645848
528 559993 181371
529 377859 929738
530 337687 911999
531 162461 805073
532 49237 898693
533 535810 338335
534 878336 727884
535 458762 158187
536 850545 635499
537 693144 355977
538 813400 587571
539 632878 297625
540 321467 62690
541 482202 122408
542 961984 684716
543 429832 44851
544 648502 409545
545 469009 64867
546 94888 758244
547 422748 155623
548 932829 636097
549 3030 896379
550 954520 669339
551 527160 934163
552 897836 735842
553 313190 27939
554 975275 634263
555 918382 702485
556 849648 600257
557 569589 321025
558 385805 32942
559 512797 916520
560 30988 856674
561 932176 677441
562 776720 562793
563 406103 217234
564 326975 21313
565 544835 310676
566 954097 698151
567 796889 544734
568 55749 836327
569 668697 460847
570 580756 189278
571 356690 31780
572 509190 915972
573 946130 728777
574 556852 299935
575 842166 532945
576 839200 598935
577 568707 201685
578 411091 940187
579 398988 972234
580 402017 928144
581 916337 717106
582 149591 800440
583 89465 773061
584 315715 83596
585 472896 55653
586 844645 974769
587 359900 157982
588 576498 208048
589 803351 543591
590 804363 491777
591 591807 317406
592 903034 739964
593 594137 218509
594 953815 714601
595 605459 212806
596 830736 927518
597 518573 878152
598 90873 757991
599 930686 713621
600 353831 60099
601 903401 983416
602 815465 574315
603 572394 215197
604 443077 76108
605 435260 178799
606 886339 717461
607 875187 757041
608 364141 936854
609 144392 756222
610 61549 825377
611 896094 749593
612 423465 120179
613 422913 113953
614 429145 191730
615 937021 663347
616 617362 234946
617 130812 724790
618 545312 316792
619 843414 931886
620 899606 755224
621 526380 931873
622 608690 190007
623 108060 796001
624 870088 956382
625 55334 810708
626 157060 802231
627 350782 972801
628 919223 735058
629 826686 958080
630 196463 798407
631 59087 834669
632 724901 353523
633 129837 786619
634 598464 308605
635 133046 778247
636 549978 213885
637 729684 394223
638 408562 169167
639 409673 160627
640 585774 280965
641 324437 931365
642 406970 217106
643 61605 837005
644 524719 961256
645 923270 710583
646 45274 840548
647 928471 737504
648 73989 826257
649 833121 506424
650 357121 63300
651 366650 160962
652 23771 806867
653 577802 333275
654 61779 884906
655 965553 694577
656 723105 403976
657 542729 888628
658 433176 95284
659 808030 566888
660 476233 946838
661 48754 842943
662 562465 196106
663 429384 189570
664 580887 175734
665 954872 644536
666 343320 186912
667 119688 799294
668 953874 662885
669 829061 605083
670 521766 935098
671 388231 205257
672 834844 938281
673 683339 351711
674 585234 319630
675 815556 548701
676 571074 193957
677 583411 340622
678 361029 201617
679 909599 754626
680 104591 832355
681 465470 97322
682 512283 936016
683 133348 780182
684 96434 764112
685 433172 257748
686 396078 951149
687 560320 187385
688 55697 837482
689 612451 195713
690 70034 803237
691 725438 381042
692 413132 170477
693 470097 69363
694 492087 893374
695 342387 64889
696 576757 183057
697 20092 855083
698 520584 893963
699 562078 908590
700 478584 29837
701 554144 909221
702 535321 186908
703 927174 721975
704 342013 44889
705 536038 200173
706 795202 516757
707 302737 47107
708 896668 627992
709 842962 563020
710 585051 310412
711 443743 84339
712 678463 391743
713 313684 55303
714 365365 35386
715 429888 195211
716 346043 33774
717 930021 723459
718 334527 54892
719 431404 43179
720 58185 852982
721 948866 654903
722 842349 547190
723 354260 36830
724 685479 377875
725 628016 389424
726 73274 872397
727 986128 662524
728 113847 772930
729 542349 934036
730 851016 591810
731 739675 379450
732 883117 920006
733 922492 663024
734 870381 950050
735 957266 674816
736 42956 802268
737 826863 577700
738 795992 568898
739 100831 771486
740 451520 72899
741 430842 155545
742 118068 810380
743 488955 306334
744 602065 280920
745 820307 545390
746 395506 74674
747 443243 116425
748 871780 970491
749 477766 60049
750 412529 152415
751 897414 668926
752 499603 880424
753 862408 921561
754 972061 690599
755 721797 376498
756 874536 752208
757 867113 562029
758 71671 822206
759 830667 540727
760 829521 551269
761 444686 75808
762 781024 541991
763 530293 893021
764 428811 118340
765 436464 68690
766 352859 969340
767 23926 868670
768 356382 46433
769 876680 926924
770 906001 700007
771 904847 695745
772 80487 824793
773 403150 924605
774 307210 34839
775 434607 46258
776 385256 197491
777 677539 416213
778 793534 938414
779 773555 533668
780 884001 898048
781 823711 553562
782 57716 869084
783 637976 233625
784 333823 93489
785 429967 171157
786 436398 179116
787 395189 940689
788 56066 859825
789 341252 33646
790 957790 679051
791 49375 843709
792 666564 359687
793 337013 69101
794 55621 818983
795 583559 226556
796 586781 293716
797 126723 766445
798 929059 724690
799 920590 720468
800 908680 721243
801 46991 900047
802 851771 921413
803 44850 896362
804 990578 664915
805 187655 761927
806 839556 960788
807 439120 46895
808 703246 427397
809 858245 929988
810 378120 153282
811 434418 185036
812 892211 720648
813 410871 70561
814 335557 40903
815 423047 99349
816 361821 975255
817 528195 341113
818 829861 939803
819 460237 129320
820 341874 22691
821 585464 923795
822 121558 846181
823 870415 936570
824 45825 842250
825 397914 938289
826 490972 350197
827 107542 796830
828 56335 865763
829 117546 786054
830 915234 632480
831 30920 842410
832 819619 608950
833 140812 750049
834 915979 664207
835 443675 203571
836 424464 168625
837 424857 175879
838 426233 181819
839 380287 185473
840 433943 96471
841 865077 602055
842 359663 16843
843 915943 660633
844 581548 212435
845 713536 379173
846 947139 667564
847 558581 934100
848 890873 676732
849 338546 20664
850 902466 702674
851 679454 381093
852 547601 288127
853 684160 375901
854 900123 699014
855 891078 1005524
856 439156 216201
857 456693 32463
858 836458 555091
859 376706 952264
860 382558 911708
861 399019 77689
862 367194 49204
863 65618 861808
864 73433 779032
865 596162 319157
866 974291 683802
867 539186 947860
868 367264 191201
869 540772 903077
870 836605 542796
871 391175 213739
872 566886 295731
873 566363 317968
874 630097 235758
875 964081 735570
876 898422 544589
877 565674 295768
878 475469 958093
879 139580 780590
880 406692 94820
881 511295 913142
882 591226 202254
883 532114 967469
884 607949 250318
885 845490 935515
886 362216 943405
887 553870 187068
888 418590 221507
889 608797 333260
890 977379 668140
891 712287 355313
892 597557 207396
893 424500 928890
894 859908 953283
895 585020 297029
896 933518 723531
897 581722 291937
898 473984 48054
899 320429 56849
900 794970 581642
901 566437 184642
902 31018 829775
903 52878 840758
904 574846 177425
905 438860 89099
906 130561 788109
907 605851 206702
908 18741 820385
909 807717 554686
910 404189 941050
911 670914 390928
912 498265 66792
913 835406 542571
914 544824 322665
915 851416 573926
916 130307 761831
917 537190 913165
918 944581 754584
919 568297 215357
920 153911 795393
921 135825 733263
922 59810 843891
923 545856 892291
924 460753 106760
925 657515 377189
926 419082 929207
927 502893 923779
928 585551 300123
929 309281 56054
930 435174 87265
931 561931 256190
932 387314 52359
933 147976 769353
934 837104 997827
935 847456 566469
936 574507 309777
937 960529 653107
938 814717 542310
939 341236 41919
940 304592 60983
941 322734 65477
942 916132 689874
943 50663 829176
944 863146 559428
945 377388 15142
946 505055 911896
947 699540 350322
948 64896 730835
949 662265 409995
950 564488 304142
951 439573 152161
952 584585 197635
953 569135 364528
954 847667 542704
955 637164 215306
956 579394 198571
957 93006 780679
958 92579 840028
959 518012 334417
960 854389 969196
961 609358 292096
962 940576 703131
963 833473 977540
964 47123 815725
965 493458 912886
966 361075 922982
967 677722 409510
968 413415 90636
969 785072 513261
970 859198 746525
971 571340 218119
972 530978 945233
973 54483 783433
974 156208 763819
975 550570 328606
976 391088 919244
977 470521 89627
978 570421 279023
979 375970 205934
980 611914 181103
981 86592 791615
982 566945 223596
983 704576 400514
984 699806 420091
985 406825 83621
986 549890 916442
987 448761 115713
988 333196 3332
989 386776 857610
990 149360 765088
991 583296 320047
992 896771 920074
993 445377 75657
994 932296 620151
995 896390 696759
996 419225 140976
997 395604 909523
998 840349 958085
999 565086 182757
1000 54052 822552
1001 392205 102804
1002 843652 558492
1003 362719 90178
1004 707716 417392
1005 953103 630880
1006 688493 435154
1007 921632 678825
1008 847704 936932
1009 823355 544593
1010 894245 762787
1011 407967 81948
1012 425961 78458
1013 560594 208147
1014 542615 288383
1015 573703 180858
1016 44182 858628
1017 973202 666647
1018 903767 569325
1019 537833 956072
1020 969116 669405
1021 60633 755240
1022 879280 955611
1023 876194 727239
1024 706710 398136
1025 799000 544935
1026 559452 920527
1027 364305 197561
1028 367456 8149
1029 74640 832412
1030 411807 193830
1031 598359 311822
1032 76038 807104
1033 706405 389459
1034 547181 908223
1035 855837 988826
1036 727004 440174
1037 726590 414815
1038 597850 291041
1039 52843 850878
1040 895402 709027
1041 529400 332418
1042 380521 169816
1043 492131 47511
1044 437489 86867
1045 682163 388132
1046 798660 571306
1047 907266 683001
1048 382928 86902
1049 380501 949767
1050 438996 162229
1051 663844 354259
1052 696011 404750
1053 448599 43562
1054 58486 815522
1055 469950 83222
1056 499472 856449
1057 424765 173849
1058 543370 321460
1059 935136 688729
1060 925213 725333
1061 557885 192637
1062 393644 944108
1063 914479 747000
1064 385924 919746
1065 89867 771104
1066 979101 696052
1067 407736 950156
1068 896235 988512
1069 34475 816846
1070 558787 945466
1071 601254 181358
1072 44606 865193
1073 585562 325716
1074 560247 911404
1075 746133 372978
1076 414505 122069
1077 424371 193937
1078 543857 924029
1079 860509 927043
1080 561742 293436
1081 886090 729627
1082 954397 724849
1083 404741 194059
1084 575190 170961
1085 869655 574282
1086 160582 772021
1087 608425 372695
1088 933858 685637
1089 906848 693678
1090 542566 325159
1091 902432 692534
1092 935991 665198
1093 563604 316798
1094 97525 731571
1095 462069 36690
1096 970515 707192
1097 557742 946677
1098 360671 51255
1099 468921 90503
1100 591056 277580
1101 801390 912056
1102 916094 659560
1103 390532 968476
1104 433594 66408
1105 834288 564494
1106 450724 67139
1107 880042 770547
1108 848264 577426
1109 132438 802488
1110 25272 788954
1111 393903 194698
1112 405640 78592
1113 850384 927760
1114 916460 718806
1115 342286 24314
1116 925276 671119
1117 569502 199707
1118 546691 162255
1119 823314 535168
1120 292073 30730
1121 690831 391664
1122 422424 904382
1123 417578 957060
1124 353962 8843
1125 976512 677039
1126 316221 12562
1127 692501 374373
1128 41718 854105
1129 406921 888576
1130 882872 976022
1131 907848 708065
1132 409746 184618
1133 695706 380586
1134 101475 781186
1135 107918 735402
1136 854422 935578
1137 675191 391157
1138 544629 286539
1139 359731 83518
1140 920247 700177
1141 381259 90128
1142 900894 745816
1143 306147 33670
1144 329357 77152
1145 732411 390464
1146 441398 83400
1147 819207 579643
1148 538301 283681
1149 403473 915742
1150 916338 731147
1151 429085 177774
1152 675200 392366
1153 542486 314203
1154 876846 974408
1155 839253 507777
1156 889455 984845
1157 910971 663624
1158 491342 905274
1159 460304 88669
1160 535166 349754
1161 888718 747966
1162 930305 645879
1163 442605 162772
1164 415277 138803
1165 121334 788090
1166 380082 947511
1167 574011 180377
1168 942210 640156
1169 337850 27048
1170 47765 859977
1171 580381 324003
1172 471809 181870
1173 611742 210835
1174 579142 186895
1175 844802 540318
1176 409806 161374
1177 934085 720867
1178 802585 607655
1179 392051 -9056
1180 569221 222253
1181 597685 187251
1182 596078 289098
1183 473654 171998
1184 529583 927081
1185 859953 503887
1186 850354 904038
1187 912972 695616
1188 667548 433930
1189 404132 173402
1190 832167 562153
1191 614072 176272
1192 556884 209785
1193 300859 87393
1194 383324 171210
1195 421305 52829
1196 75307 766029
1197 696915 441393
1198 538449 203299
1199 310455 80882
1200 61075 812328
1201 606738 194391
1202 333060 29221
1203 874703 583319
1204 394347 73758
1205 559960 340756
1206 879777 716428
1207 672792 384693
1208 665430 377108
1209 120291 800754
1210 922504 690771
1211 60122 844843
1212 363508 971681
1213 834175 530384
1214 578946 212166
1215 881834 740481
1216 839096 559333
1217 566556 144226
1218 537462 893820
1219 140060 745507
1220 910627 733730
1221 381958 25102
1222 44245 816638
1223 631537 253732
1224 39106 853902
1225 583913 257440
1226 844781 936323
1227 300025 68475
1228 47171 869481
1229 297305 34197
1230 368903 945029
1231 387043 929713
1232 871227 572483
1233 866370 566781
1234 672548 372978
1235 940770 728585
1236 556769 195188
1237 813251 553797
1238 647282 355373
1239 920909 699622
1240 530738 868123
1241 942285 697730
1242 612542 335443
1243 591516 258721
1244 330613 8496
1245 420059 145652
1246 910687 701742
1247 580464 289894
1248 890933 738015
1249 977154 620351
1250 49121 879152
1251 930665 659719
1252 542517 297349
1253 395608 125297
1254 834772 542202
1255 710259 413059
1256 868502 565627
1257 109691 797938
1258 544922 939686
1259 91554 894901
1260 131572 750128
1261 722276 419539
1262 295590 -270
1263 710495 390219
1264 508517 922383
1265 554566 916787
1266 62085 751684
1267 671001 429698
1268 623919 198748
1269 702091 419113
1270 568483 221031
1271 972905 688218
1272 688820 388820
1273 280511 18392
1274 847568 575713
1275 372026 931106
1276 944292 647984
1277 559023 275404
1278 464362 42817
1279 719637 440110
1280 454845 54636
1281 542881 887970
1282 951932 689999
1283 794207 524207
1284 962793 695286
1285 567111 339696
1286 342227 58972
1287 482715 905435
1288 396852 195291
1289 124480 735394
1290 915564 640156
1291 698389 387841
1292 927909 771809
1293 945885 741624
1294 443947 169120
1295 442763 178692
1296 953285 644110
1297 531527 910471
1298 909251 662769
1299 576731 224146
1300 961704 643476
1301 469911 53798
1302 851449 531044
1303 862008 711089
1304 922661 682949
1305 587402 313027
1306 425519 80910
1307 137376 803850
1308 947117 663878
1309 933699 753502
1310 816871 543655
1311 831260 551994
1312 574143 362825
1313 810224 598244
1314 528524 890774
1315 357664 934364
1316 590536 252659
1317 891085 663774
1318 324836 35829
1319 562380 330529
1320 66074 843406
1321 553289 288121
1322 446195 138537
1323 428312 62219
1324 605961 196924
1325 679273 441263
1326 560038 194859
1327 390637 949572
1328 898014 716291
1329 412994 71960
1330 93895 875765
1331 377225 51426
1332 845333 943409
1333 904066 551891
1334 954377 692638
1335 963932 708371
1336 641538 441981
1337 951087 656696
1338 796722 531983
1339 446666 151596
1340 457819 68009
1341 707259 395898
1342 909009 720965
1343 347104 924817
1344 606753 323209
1345 55098 877656
1346 568273 196729
1347 812604 591700
1348 538448 962047
1349 875802 923161
1350 896042 725043
1351 584731 201791
1352 843485 555493
1353 573835 275651
1354 562576 308952
1355 962044 684226
1356 884520 715792
1357 807877 548120
1358 399065 150340
1359 410244 955318
1360 686901 384175
1361 588800 296303
1362 129143 777106
1363 126530 795832
1364 325103 55195
1365 571078 232433
1366 925567 676145
1367 545719 900824
1368 607665 180951
1369 900007 734827
1370 128439 758250
1371 871446 701371
1372 931932 731339
1373 854701 932872
1374 566438 289012
1375 69931 826573
1376 909636 713096
1377 343784 158262
1378 966672 604500
1379 417209 112454
1380 86151 750702
1381 933566 713994
1382 450487 117976
1383 599105 203655
1384 929587 646550
1385 539793 908447
1386 16390 834721
1387 435471 104127
1388 873199 691775
1389 921686 777493
1390 581259 238683
1391 563317 305942
1392 552335 880679
1393 831777 982671
1394 697119 425431
1395 869532 937854
1396 416596 77261
1397 884347 982901
1398 76246 805383
1399 545653 317137
1400 402345 126179
