NAME : portcgen-600-602
COMMENT : portcgen N=600, seed=602
TYPE : TSP
DIMENSION : 600
EDGE_WEIGHT_TYPE : EUC_2D
NODE_COORD_SECTION
1 297328 250340
2 382341 488232
3 123175 531326
4 888626 92409
5 244176 221087
6 212135 875629
7 881334 37665
8 269479 858792
9 112329 524985
10 126668 435389
11 142339 438189
12 411477 219839
13 85134 446407
14 364156 549964
15 419792 515931
16 525434 507306
17 393212 190259
18 60604 487752
19 76121 154176
20 157945 216978
21 856964 99441
22 355131 215205
23 396355 507556
24 921110 41764
25 287883 856576
26 424108 502372
27 306072 822362
28 223064 123748
29 415646 490437
30 955746 32419
31 910277 25145
32 52938 411764
33 82568 417497
34 177409 202717
35 84446 166392
36 383466 424319
37 86890 521045
38 -3268 459296
39 345203 262856
40 475792 472320
41 908523 -60695
42 861120 -4996
43 957880 20869
44 398888 242332
45 265437 897619
46 394133 194383
47 160092 166853
48 126227 201486
49 94089 244785
50 122482 458970
51 472591 516147
52 60339 563517
53 853009 68181
54 205775 805901
55 156687 549063
56 311219 840649
57 843487 -2014
58 103913 536061
59 943857 19253
60 294675 862837
61 114367 447150
62 388587 169272
63 280511 880302
64 258170 828195
65 365132 481240
66 375320 256541
67 119542 493197
68 328148 809613
69 377837 198467
70 321127 290389
71 351059 912802
72 435885 485488
73 168900 149125
74 223011 205731
75 387757 412790
76 257767 881900
77 329128 837612
78 117240 66316
79 121644 121089
80 335975 288781
81 148735 210276
82 128835 159657
83 925066 94852
84 305512 798956
85 312559 190775
86 203394 202616
87 381638 480195
88 332087 156217
89 78882 484777
90 133911 507743
91 166865 211592
92 300124 876519
93 127405 425010
94 358608 504854
95 307347 848005
96 278101 839654
97 155867 158997
98 218356 818751
99 395404 254367
100 310105 237943
101 395697 495287
102 92540 523004
103 942228 123078
104 295870 820514
105 43673 533645
106 214312 137652
107 850446 2784
108 352759 179558
109 162605 151242
110 305465 856355
111 863983 -6987
112 343253 331310
113 413771 490227
114 137235 174172
115 120781 169668
116 349666 798553
117 915174 112306
118 108225 500530
119 220512 103521
120 192257 141536
121 876920 61716
122 153306 156292
123 977842 31684
124 486911 178830
125 299995 840431
126 322822 219230
127 347723 208123
128 348131 502182
129 360751 892598
130 98222 140253
131 138072 504225
132 41403 414869
133 48226 448757
134 893279 68976
135 369465 191092
136 397492 498887
137 63365 395453
138 854548 51194
139 1000133 84360
140 448635 436723
141 300375 850257
142 83898 505068
143 949112 14934
144 271041 954088
145 398974 164351
146 379793 185758
147 829815 41311
148 141230 470931
149 479535 509170
150 230407 842100
151 193969 163996
152 305633 149691
153 261315 833136
154 126019 238841
155 913569 92344
156 952110 73788
157 891594 66789
158 364578 156714
159 422669 495414
160 275499 797027
161 396895 499991
162 380628 462032
163 39217 497165
164 136458 138823
165 407463 500105
166 110223 520896
167 376060 235253
168 143295 430813
169 172269 176972
170 188333 116895
171 350774 239276
172 324291 266306
173 917857 90662
174 163561 150604
175 914327 -10990
176 390979 502750
177 288511 204415
178 443028 263144
179 356621 498399
180 380336 147379
181 217048 830529
182 401886 236100
183 908287 39651
184 109261 412078
185 170823 173816
186 207140 79063
187 98696 445948
188 117685 206699
189 44791 495874
190 467105 523696
191 311219 251059
192 143306 169084
193 349692 164462
194 96368 486161
195 121081 194196
196 134647 141981
197 211270 809058
198 453413 442393
199 271903 863775
200 907499 12864
201 382297 212510
202 166934 165609
203 312552 823593
204 289043 208336
205 73587 509772
206 900486 47669
207 899649 43422
208 256483 834762
209 303655 903240
210 382409 168178
211 168947 460957
212 425978 198142
213 340240 865633
214 300485 209816
215 89006 438943
216 186656 452798
217 839127 -76436
218 363494 156012
219 99767 473471
220 343628 615931
221 859532 15866
222 897503 92382
223 292337 311287
224 421430 238358
225 121568 489749
226 38255 482549
227 380300 215493
228 469243 595433
229 132540 137092
230 103666 531207
231 928450 44941
232 190702 195437
233 111949 415251
234 247777 127245
235 264349 785467
236 257431 829475
237 115868 449384
238 86740 163679
239 136032 180697
240 414533 508850
241 189284 175780
242 914978 90014
243 134797 422536
244 338728 210387
245 307298 830744
246 504247 505334
247 162922 113366
248 301642 852469
249 141857 447781
250 272397 851375
251 395410 485401
252 202308 120343
253 416639 524824
254 403142 524588
255 107656 224118
256 294126 794616
257 154543 489701
258 362929 586766
259 883355 45650
260 909585 30888
261 360351 584734
262 370828 532905
263 342319 211681
264 26808 440696
265 338670 851387
266 114087 564738
267 307760 888274
268 312921 909583
269 331875 841243
270 183871 144271
271 299255 884113
272 498138 494595
273 302876 223176
274 392256 452672
275 387655 228835
276 915434 -34873
277 353443 185047
278 153114 171919
279 257374 826172
280 316449 878958
281 358153 450559
282 164049 159299
283 380204 464500
284 297925 473837
285 267101 936184
286 41349 505190
287 186769 131180
288 156630 108441
289 459028 505399
290 90746 462489
291 299217 554359
292 900588 3317
293 397121 490331
294 794916 1045
295 155607 220477
296 257073 846066
297 122811 153022
298 908085 4597
299 363916 458999
300 871123 92437
301 281186 868614
302 433267 461128
303 840305 111906
304 266457 909089
305 375730 531701
306 155588 481763
307 330515 277212
308 946872 63552
309 921507 81709
310 101050 429989
311 118756 190435
312 132447 125810
313 295103 848566
314 922199 -8004
315 404133 185717
316 59358 514699
317 131482 106350
318 952201 23065
319 387528 550768
320 290841 836108
321 319807 913337
322 828965 58176
323 395248 498144
324 384336 554623
325 355325 206152
326 95641 479213
327 524802 516880
328 851109 33438
329 497275 561314
330 938202 38894
331 384002 777857
332 290240 896351
333 873209 75491
334 387665 214657
335 180405 202351
336 880785 -22182
337 119447 139821
338 369275 293851
339 425830 210187
340 235269 904445
341 235755 869549
342 336221 231710
343 921991 22835
344 165068 446078
345 369975 216042
346 166740 464783
347 144068 72868
348 864063 73602
349 860741 2570
350 292583 881289
351 99547 477317
352 288257 860009
353 414472 230410
354 318046 880140
355 425952 474585
356 410113 538187
357 26116 384339
358 325788 241618
359 192676 83411
360 880486 71649
361 378999 497729
362 901278 8917
363 317556 843385
364 266220 858402
365 445109 443211
366 391918 222220
367 172514 149788
368 895523 82503
369 269976 902048
370 280357 881233
371 323734 436298
372 407309 512681
373 328313 227413
374 374530 532471
375 885957 22675
376 280535 819460
377 78561 137857
378 939395 57591
379 65526 457355
380 378519 218027
381 122665 162690
382 394413 513424
383 904598 65469
384 156924 442320
385 207284 121566
386 316361 234985
387 136275 199372
388 397713 506274
389 155546 186902
390 113626 421918
391 132612 225691
392 266150 892783
393 37890 447943
394 908266 101479
395 263827 830006
396 919644 -7931
397 247718 891597
398 338309 213297
399 901765 -2356
400 372741 210712
401 106315 462880
402 422821 522364
403 229048 192013
404 201605 94058
405 451552 465473
406 954122 9213
407 378111 325519
408 329165 248306
409 317001 815894
410 251174 816128
411 803089 13196
412 895718 13474
413 167515 137473
414 289053 860307
415 345356 269086
416 202434 128524
417 987814 43711
418 317212 270965
419 168330 188130
420 139828 505922
421 84498 472768
422 388065 150240
423 270902 822014
424 306406 863322
425 911359 -62408
426 285182 922458
427 227650 199745
428 101077 425214
429 110501 182196
430 432391 522088
431 440291 405478
432 251387 789790
433 397461 519901
434 260178 869189
435 901438 10034
436 158330 152829
437 860525 65392
438 154835 410963
439 85994 451517
440 120848 174405
441 157592 101614
442 376581 141204
443 162856 236610
444 206883 109459
445 417160 516004
446 254004 875195
447 100002 485103
448 390386 246624
449 365418 514193
450 898207 39737
451 77065 483866
452 853447 -28432
453 133358 431405
454 364449 198075
455 429229 204892
456 364749 405109
457 227054 66701
458 424297 503508
459 82153 430437
460 162287 128420
461 923416 5961
462 339862 209584
463 114065 465347
464 295327 819144
465 388569 518124
466 822820 48452
467 899512 37717
468 351371 567087
469 330863 567585
470 134413 161748
471 264929 878263
472 880081 58926
473 344327 216577
474 910309 34732
475 401507 172239
476 141996 137201
477 290515 839707
478 154163 211468
479 861719 12598
480 432908 522454
481 349359 270161
482 319675 262409
483 393424 471175
484 257180 836020
485 157446 203939
486 882456 5857
487 187877 136947
488 370579 834989
489 895107 46993
490 332466 235457
491 101053 528080
492 374984 516812
493 110515 135896
494 74516 166108
495 364015 213496
496 947069 21752
497 271512 851167
498 407738 504182
499 375982 247105
500 47162 463591
501 356615 217907
502 385245 532259
503 909313 48955
504 315056 245898
505 931882 91736
506 220001 198227
507 908819 16593
508 905832 89605
509 149843 551511
510 71646 413646
511 322235 241619
512 273405 863770
513 172600 881212
514 817889 20440
515 73343 459913
516 295549 847044
517 283517 846003
518 116943 533189
519 44668 524507
520 361449 273821
521 376496 218365
522 234991 830107
523 955281 -50367
524 249036 117518
525 136576 498884
526 76894 515982
527 170823 186258
528 145615 476261
529 264060 879244
530 900504 18643
531 63665 419293
532 298099 205019
533 403912 506778
534 331426 856660
535 351566 254129
536 466508 475929
537 375526 279202
538 340192 200521
539 404378 185769
540 963567 3812
541 274217 873961
542 147434 476191
543 852774 75969
544 119403 437333
545 131496 454133
546 883772 -13824
547 228607 174724
548 935167 -8335
549 809122 31145
550 358731 319473
551 884869 78088
552 334509 205436
553 235295 967157
554 931617 53940
555 166009 505694
556 171908 81541
557 256403 838462
558 402367 471905
559 403856 197572
560 57090 543571
561 345713 814865
562 430297 568248
563 109258 124793
564 827385 14331
565 895684 20331
566 196175 199299
567 278476 909217
568 279196 449933
569 231651 128478
570 202201 908766
571 233568 851528
572 336795 483647
573 822168 43101
574 346194 175859
575 270740 889924
576 838876 29912
577 907246 63707
578 287131 186396
579 383709 218165
580 182394 198004
581 252848 833705
582 349506 484786
583 430410 470571
584 407984 467914
585 354615 256923
586 833402 6119
587 352061 288426
588 83184 463602
589 437492 479460
590 330435 840587
591 101368 425591
592 436685 509615
593 424693 529639
594 128145 461044
595 138283 451087
596 303992 308247
597 263262 852748
598 365635 319656
599 134214 162140
600 239129 893641
