NAME : portcgen-200-204
COMMENT : portcgen N=200, seed=204
TYPE : TSP
DIMENSION : 200
EDGE_WEIGHT_TYPE : EUC_2D
NODE_COORD_SECTION
1 693181 208252
2 421633 494258
3 542912 252236
4 650324 92737
5 379629 488986
6 659409 294455
7 671830 231289
8 567390 224245
9 614221 123740
10 358049 527993
11 310556 586350
12 605041 196310
13 562100 142860
14 712990 138828
15 387196 474650
16 403806 672313
17 793267 233556
18 529580 254227
19 602128 180733
20 721290 259300
21 326721 556319
22 538102 480647
23 664805 244018
24 691642 174021
25 657615 71420
26 743194 229713
27 555726 145874
28 701405 283145
29 679699 222896
30 490297 505482
31 421429 594859
32 359529 602405
33 375309 379016
34 302053 526835
35 744305 329898
36 258110 526958
37 771251 155503
38 385159 569875
39 672699 222101
40 389056 408906
41 304307 480767
42 693382 76692
43 434343 540502
44 749344 288322
45 689298 257883
46 447676 560725
47 701392 98097
48 678601 254533
49 658271 225879
50 865888 280151
51 435686 519433
52 303256 623085
53 617714 206035
54 473694 660328
55 509956 556206
56 731938 221688
57 670761 99799
58 325663 644712
59 307463 422992
60 400455 580824
61 449094 561282
62 334972 501940
63 682244 298027
64 635823 200542
65 587912 137440
66 767486 250480
67 421809 486799
68 708939 222704
69 630930 262214
70 414888 485550
71 722567 131300
72 796462 229394
73 852821 167231
74 630111 409657
75 401458 590312
76 663585 204103
77 436096 430248
78 610165 123473
79 657393 101126
80 445759 476933
81 329630 616514
82 553701 292925
83 325980 617323
84 685861 185134
85 386317 601567
86 397340 373396
87 632654 115513
88 358778 604208
89 421040 501700
90 704059 230009
91 769801 171012
92 407050 557812
93 458921 728382
94 372436 562887
95 729518 216787
96 384457 513048
97 390061 647289
98 429363 484053
99 482309 507567
100 562793 258627
101 367458 491812
102 338885 513217
103 710853 142351
104 549917 251454
105 393563 522375
106 816079 212684
107 760664 339880
108 616427 253193
109 691530 159491
110 449843 585430
111 454088 454564
112 645702 234237
113 698528 162674
114 695724 225656
115 372328 625824
116 475035 615515
117 774117 223397
118 756731 117681
119 589155 227460
120 677270 169712
121 391413 627677
122 754973 131718
123 694272 244888
124 578887 178193
125 312728 602140
126 733841 312553
127 235052 530966
128 514703 605971
129 446874 537318
130 392716 453058
131 739392 146545
132 418431 609353
133 507768 83213
134 393575 670660
135 627137 397098
136 626472 213588
137 321938 533264
138 416436 513360
139 631034 175054
140 620763 169929
141 703518 181759
142 662186 196745
143 354385 490335
144 303288 639787
145 447759 600342
146 618091 378040
147 735610 82908
148 310318 654649
149 593730 151704
150 411647 406411
151 376099 559874
152 799521 286063
153 769407 179062
154 576277 182623
155 485353 601636
156 696871 171998
157 641571 261797
158 177825 612540
159 719987 113793
160 626292 209578
161 773060 197243
162 410582 549175
163 715899 247793
164 555695 166638
165 250677 512318
166 405758 496951
167 519526 188372
168 273381 432461
169 840393 194552
170 431089 429267
171 624835 157876
172 792195 288709
173 710813 127695
174 346510 489422
175 356643 447959
176 601569 178761
177 461950 556841
178 387256 483812
179 276459 485214
180 467993 461411
181 730955 100393
182 340062 503326
183 628379 139729
184 218349 616920
185 737114 135529
186 750356 276998
187 712890 219396
188 435915 588663
189 721420 188050
190 735528 259382
191 400683 459598
192 345924 496267
193 724515 185362
194 581757 118308
195 410328 596249
196 334053 582809
197 313037 486136
198 323956 369420
199 329105 514761
200 446929 540021
