NAME : portcgen-1300-1304
COMMENT : portcgen N=1300, seed=1304
TYPE : TSP
DIMENSION : 1300
EDGE_WEIGHT_TYPE : EUC_2D
NODE_COORD_SECTION
1 713413 584814
2 550539 870117
3 530698 187205
4 150147 447697
5 1009907 828026
6 537612 911166
7 942606 788371
8 566619 887179
9 877979 913138
10 941568 767954
11 941635 712861
12 130336 447140
13 562288 44411
14 904966 726785
15 655790 512589
16 709100 533709
17 955184 782269
18 856491 941662
19 152982 421915
20 733189 514465
21 917176 818088
22 803438 934234
23 690614 532598
24 975285 768029
25 708980 580391
26 752980 541471
27 345561 243809
28 542828 20736
29 937112 737898
30 577665 849203
31 290880 227647
32 957042 761871
33 534408 181966
34 500132 257714
35 449098 228459
36 226849 347922
37 926212 811886
38 304048 421213
39 862079 927400
40 835158 951806
41 320959 194662
42 487079 226209
43 910064 779788
44 841333 967042
45 725283 542882
46 828073 898465
47 700071 513346
48 282167 241760
49 606076 41743
50 712741 563826
51 484662 180754
52 745936 465823
53 801954 949813
54 824691 942097
55 739676 552661
56 220295 404463
57 857044 773175
58 239796 395986
59 866028 739631
60 314688 229132
61 817701 939440
62 664870 524104
63 842285 725078
64 820943 947362
65 111068 462916
66 842693 929363
67 289747 192881
68 514037 241149
69 312352 229707
70 269810 398163
71 276805 232153
72 838229 911905
73 800223 925862
74 518195 874202
75 839697 974610
76 839459 947949
77 838082 960785
78 220545 389066
79 811293 916172
80 862718 962128
81 951233 812772
82 576784 -11562
83 242494 377392
84 832172 921334
85 503771 221600
86 448378 222377
87 948637 793332
88 760251 500033
89 593890 27231
90 495684 205419
91 496208 251961
92 737421 589809
93 687415 542421
94 817885 708543
95 855729 727987
96 313698 275986
97 446067 206242
98 545729 876854
99 953388 739722
100 494355 226257
101 178688 423386
102 674156 544137
103 452758 259514
104 201136 362362
105 922623 772674
106 295253 315991
107 709324 489039
108 300812 218295
109 614047 37641
110 571224 52983
111 609615 921290
112 838809 742652
113 810743 953290
114 452521 196920
115 491952 186478
116 110865 445234
117 676885 530169
118 464028 213150
119 160898 393450
120 876616 693098
121 858158 770001
122 724899 545516
123 316908 258350
124 558499 8668
125 882940 995927
126 469104 222966
127 561462 932556
128 142549 452136
129 473937 224383
130 577539 882632
131 540966 862086
132 983762 786869
133 878924 724750
134 850524 970178
135 475171 216730
136 965439 802614
137 698499 479187
138 466351 261321
139 620295 950479
140 659334 -2268
141 1005994 808141
142 844355 760767
143 546034 907104
144 701660 561391
145 482483 219385
146 771081 1023227
147 814359 978810
148 544251 9963
149 351302 191936
150 831328 768086
151 557990 896142
152 882840 936688
153 515327 298289
154 468750 256254
155 475132 251089
156 798120 964301
157 506739 207251
158 537493 886471
159 835497 777997
160 837138 758776
161 579544 21430
162 441034 207311
163 576002 -5392
164 470963 142140
165 620464 880255
166 351380 248377
167 828208 962596
168 510993 288930
169 887289 731511
170 293797 191681
171 259947 206056
172 536871 920009
173 284865 306180
174 853667 940514
175 967979 781738
176 252808 394320
177 814053 977167
178 584349 -8741
179 588420 37716
180 834002 943411
181 842224 956101
182 938254 779689
183 621841 53989
184 140536 453366
185 562536 41077
186 684588 466768
187 845246 896464
188 673872 552738
189 734369 494820
190 675311 490407
191 838212 891033
192 691193 568451
193 513039 207246
194 704773 569217
195 123130 427159
196 965731 770548
197 554730 23177
198 360303 239816
199 403979 220535
200 481124 176356
201 588725 -16932
202 462464 252443
203 291157 384552
204 507003 232297
205 508618 250690
206 700391 472639
207 872612 916902
208 821702 983771
209 88745 457307
210 271466 358963
211 261887 394920
212 983913 787782
213 854873 745768
214 573633 874177
215 243057 344438
216 485846 253812
217 690527 553507
218 460012 230233
219 568754 864507
220 574218 915326
221 859744 744849
222 551109 871207
223 338465 191685
224 281463 432889
225 457741 249254
226 961979 764638
227 577107 -3097
228 822012 909174
229 343100 250047
230 493383 218949
231 911400 839087
232 273022 256204
233 635508 -29846
234 794134 997838
235 127111 457913
236 552757 941005
237 693491 467942
238 449692 174738
239 552377 841944
240 583097 957950
241 103973 502959
242 476652 229952
243 621846 -3883
244 565785 918523
245 497692 178474
246 830661 942980
247 531574 215738
248 661100 508104
249 723152 473754
250 319982 203884
251 711159 545302
252 468318 345449
253 553812 -1115
254 487291 200110
255 722425 561032
256 818670 1001588
257 147233 451452
258 992392 795625
259 739942 576865
260 448759 211334
261 512554 253712
262 254341 222409
263 838552 960471
264 483120 230608
265 485129 233367
266 681599 513086
267 838708 868801
268 750822 517652
269 751016 605721
270 562906 892441
271 477025 184149
272 1001064 779058
273 608099 874352
274 112291 427201
275 589082 31556
276 624734 -21556
277 571402 -27634
278 669959 527396
279 230541 384997
280 947439 760284
281 988056 796207
282 458956 198523
283 758747 546872
284 879380 705092
285 976941 772197
286 804165 897783
287 131345 415226
288 590337 30964
289 691240 540440
290 584033 -11464
291 712307 617911
292 836979 655516
293 270300 393951
294 788401 972760
295 852378 952505
296 881704 950806
297 789014 936279
298 990878 765976
299 859857 892790
300 53801 441052
301 618328 -24970
302 270142 386396
303 859115 740586
304 842642 738634
305 455714 199618
306 614693 37991
307 583164 21779
308 875881 787192
309 870241 768856
310 799388 915836
311 831964 755145
312 807986 917009
313 292227 413403
314 849918 722803
315 474279 252161
316 105702 511829
317 593169 24943
318 711524 561388
319 797854 910969
320 763158 578368
321 486794 228267
322 639795 -19288
323 846790 924372
324 118523 417037
325 802889 928606
326 233289 355193
327 747734 938679
328 768558 573515
329 728539 551875
330 828278 934964
331 484206 263499
332 856332 718229
333 161161 414608
334 831601 891826
335 802945 844940
336 680274 502939
337 343342 243701
338 898209 709702
339 969213 818559
340 854302 747874
341 462813 307223
342 490864 170519
343 315164 240458
344 603392 30253
345 466262 226535
346 522910 860994
347 469590 264176
348 266785 232297
349 110888 434491
350 837413 929590
351 739394 590349
352 256226 371954
353 928944 780640
354 462650 242286
355 925318 762594
356 238241 216021
357 996952 831832
358 618367 -3490
359 818466 948954
360 572746 874591
361 698148 505669
362 730800 479339
363 862138 729666
364 578662 30526
365 830734 922687
366 304435 252644
367 501455 209951
368 545758 45436
369 500429 205345
370 99798 451465
371 604080 -32936
372 659849 546509
373 473873 252313
374 988990 794769
375 858481 925419
376 867256 909117
377 434481 213007
378 481058 224729
379 634588 11330
380 575130 911934
381 549874 872251
382 165066 453661
383 738775 544930
384 570005 868054
385 797881 963546
386 299724 163752
387 458791 198793
388 470296 227349
389 571190 -29117
390 878415 874620
391 826756 942203
392 630414 14378
393 487575 218411
394 566159 -3905
395 525367 215169
396 347706 216299
397 117176 354462
398 814209 914628
399 552383 1995
400 624074 71766
401 579403 43194
402 748893 527198
403 502815 228318
404 955623 774127
405 795881 938959
406 695259 584996
407 594421 880572
408 318737 243521
409 120751 466588
410 922199 690917
411 870680 730414
412 646373 508980
413 545426 12586
414 866982 938810
415 133045 491687
416 959608 776193
417 818536 714321
418 830984 981364
419 324403 220407
420 814786 870822
421 655970 577075
422 570352 1901
423 858251 885310
424 778027 917954
425 617027 906057
426 538991 860031
427 843450 812618
428 783331 565684
429 810815 905929
430 820925 982617
431 548942 916224
432 332290 256659
433 342203 221469
434 282587 371876
435 701665 542840
436 305349 176972
437 303277 235857
438 523192 895386
439 605942 11633
440 868455 739156
441 255468 377804
442 869810 710882
443 704414 500611
444 796483 913479
445 705868 579558
446 489498 212270
447 745770 536508
448 283944 257198
449 450333 258586
450 968642 746662
451 261736 216288
452 987441 752861
453 688284 514198
454 475959 247550
455 852444 971529
456 754140 544649
457 493201 173642
458 75851 405486
459 288601 281644
460 152009 479123
461 808782 958937
462 508429 239238
463 735486 566127
464 300784 242033
465 715358 577200
466 552552 891757
467 716726 612932
468 187519 447606
469 875603 709244
470 598335 20578
471 973929 798973
472 580360 26612
473 497704 278963
474 334959 179549
475 609859 -4222
476 93425 366439
477 551253 918338
478 700880 529620
479 822025 953628
480 134890 424409
481 882534 696339
482 857162 709511
483 891397 684750
484 972689 799566
485 507767 884505
486 315658 217352
487 862884 921701
488 854691 699003
489 472426 209673
490 513928 911496
491 709730 524357
492 438660 222896
493 819431 931605
494 745715 520801
495 536525 21662
496 857041 925996
497 878246 721845
498 87767 450959
499 687613 530860
500 982500 753808
501 250513 388532
502 704640 491564
503 439283 283129
504 281717 245485
505 120594 476657
506 321008 197476
507 835685 904417
508 822980 993146
509 651434 587936
510 570547 907858
511 129168 458464
512 464469 249297
513 962321 787647
514 868201 918378
515 668326 555885
516 635485 14283
517 277087 292851
518 115441 456908
519 92271 453720
520 844004 936256
521 536716 893372
522 570517 893722
523 706114 545764
524 193752 437553
525 271411 423321
526 791767 961577
527 944907 747877
528 862963 697579
529 870150 970260
530 338549 203281
531 535758 1367
532 703132 482819
533 585565 -2769
534 925927 761329
535 892787 685743
536 573925 47110
537 114423 337526
538 696150 570886
539 810413 946554
540 660132 28765
541 897382 732507
542 856400 941160
543 307276 253137
544 738020 590578
545 300599 233379
546 842549 906889
547 264925 382245
548 575428 -10576
549 490158 181904
550 334518 248872
551 278628 385934
552 554041 858739
553 988859 750083
554 760347 527667
555 517204 886337
556 857195 712765
557 472164 258754
558 844381 921525
559 614033 -27104
560 963901 840891
561 282078 372161
562 934032 750701
563 231561 390266
564 711113 496121
565 252166 444485
566 493515 209847
567 803429 924046
568 726736 499012
569 515093 893618
570 964340 777456
571 787728 883403
572 433122 239525
573 468381 260896
574 491689 257522
575 539407 263863
576 830667 925236
577 909501 667489
578 704540 497648
579 703515 560935
580 329414 234691
581 75237 417427
582 115525 496483
583 860269 891906
584 460305 282570
585 821669 937417
586 266888 347478
587 490026 250937
588 717210 578503
589 850609 938309
590 597957 44561
591 834915 908571
592 276732 191398
593 802707 712040
594 290386 199318
595 837565 964554
596 315548 377939
597 552758 898396
598 351323 232715
599 804566 945132
600 109045 457567
601 782998 553192
602 228413 393237
603 735794 604227
604 84830 436699
605 645040 27929
606 497559 211785
607 448634 252484
608 872972 718903
609 974617 797720
610 552849 899171
611 112706 428835
612 835685 954210
613 851770 725764
614 829419 1004665
615 831008 970839
616 460291 209371
617 962948 772112
618 587917 888925
619 843649 712155
620 1009850 764511
621 486931 283117
622 952401 753800
623 524948 190974
624 791346 977837
625 318923 204140
626 255257 249562
627 705054 507909
628 309888 348561
629 245388 367003
630 534783 267866
631 547875 30169
632 486118 253018
633 851860 1013921
634 437676 210979
635 969993 823243
636 874227 722444
637 786331 904928
638 295158 170260
639 569480 19648
640 848623 931298
641 808762 896338
642 495181 236426
643 828151 766840
644 311859 199317
645 958420 788890
646 128760 421499
647 590804 923852
648 616242 907341
649 594662 -8357
650 813953 914976
651 796165 937252
652 930312 733726
653 232579 335289
654 621356 944829
655 580735 14360
656 499185 244216
657 794568 896392
658 859372 699200
659 491655 199025
660 266973 357666
661 136236 446055
662 154305 483843
663 953867 797653
664 418998 230108
665 799431 926584
666 136799 472285
667 915386 815856
668 781737 572845
669 503369 216657
670 652192 549456
671 734386 545575
672 833881 913364
673 583255 8096
674 91494 436559
675 474061 268453
676 138260 433711
677 713002 513967
678 990094 767738
679 318640 221741
680 125257 422227
681 213618 372067
682 821884 905684
683 93895 461200
684 965319 776832
685 551611 -1553
686 705943 498258
687 247368 351367
688 112174 478528
689 753219 582646
690 824077 750263
691 770066 592922
692 273922 227114
693 611282 8815
694 69002 413244
695 332689 176506
696 836480 749669
697 543583 926118
698 715998 548078
699 694116 535674
700 615097 108567
701 127098 468538
702 458066 232975
703 656108 477918
704 720032 583630
705 113730 441777
706 611168 25094
707 674036 558914
708 339109 202925
709 495052 254484
710 476115 243847
711 773164 574570
712 278142 241191
713 485634 242422
714 480284 259257
715 457256 280613
716 421942 240761
717 485887 296919
718 797505 692355
719 575744 911464
720 492069 225310
721 277971 330692
722 956074 763691
723 255521 377816
724 739479 593802
725 543709 14452
726 459657 256350
727 122620 464678
728 429306 237531
729 346820 181566
730 450491 269044
731 300662 360549
732 444527 229095
733 463451 262825
734 276675 233188
735 818881 917930
736 209893 376556
737 924637 735537
738 467488 265650
739 483302 268338
740 580418 858638
741 793568 937497
742 899183 735364
743 563442 -8050
744 270531 407723
745 829189 940432
746 580595 854761
747 826399 923648
748 573973 853638
749 545251 -3691
750 664937 513792
751 231057 255057
752 562323 906702
753 768002 560321
754 477519 267555
755 819902 863328
756 293689 375860
757 614298 31943
758 699191 610236
759 416692 229244
760 240855 404038
761 285130 367437
762 283889 376953
763 441481 236551
764 493113 223012
765 738749 576163
766 608718 872461
767 300141 198985
768 674051 570316
769 530217 840081
770 281147 410147
771 133171 433239
772 846211 720191
773 902890 762254
774 920224 756373
775 850806 937633
776 926719 683839
777 808838 898744
778 225020 402981
779 932307 768032
780 977341 769340
781 939616 758412
782 267169 219085
783 264055 249453
784 145563 498688
785 878307 716903
786 734823 551411
787 569672 898836
788 98656 415427
789 282841 437249
790 831543 684144
791 569713 921032
792 473809 274527
793 963647 786355
794 333776 220829
795 615404 829474
796 818391 879464
797 823428 991666
798 439474 260539
799 679639 468671
800 703301 512478
801 461915 192202
802 747300 580655
803 524660 178687
804 243446 349055
805 777964 929712
806 473185 228092
807 867082 940937
808 425566 239900
809 574067 39112
810 718860 559036
811 84930 451934
812 543972 922335
813 719132 490699
814 285411 357854
815 761428 539494
816 930376 797299
817 858882 946835
818 975555 756357
819 734764 592132
820 583285 62411
821 319321 395243
822 586039 856362
823 901251 741424
824 496935 216219
825 846567 959607
826 299731 206173
827 487609 256870
828 696554 492435
829 127925 412393
830 616494 923920
831 657941 -6367
832 557505 -1455
833 150604 437137
834 478820 309424
835 334680 391634
836 992407 773160
837 579983 891553
838 927527 790277
839 260905 199850
840 139966 472607
841 253365 383039
842 348855 282414
843 250091 365425
844 733604 572373
845 928971 788295
846 570193 -15841
847 99697 453694
848 151413 378715
849 89253 442082
850 820296 961098
851 701326 512242
852 870108 732348
853 717433 574331
854 323844 290478
855 552464 839906
856 836066 691667
857 845307 914019
858 829765 966885
859 872378 793173
860 783751 925538
861 812563 927320
862 459514 187251
863 968154 777609
864 789465 964077
865 423824 269201
866 135349 456992
867 558313 886644
868 292542 406145
869 77873 439555
870 840053 948662
871 259874 351454
872 716275 479451
873 736445 542197
874 451621 184375
875 440279 269488
876 611076 23007
877 412435 194682
878 513783 290103
879 133742 460078
880 694343 460972
881 558498 44628
882 465478 212465
883 460010 290000
884 124009 391534
885 840162 906179
886 526296 302011
887 823786 933958
888 810365 746171
889 945549 754809
890 304786 209474
891 157071 420847
892 869759 697694
893 696483 603738
894 278074 340032
895 821298 956138
896 122693 414429
897 276883 314675
898 503691 183995
899 111383 427568
900 106934 425060
901 1021317 779492
902 710144 580043
903 447461 240096
904 593322 20827
905 274049 361219
906 284717 242952
907 272535 364531
908 586007 866131
909 851752 968466
910 794736 734587
911 334159 214068
912 718662 507183
913 282329 431087
914 860658 759832
915 642509 510709
916 825878 724100
917 253505 371851
918 823170 900809
919 847277 864799
920 977375 777696
921 733097 535720
922 540233 19389
923 842442 906307
924 461767 204440
925 836853 976327
926 270726 269469
927 484617 232566
928 540612 890739
929 94383 452268
930 797629 928524
931 1002909 771583
932 836276 903216
933 964467 752856
934 437325 218757
935 538105 905642
936 857492 697035
937 770188 944077
938 596043 61465
939 270346 171324
940 250918 229436
941 796597 937316
942 553619 894492
943 836669 761362
944 834221 961766
945 812543 938193
946 232993 369035
947 839120 979856
948 316871 240929
949 867338 694810
950 241948 331439
951 327939 197041
952 959103 761518
953 852924 916942
954 620893 -21300
955 463034 245526
956 315769 397487
957 730798 485687
958 896343 718913
959 951361 819572
960 616230 1804
961 696564 595379
962 246355 412987
963 916237 771390
964 683012 504268
965 572981 904233
966 286305 235821
967 442837 213785
968 814511 930384
969 653227 524910
970 481638 236953
971 506689 899195
972 535677 936788
973 857036 915512
974 489613 937905
975 721856 593519
976 136106 471638
977 705209 556306
978 710816 508462
979 836390 771067
980 940875 704575
981 786696 975113
982 266760 209591
983 127041 467226
984 567950 928708
985 172938 428277
986 805581 946673
987 668233 488902
988 673553 551713
989 448691 227586
990 759587 920290
991 486774 188356
992 268315 341780
993 636067 13592
994 856964 750128
995 952467 743125
996 227913 218584
997 722782 568103
998 564685 897853
999 103502 437995
1000 665049 520878
1001 487338 181903
1002 540432 935458
1003 278199 405038
1004 698818 499133
1005 142568 470070
1006 443654 158076
1007 870960 907714
1008 678926 536537
1009 851139 668953
1010 304026 218207
1011 457811 253566
1012 120679 431376
1013 744960 589042
1014 846612 949409
1015 871382 921185
1016 108390 427005
1017 683689 514834
1018 457510 184898
1019 671111 539206
1020 822693 943639
1021 706504 575259
1022 503058 184140
1023 803658 943910
1024 837501 716458
1025 683549 502411
1026 867712 931715
1027 775950 588056
1028 249430 220723
1029 275320 366913
1030 524190 911988
1031 235949 408126
1032 899050 755626
1033 716365 556574
1034 781270 949162
1035 965586 775575
1036 608119 17620
1037 812687 932840
1038 826705 907960
1039 805668 942315
1040 523456 846605
1041 254168 373602
1042 831963 736075
1043 302349 259797
1044 643063 844857
1045 280113 229325
1046 762404 877154
1047 129002 432798
1048 1000117 762881
1049 312932 230628
1050 724149 541532
1051 646006 485616
1052 979622 794323
1053 502622 232086
1054 826645 950579
1055 811991 918802
1056 708091 520647
1057 238220 431957
1058 810175 706231
1059 221058 344208
1060 493071 200079
1061 695998 583117
1062 247155 333743
1063 573542 49233
1064 889325 738300
1065 481637 237231
1066 295358 249734
1067 466010 191101
1068 593663 33212
1069 730375 444486
1070 568496 945366
1071 444202 228137
1072 243633 191748
1073 149740 428134
1074 82461 428447
1075 865780 750210
1076 309706 180488
1077 456471 153038
1078 593679 877924
1079 609167 -16332
1080 125620 456132
1081 754175 586346
1082 623925 29545
1083 842728 872653
1084 861198 918575
1085 303463 231024
1086 528807 311176
1087 580030 905192
1088 798166 965420
1089 794269 937450
1090 91920 386078
1091 807530 943921
1092 894442 708936
1093 599300 25450
1094 724770 553005
1095 119265 442615
1096 937076 743603
1097 675579 574700
1098 744758 509361
1099 977608 754398
1100 855098 780751
1101 542553 225681
1102 460657 247929
1103 631233 -22299
1104 478379 229670
1105 703924 482133
1106 696516 486688
1107 574320 872130
1108 852145 914078
1109 707227 537736
1110 885941 716836
1111 491885 239730
1112 283297 381624
1113 888036 968566
1114 902011 703111
1115 859979 964635
1116 687333 549844
1117 465115 192500
1118 813930 968867
1119 825211 894074
1120 133977 464451
1121 709723 520035
1122 807490 927712
1123 277767 202122
1124 695056 506629
1125 256123 363870
1126 695496 525415
1127 820636 953907
1128 847300 959531
1129 235161 355291
1130 153650 407506
1131 747470 543175
1132 807588 992172
1133 853006 709039
1134 825413 915938
1135 280447 274721
1136 1039278 714619
1137 483055 228281
1138 506808 260356
1139 829790 932898
1140 504647 201193
1141 554464 851240
1142 287562 416934
1143 772014 929981
1144 915949 697723
1145 501141 170070
1146 814363 954835
1147 729621 563345
1148 247192 344186
1149 131708 431173
1150 956223 831184
1151 741008 612461
1152 571656 30439
1153 496485 227834
1154 740966 539690
1155 325573 221379
1156 778127 962343
1157 570349 837359
1158 143155 442215
1159 693894 543445
1160 95842 400404
1161 595789 5271
1162 642280 499385
1163 616572 -30248
1164 680068 484468
1165 868962 748175
1166 502235 879011
1167 265584 340781
1168 75635 434248
1169 840204 956624
1170 605177 34801
1171 491177 207516
1172 765079 594183
1173 784834 963809
1174 307292 212153
1175 459199 231429
1176 824893 954270
1177 960461 769999
1178 334183 176337
1179 510629 206713
1180 707470 572346
1181 784530 740167
1182 241815 398177
1183 137971 423979
1184 740134 528385
1185 955534 767984
1186 311094 195862
1187 845954 930763
1188 559690 888273
1189 597876 30743
1190 869127 892175
1191 591046 -18547
1192 514987 854214
1193 901658 953056
1194 477557 233647
1195 446722 223813
1196 306677 412108
1197 280215 227253
1198 309411 258072
1199 738657 625482
1200 113618 439603
1201 301211 386293
1202 303917 253387
1203 317168 203288
1204 245242 248898
1205 462452 204561
1206 830260 963301
1207 262532 216118
1208 123628 461213
1209 823357 882309
1210 819111 915711
1211 546214 900630
1212 739205 508697
1213 733504 537863
1214 271448 349700
1215 537537 220708
1216 807384 881892
1217 828789 899108
1218 520090 848524
1219 943676 760991
1220 572292 14199
1221 837937 747640
1222 964018 713622
1223 64515 455996
1224 717684 566339
1225 104872 444257
1226 306130 242039
1227 837769 873241
1228 681627 554074
1229 304452 195614
1230 493772 209107
1231 231748 386141
1232 624446 39355
1233 740269 554828
1234 305371 349839
1235 618313 54135
1236 821568 938051
1237 652667 512307
1238 716130 586470
1239 840334 777849
1240 443512 179705
1241 449761 198342
1242 813817 918874
1243 859780 881385
1244 863302 935966
1245 444224 212191
1246 876910 935601
1247 731029 495391
1248 107487 477281
1249 841576 963262
1250 890885 695923
1251 857504 750477
1252 524579 273060
1253 972067 759289
1254 710939 566381
1255 244527 398206
1256 428343 254495
1257 598776 68004
1258 695023 514279
1259 257931 361467
1260 254569 413644
1261 449895 188287
1262 700429 600378
1263 633388 89005
1264 310974 224665
1265 560229 876995
1266 270290 242832
1267 661831 510665
1268 952561 777294
1269 252529 357503
1270 910687 780306
1271 454204 222356
1272 586992 93170
1273 833506 786426
1274 576327 892723
1275 546617 942067
1276 286774 374697
1277 856169 889873
1278 862241 913778
1279 707384 517918
1280 556390 29765
1281 675706 504500
1282 691152 568829
1283 574638 871123
1284 901747 911481
1285 576743 6772
1286 299266 251879
1287 631975 874394
1288 110386 466897
1289 201758 405734
1290 138157 424971
1291 248050 364377
1292 240566 387555
1293 809915 934694
1294 127005 406450
1295 280390 254185
1296 129783 421505
1297 770740 564171
1298 542526 -25108
1299 824581 923721
1300 431437 250030
