NAME : portcgen-1100-1105
COMMENT : portcgen N=1100, seed=1105
TYPE : TSP
DIMENSION : 1100
EDGE_WEIGHT_TYPE : EUC_2D
NODE_COORD_SECTION
1 81964 24491
2 625033 329129
3 220010 381638
4 831215 80156
5 338527 921158
6 844363 21769
7 109061 99503
8 786922 96743
9 431346 348419
10 704165 522232
11 339537 901063
12 749618 547515
13 966628 255055
14 200400 345735
15 329271 886015
16 -13505 99036
17 333778 921263
18 434435 267762
19 13006 61714
20 25614 37664
21 495273 298009
22 121822 182953
23 714943 579023
24 31270 58187
25 916046 288010
26 444769 352345
27 405561 68976
28 82957 34622
29 237049 378999
30 435088 35286
31 916814 276151
32 908587 238486
33 192129 416706
34 204560 417685
35 252788 376123
36 69409 189269
37 37724 9140
38 857526 98795
39 222404 451979
40 384453 127602
41 163075 401626
42 -51734 21395
43 111198 169199
44 923532 267960
45 887465 75129
46 661268 355842
47 662858 903660
48 687528 830535
49 375310 930679
50 369684 306730
51 258662 434802
52 677650 808252
53 117405 171544
54 10899 12081
55 634976 867769
56 657430 838601
57 669044 561140
58 664309 860549
59 371253 956276
60 227327 398464
61 164811 400850
62 463782 163312
63 837505 97757
64 840293 50691
65 466190 114232
66 719678 576701
67 922858 331712
68 203906 382765
69 650582 404011
70 970096 271988
71 653815 858547
72 50187 4641
73 69087 177888
74 838147 21490
75 667857 843841
76 392691 838715
77 726678 624007
78 433703 135158
79 566961 410230
80 464590 313100
81 982959 291167
82 473557 371794
83 946262 286601
84 482010 336482
85 27700 59904
86 846139 81657
87 686357 875490
88 415500 132909
89 274342 352291
90 745267 557109
91 448411 72082
92 774899 538805
93 491366 335241
94 651087 854067
95 468742 378499
96 933361 255977
97 621134 844741
98 931500 208041
99 342457 924570
100 369116 878271
101 478530 355536
102 68661 158159
103 419999 126730
104 825888 32860
105 942417 276920
106 943447 253642
107 851816 8995
108 9193 49799
109 99029 184321
110 429230 288164
111 462620 306500
112 503586 113336
113 821929 101421
114 870031 85514
115 141301 138241
116 812487 29509
117 179165 414151
118 677287 392571
119 508513 346255
120 790412 98037
121 451626 336283
122 604876 407461
123 86118 146052
124 939069 268395
125 707893 392063
126 884457 261864
127 828643 77714
128 91915 20025
129 878204 37161
130 696098 866198
131 376815 936220
132 460561 353523
133 420054 385889
134 716971 554523
135 864092 39762
136 968335 258184
137 36718 15209
138 839737 69931
139 84214 54360
140 221524 391743
141 331958 882622
142 22096 26688
143 337986 890563
144 744022 574090
145 474028 309288
146 918613 326998
147 345936 984019
148 622086 845516
149 443892 103360
150 5132 85278
151 925391 234285
152 790199 79817
153 38963 87404
154 568804 793956
155 354970 888219
156 757424 550067
157 633477 369034
158 491396 341936
159 665398 848993
160 329295 931178
161 820315 49682
162 858548 47103
163 684672 426402
164 416813 911922
165 202167 370613
166 840366 124662
167 727625 571742
168 890493 296097
169 946053 276699
170 704869 815031
171 58618 -6037
172 467964 361187
173 658137 806662
174 420019 174069
175 853084 70397
176 674931 818642
177 204408 381631
178 206207 436126
179 141682 164649
180 728052 513528
181 665022 378642
182 639572 405958
183 90186 193345
184 615571 373419
185 254898 379569
186 455279 380956
187 632957 341610
188 595704 338003
189 636055 345439
190 945294 240681
191 696657 861935
192 130185 13457
193 680997 842834
194 725450 535078
195 618191 372536
196 228826 410358
197 669808 637971
198 898788 307671
199 868700 263637
200 620307 361706
201 660048 856663
202 948788 254494
203 79542 160748
204 43604 -3144
205 827003 50085
206 704676 487676
207 914952 285400
208 150548 396015
209 679219 854974
210 638223 414694
211 77499 19595
212 677392 841949
213 49053 -14117
214 670545 889360
215 827592 99213
216 727253 542458
217 63763 163689
218 885512 129194
219 382755 945469
220 391353 306692
221 725923 578606
222 193458 432706
223 468173 109977
224 446157 106435
225 470654 358258
226 6732 83116
227 174925 356940
228 977010 250556
229 619245 864493
230 149735 148748
231 611271 812391
232 339709 922092
233 670939 835346
234 688140 809648
235 83167 149943
236 619603 339962
237 419159 135868
238 275188 417887
239 700258 831582
240 468369 366324
241 440569 339015
242 838737 54944
243 53630 152859
244 375231 923851
245 606179 368284
246 84591 72793
247 594286 411838
248 924968 257091
249 688990 864786
250 781911 136321
251 39515 -1353
252 444599 378642
253 832902 87001
254 40750 4534
255 432297 340223
256 195118 331686
257 787616 100842
258 669863 867680
259 242171 378120
260 920994 298348
261 364723 888142
262 662103 379246
263 106678 123440
264 332182 908406
265 392092 102306
266 402620 316491
267 936765 259789
268 105967 132960
269 608989 363900
270 204756 414769
271 432950 343531
272 171740 397608
273 220783 400424
274 405803 899908
275 669183 834162
276 734390 839438
277 352868 928632
278 437295 169695
279 396204 930800
280 288919 930825
281 161888 131098
282 429891 357687
283 55010 56533
284 796748 591242
285 439324 356178
286 677148 833418
287 419413 115388
288 -942 44757
289 954924 264266
290 859482 55410
291 727842 611566
292 366198 937727
293 877504 53777
294 375924 79283
295 708764 636109
296 438515 345821
297 399741 103015
298 89907 174620
299 96171 143565
300 475900 344237
301 778531 98210
302 466401 303623
303 378090 891528
304 433795 342339
305 739737 596453
306 448280 106857
307 883919 272445
308 914540 241993
309 627685 839238
310 257845 404277
311 608067 842178
312 636821 813050
313 659268 365423
314 132922 164889
315 85559 139474
316 185068 408617
317 208383 388569
318 670689 904522
319 444664 370771
320 670136 879605
321 19930 44196
322 144981 127730
323 746421 543781
324 941750 216961
325 605731 415364
326 489355 360426
327 761818 610198
328 449671 89873
329 170155 179920
330 638422 421379
331 476447 405615
332 644164 357235
333 354292 903693
334 666101 433705
335 182748 355238
336 473391 133740
337 660825 363742
338 658623 349088
339 668787 831164
340 712187 532359
341 597683 370974
342 231074 440794
343 365119 897515
344 520839 121267
345 641378 411773
346 347184 880624
347 572300 391646
348 740635 847200
349 480792 282514
350 459681 132087
351 123929 193799
352 111349 165215
353 709901 576280
354 630971 385207
355 340535 934001
356 369161 913784
357 84370 173974
358 501629 400000
359 381714 89195
360 151641 177225
361 604813 349912
362 1015419 327918
363 652106 916739
364 100407 51316
365 609753 407064
366 207346 366280
367 384067 927195
368 263610 367170
369 95936 111647
370 653715 853140
371 250511 387447
372 98517 207580
373 463618 116093
374 731099 596804
375 757558 562135
376 741474 550304
377 727269 550402
378 108596 129777
379 348963 68727
380 50743 47977
381 647501 416202
382 418347 139084
383 461236 303384
384 864670 37933
385 365131 922389
386 257737 405232
387 865122 77786
388 647160 440819
389 410391 353554
390 224329 389002
391 919733 253788
392 393977 145982
393 57101 3778
394 449844 129298
395 624741 842124
396 848042 58523
397 985324 248208
398 461409 314507
399 424098 376535
400 704861 596302
401 375009 914970
402 706986 615920
403 113803 193256
404 227242 385430
405 914384 61307
406 376139 907411
407 834046 51716
408 678441 574434
409 680518 887399
410 335649 899573
411 713197 550931
412 202068 409544
413 623627 423122
414 916420 224172
415 515839 340081
416 324186 897813
417 203239 453453
418 399624 378181
419 647246 402900
420 421971 74994
421 434766 341824
422 85795 124264
423 679458 805906
424 121556 169286
425 833760 112581
426 106562 133431
427 205181 361398
428 654558 823193
429 984449 213216
430 204763 387893
431 459337 356047
432 462055 395584
433 452389 313134
434 352348 961030
435 396038 946707
436 68061 27460
437 176381 336526
438 946507 287175
439 518751 343625
440 63345 -53699
441 821498 84761
442 235440 406336
443 916253 251408
444 240949 364618
445 384841 853053
446 25272 34220
447 662753 337382
448 650726 399509
449 687322 868441
450 217843 418475
451 314675 931910
452 382810 907988
453 51335 31810
454 829724 30959
455 734221 560928
456 126707 81089
457 741619 587593
458 474854 135248
459 855501 65564
460 209319 415518
461 78448 169676
462 3260 38507
463 950674 264436
464 394303 950997
465 930960 254642
466 718419 568111
467 655315 856772
468 438910 85605
469 99493 138429
470 213473 352531
471 453204 88318
472 223486 398747
473 470538 335507
474 383876 879474
475 454984 380062
476 95704 120865
477 20446 46524
478 94962 202172
479 357836 915198
480 721338 522740
481 636933 847343
482 775495 511715
483 636306 341613
484 631318 825881
485 247573 358548
486 693989 841831
487 475165 362933
488 606603 857923
489 866478 69622
490 948595 283540
491 340878 900080
492 726140 573905
493 40040 17047
494 385636 922782
495 250905 371839
496 415501 82718
497 709105 592541
498 664649 837112
499 17010 44129
500 840702 84734
501 461087 363114
502 405873 91753
503 930866 227249
504 235131 351274
505 672081 853783
506 376605 945482
507 248414 931256
508 715599 521817
509 713246 521006
510 60489 65604
511 346150 944725
512 78500 57571
513 627049 851823
514 392336 885191
515 477410 120975
516 177176 408131
517 439076 136488
518 668691 539905
519 226867 344767
520 470115 305553
521 476695 159832
522 319563 925865
523 98123 141093
524 739796 585628
525 465360 365958
526 863412 93185
527 957184 273550
528 920978 93112
529 806301 79700
530 458667 130030
531 505552 335865
532 345502 876320
533 928718 215585
534 471105 346284
535 706844 833357
536 401077 940236
537 252140 380752
538 101208 154485
539 426755 129383
540 632334 843476
541 345117 925108
542 606331 858369
543 207103 349687
544 376614 960792
545 635279 425923
546 49490 -3681
547 682221 823037
548 839838 90234
549 751869 597772
550 961898 315951
551 660348 824113
552 196933 381084
553 39075 45747
554 769426 594763
555 187643 339362
556 679189 873750
557 377107 950790
558 401682 375995
559 477285 76894
560 429504 313512
561 61391 157953
562 470211 308350
563 938989 211821
564 748335 569392
565 434278 108594
566 653632 453158
567 225110 406933
568 723693 598491
569 647642 844253
570 348459 956577
571 236745 348715
572 481644 366957
573 470396 304860
574 254019 372119
575 -12188 88946
576 494301 71072
577 854365 38365
578 936844 278773
579 649031 393816
580 133853 143550
581 52512 40125
582 349689 928286
583 458134 338392
584 917402 240182
585 448597 107506
586 685709 846603
587 16113 50292
588 618793 350084
589 674368 405501
590 836386 89895
591 969289 255820
592 391360 868523
593 738102 571266
594 495929 97001
595 332753 854120
596 240844 385641
597 372766 925489
598 460350 283518
599 651625 381531
600 963176 228516
601 101730 206023
602 747427 528151
603 461182 80525
604 454674 305713
605 8689 67524
606 259786 386064
607 661452 839446
608 674621 571400
609 343154 905792
610 419570 131899
611 16966 -13942
612 7588 86856
613 237432 415536
614 395861 954161
615 116785 130325
616 453883 373085
617 901049 59530
618 908923 275246
619 823157 102302
620 17284 29823
621 99350 185898
622 430905 842657
623 447802 318052
624 426294 265721
625 519729 338827
626 131804 195122
627 419683 89385
628 899212 281459
629 656917 867930
630 181293 401187
631 110517 101492
632 664135 830068
633 439439 163980
634 434296 112381
635 111483 182895
636 52565 35526
637 412846 49619
638 612571 449310
639 754491 586188
640 868099 236836
641 209806 403849
642 617116 429444
643 33845 37266
644 706642 591214
645 466846 345491
646 787923 69734
647 605293 409744
648 832184 122665
649 578607 430170
650 713979 826050
651 881711 269525
652 142244 206625
653 446196 83940
654 58127 46456
655 930128 254002
656 899845 255205
657 433528 349354
658 422530 162909
659 734948 559683
660 218178 395245
661 724303 603119
662 200232 409081
663 896004 241280
664 344952 916222
665 654514 388302
666 673032 401170
667 260146 412138
668 10376 -4774
669 249409 345329
670 38715 -42175
671 103138 154644
672 843663 40627
673 116271 199634
674 715668 549304
675 688350 436262
676 619302 372648
677 408842 58724
678 371272 900136
679 134944 164400
680 334987 843458
681 74678 58519
682 693885 383547
683 899302 32235
684 224566 377876
685 596812 369277
686 624361 390492
687 338334 971076
688 17643 67078
689 349776 907119
690 452472 120267
691 648707 367430
692 653782 812129
693 232263 348607
694 383468 958048
695 202912 354838
696 662704 848202
697 686334 425068
698 430019 341332
699 863260 70890
700 189235 415065
701 698050 578200
702 141848 143788
703 723512 351875
704 640495 403520
705 826314 89988
706 639322 841492
707 631837 424531
708 421502 335909
709 233638 412966
710 338487 980173
711 676309 830106
712 416796 52040
713 646725 846559
714 4936 36379
715 28320 32128
716 276758 436338
717 327012 936038
718 929990 295219
719 25425 38524
720 92039 126065
721 235648 361173
722 446768 100515
723 54644 5584
724 671233 898518
725 24982 13829
726 90 74756
727 450794 353745
728 445866 146107
729 214065 409069
730 464387 102856
731 626332 383374
732 127785 180647
733 436671 339533
734 934970 247473
735 619950 372265
736 -7340 31380
737 41017 191955
738 75834 156600
739 586228 420930
740 373691 877858
741 62988 154590
742 29532 107883
743 408960 365185
744 123063 150923
745 395875 860991
746 970462 286374
747 133524 132937
748 832008 50074
749 405707 156724
750 412647 155401
751 212634 337139
752 398383 115513
753 741019 543861
754 934104 251143
755 742891 571565
756 432324 107920
757 668738 816489
758 158468 415855
759 890312 278589
760 637824 862154
761 729093 553169
762 730684 600717
763 380943 929786
764 729151 575526
765 641167 385433
766 57004 -44748
767 728111 536396
768 439791 87045
769 765246 534244
770 946342 273688
771 365928 903837
772 414138 48469
773 655244 776763
774 640450 832647
775 58813 77821
776 -16012 51869
777 651274 393217
778 245873 387098
779 365150 94795
780 847722 90595
781 440992 129851
782 222180 429329
783 87439 140702
784 634342 408636
785 454298 300854
786 19884 55275
787 476587 287337
788 109588 183457
789 659769 811721
790 656485 833218
791 420129 342022
792 85041 157927
793 456601 114406
794 62356 -7089
795 415091 133762
796 95623 199257
797 17238 54541
798 220015 378682
799 68027 76529
800 124025 153209
801 859923 40837
802 64612 170138
803 352448 916809
804 750597 550824
805 280059 384501
806 841946 63936
807 -2095 64700
808 603155 374080
809 828534 30906
810 675983 823381
811 88620 106235
812 234843 395594
813 94549 177015
814 657276 339265
815 728156 851356
816 688052 837882
817 632489 870045
818 361677 960461
819 462055 363543
820 678821 813036
821 862601 25085
822 474335 311014
823 71852 30375
824 210733 413486
825 851934 23451
826 550277 352436
827 437874 162763
828 460810 90571
829 235189 411461
830 198851 428621
831 193951 359516
832 889681 294392
833 -1494 28373
834 690951 554933
835 36170 135184
836 643844 395562
837 224216 380396
838 321055 868673
839 425338 133819
840 839922 120984
841 636039 872236
842 89019 188992
843 786610 605555
844 640640 877672
845 723741 519166
846 767627 539400
847 140235 437383
848 472572 341174
849 377771 875734
850 96984 242388
851 468757 311451
852 295683 896778
853 412884 79498
854 223927 404228
855 443604 99560
856 146184 160951
857 85854 93895
858 428246 92265
859 17621 38401
860 752819 527222
861 630557 866833
862 467779 384449
863 670902 415761
864 930098 203173
865 632170 804671
866 657972 416302
867 694030 843624
868 352342 898647
869 824115 101339
870 741242 566474
871 25764 78059
872 461812 259312
873 470545 287579
874 727667 379963
875 466060 293740
876 618915 351459
877 432125 107250
878 352433 899186
879 478428 67902
880 98633 208223
881 402027 370243
882 417088 72199
883 723213 566922
884 833417 69689
885 668306 381888
886 733781 555082
887 920389 271083
888 621360 379410
889 380789 880440
890 58811 171036
891 902534 270194
892 894324 319077
893 193850 379625
894 447468 362828
895 853139 104900
896 444509 42331
897 805085 97589
898 873089 73804
899 434015 343557
900 113096 174051
901 800150 55684
902 933751 255983
903 853585 74803
904 340126 925264
905 222997 385568
906 685237 366367
907 439770 172167
908 939982 223912
909 427825 322968
910 425301 291650
911 819869 5741
912 638427 372046
913 730184 584615
914 -39328 61187
915 693843 577013
916 362050 882490
917 859997 21516
918 733817 531954
919 25079 37007
920 51159 177122
921 691711 546625
922 212504 356238
923 726401 569866
924 971879 308743
925 412219 146822
926 972040 284721
927 972138 281430
928 469941 387346
929 176778 428262
930 248925 317140
931 400548 94100
932 61083 54859
933 646250 378016
934 627539 366414
935 735287 580067
936 836787 102293
937 444056 57290
938 715633 573236
939 419743 137635
940 833794 65180
941 -4728 5908
942 183735 420013
943 907334 265278
944 846878 57832
945 207700 335389
946 700513 550384
947 419045 905777
948 237475 413502
949 778920 582816
950 925474 197950
951 865072 93265
952 236447 379750
953 96116 164860
954 347397 888109
955 697201 515141
956 933849 239754
957 733082 540429
958 928223 290730
959 419214 904584
960 22257 67063
961 904123 186193
962 124815 162298
963 435550 377466
964 75338 8265
965 57064 34194
966 680555 573351
967 719414 520836
968 935055 284918
969 412808 46183
970 470844 101326
971 473185 302392
972 346803 851426
973 381366 846995
974 661911 427982
975 739589 563298
976 661489 449069
977 476896 337392
978 746954 584308
979 454022 139374
980 901620 243372
981 435228 143336
982 217681 361986
983 729699 574793
984 133718 187681
985 172818 355290
986 61804 30858
987 62693 20827
988 235896 346616
989 688752 387527
990 669252 866292
991 929371 248926
992 209098 422297
993 443493 44697
994 927289 281947
995 112817 202332
996 122487 202158
997 154840 393370
998 505779 95972
999 230724 454277
1000 861622 49820
1001 25937 61816
1002 737746 544203
1003 718828 573547
1004 914631 223620
1005 134888 180079
1006 458699 302371
1007 19898 41352
1008 318007 943381
1009 113618 160368
1010 587179 444565
1011 661689 902267
1012 757793 594599
1013 115561 142965
1014 755751 527654
1015 762627 568423
1016 636133 481024
1017 833381 87273
1018 461211 9930
1019 743736 587489
1020 802781 70239
1021 24408 33098
1022 632406 839002
1023 425652 934668
1024 236901 377406
1025 459313 331635
1026 368489 922943
1027 275589 433174
1028 740518 569199
1029 964326 173195
1030 591312 406274
1031 983524 238964
1032 664504 394631
1033 224334 398213
1034 443112 121217
1035 461763 331638
1036 717922 587701
1037 412516 913067
1038 224103 379396
1039 209566 372901
1040 750984 572456
1041 127955 150719
1042 752682 571281
1043 865198 67989
1044 870654 50492
1045 644609 858301
1046 370437 883115
1047 344580 886187
1048 237523 334240
1049 58804 32396
1050 63556 43317
1051 680085 819559
1052 666268 365747
1053 116052 108364
1054 450082 311087
1055 328156 887509
1056 71447 140463
1057 938897 276500
1058 511050 384133
1059 48536 16176
1060 467344 405194
1061 149121 172358
1062 324166 889789
1063 380766 921269
1064 8423 54329
1065 906981 299834
1066 359357 925100
1067 729814 508643
1068 438895 357715
1069 61533 13839
1070 461324 112623
1071 915560 181791
1072 365102 867822
1073 654603 423095
1074 200280 423205
1075 444352 335946
1076 87176 234740
1077 721225 628469
1078 423469 102668
1079 728719 611669
1080 33621 55927
1081 918741 260869
1082 642980 833146
1083 191268 361335
1084 848976 76597
1085 912149 264589
1086 22773 53542
1087 694303 870135
1088 368165 904269
1089 444912 136821
1090 692272 829142
1091 730522 521559
1092 689920 555594
1093 737289 847172
1094 612252 407530
1095 856165 70333
1096 3642 87811
1097 799311 33859
1098 712643 868832
1099 681841 890710
1100 470550 379583
