NAME : portcgen-200-206
COMMENT : portcgen N=200, seed=206
TYPE : TSP
DIMENSION : 200
EDGE_WEIGHT_TYPE : EUC_2D
NODE_COORD_SECTION
1 61558 291344
2 159885 204865
3 839823 815434
4 900308 805981
5 6213 174724
6 116096 250955
7 156124 274724
8 822150 823116
9 865364 705705
10 183344 125053
11 784804 832180
12 947464 973020
13 208831 310142
14 59833 272743
15 1040814 962771
16 848666 899670
17 771911 868454
18 132802 134183
19 935714 862280
20 922558 861680
21 781109 870841
22 183834 222650
23 225025 329353
24 752667 821821
25 37977 358244
26 810851 809858
27 825371 927767
28 969294 815690
29 943403 824770
30 4089 198046
31 892610 855880
32 139857 240208
33 165138 164313
34 69507 220725
35 148315 254838
36 929230 883077
37 852596 815920
38 831155 766735
39 918570 736100
40 184396 154440
41 141321 339689
42 855780 808327
43 270786 268599
44 906408 866749
45 130160 191209
46 865254 969763
47 75367 369427
48 782721 989883
49 834192 782572
50 116496 287481
51 73974 181592
52 174123 228417
53 179512 266157
54 911886 844612
55 790648 887818
56 372150 289530
57 928411 876286
58 882703 804023
59 799562 833895
60 257260 283903
61 949626 814159
62 929286 764055
63 243281 278726
64 931419 755995
65 128126 237511
66 940344 900171
67 942494 761835
68 171431 323135
69 215907 322068
70 166434 212526
71 172598 256712
72 768026 834850
73 866186 775618
74 982104 853301
75 193533 100350
76 183904 334037
77 795761 780683
78 796048 793044
79 237863 340150
80 181892 185439
81 850959 827897
82 106567 332707
83 784011 795557
84 150649 287465
85 971413 757333
86 123493 144114
87 869165 816334
88 913593 1086495
89 865621 777351
90 874534 853100
91 884491 772971
92 201058 277540
93 756203 718285
94 822958 793199
95 186685 301598
96 905541 724161
97 871715 863740
98 806406 760811
99 253690 302156
100 57750 347571
101 918896 853541
102 847754 773202
103 266783 194706
104 178250 381639
105 217038 251260
106 944839 820440
107 764792 880692
108 347240 244172
109 741414 730313
110 902636 973910
111 831476 983521
112 861488 882172
113 822490 807690
114 916470 861235
115 201933 287424
116 737825 801658
117 793970 766870
118 843544 932558
119 206831 252043
120 24700 197755
121 9964 238270
122 786625 683231
123 841919 758979
124 924389 845570
125 911916 928965
126 145426 88902
127 965771 801659
128 197198 250704
129 141714 259272
130 162834 281115
131 836143 949117
132 94911 288246
133 308528 203421
134 154897 188981
135 859533 755548
136 742091 814051
137 225946 241864
138 917352 900964
139 804923 824776
140 906535 802691
141 6409 184938
142 876424 882561
143 872426 856233
144 929208 652344
145 65370 279656
146 845262 824816
147 198412 169930
148 928826 846377
149 675270 791380
150 106734 253092
151 844617 784522
152 232161 247091
153 838898 826086
154 996870 798399
155 83928 325858
156 872890 887001
157 199232 219738
158 934036 767557
159 892881 846745
160 877606 779170
161 214841 254931
162 153343 156180
163 757375 811470
164 962415 936528
165 909312 841553
166 133146 350926
167 776241 919814
168 753907 748261
169 818086 820767
170 120912 141277
171 803176 740317
172 832403 849392
173 822006 972331
174 880050 814762
175 187039 185236
176 783488 748721
177 840179 890838
178 802853 776817
179 174403 135180
180 865711 864735
181 956481 893595
182 43420 295232
183 918909 740441
184 902822 746150
185 130588 252390
186 36228 170245
187 889418 873747
188 861296 838219
189 920608 866708
190 253814 297859
191 923660 996126
192 157264 170730
193 948190 841931
194 11776 296985
195 209767 234552
196 942392 817524
197 832761 810798
198 813689 860760
199 155527 233820
200 864192 793228
