NAME : portcgen-600-609
COMMENT : portcgen N=600, seed=609
TYPE : TSP
DIMENSION : 600
EDGE_WEIGHT_TYPE : EUC_2D
NODE_COORD_SECTION
1 942509 815651
2 384408 507803
3 401501 477349
4 445830 425277
5 981372 829256
6 525327 920220
7 952562 900318
8 988622 901384
9 979158 911875
10 393596 445553
11 977743 745286
12 1012709 843126
13 167516 755713
14 998219 1014534
15 955281 789466
16 974189 766160
17 411828 487242
18 947571 117354
19 887155 36580
20 595248 884818
21 425318 436560
22 563160 977207
23 899893 91168
24 930769 56795
25 362959 428476
26 513190 909760
27 32188 789075
28 1016538 774976
29 1013539 877727
30 123804 733909
31 902217 161671
32 147706 809470
33 1029127 935253
34 928891 145221
35 984052 851599
36 906859 54780
37 1030075 933941
38 932718 50796
39 548459 847745
40 554657 924414
41 417482 523025
42 1022557 915862
43 988431 -12408
44 62211 734153
45 595810 917654
46 119807 810124
47 31356 766126
48 473987 439521
49 409443 498939
50 65477 755004
51 73875 752284
52 911297 62445
53 85986 778852
54 947716 866449
55 79062 707276
56 959975 25970
57 568973 920925
58 567534 894975
59 564291 947363
60 964627 758170
61 73429 774458
62 548117 902776
63 969135 883413
64 428600 468720
65 1036627 958466
66 510666 860627
67 989411 809396
68 539875 902400
69 533947 934339
70 94226 740318
71 118487 772807
72 36557 811639
73 962798 48848
74 982602 980785
75 329749 448521
76 899017 -24090
77 413551 473855
78 962945 45636
79 388644 478291
80 948511 35004
81 978915 64745
82 1007565 806951
83 1114249 943043
84 619552 871903
85 563396 922931
86 979472 861297
87 365880 456620
88 971010 924859
89 130916 734831
90 42402 774786
91 368110 514013
92 926360 926599
93 166739 781919
94 531116 919951
95 407134 471611
96 165765 814596
97 553737 935063
98 413090 382354
99 140410 746090
100 1001239 883463
101 483596 999407
102 114426 783353
103 429519 437166
104 914881 119247
105 932786 801072
106 938377 772757
107 117880 799978
108 892622 90713
109 942948 73842
110 936925 751515
111 377815 422434
112 3078 777000
113 963235 866849
114 14333 823861
115 383441 492263
116 988196 834358
117 559321 1002416
118 943548 730660
119 914974 126626
120 989227 829417
121 426053 459183
122 553836 984805
123 892746 103692
124 986610 944096
125 119656 756711
126 924306 813473
127 921483 122806
128 996531 144953
129 96499 844371
130 959208 101301
131 904138 24438
132 431804 399232
133 511295 889630
134 968846 112776
135 977038 46684
136 1017884 850061
137 949131 96106
138 494719 918714
139 410182 485250
140 467461 474054
141 413727 441882
142 1004609 713301
143 547379 863352
144 991456 958178
145 1029545 933883
146 935605 743088
147 985401 943265
148 1029462 998683
149 80863 815431
150 516251 906581
151 407352 436510
152 981808 845844
153 88709 740416
154 1023450 729331
155 553948 960878
156 1001152 769967
157 373687 515338
158 995823 740953
159 421533 418849
160 629047 877529
161 584166 889368
162 992819 876993
163 950937 906869
164 1030747 726943
165 907527 24010
166 948139 751852
167 1063712 898424
168 897983 44671
169 1033263 809056
170 876791 61855
171 412421 457988
172 610875 937183
173 416241 396145
174 889026 102814
175 1077151 871737
176 92149 762978
177 384823 469057
178 89198 828696
179 584169 928087
180 939494 802671
181 113306 814954
182 44930 763008
183 943429 803358
184 945878 839576
185 119117 766669
186 390043 391567
187 418773 526849
188 1033858 912054
189 896980 121875
190 1038413 875459
191 992604 854993
192 382437 406159
193 947479 894120
194 944192 826875
195 389681 525580
196 68436 719759
197 1022401 791142
198 576763 1009042
199 6900 800163
200 985373 103715
201 899186 800916
202 56109 802768
203 65498 751787
204 1050217 916100
205 986022 30030
206 531495 958289
207 385926 469724
208 556856 872620
209 997709 741361
210 926628 -3299
211 880511 89859
212 415553 452151
213 573678 997813
214 353418 442047
215 982237 855138
216 957367 34113
217 932944 769631
218 936228 68131
219 113749 702881
220 446889 452701
221 437234 895698
222 117394 801779
223 334978 431203
224 983499 13516
225 1014929 914738
226 543418 966543
227 127219 749055
228 1000081 843345
229 520872 867612
230 933736 112663
231 993077 825126
232 590868 968490
233 956023 799472
234 587914 967112
235 948214 885008
236 938332 31547
237 420014 491218
238 970000 84300
239 114134 805081
240 369628 456717
241 482623 994645
242 1020993 989629
243 991718 907289
244 986397 925850
245 443766 439421
246 949334 26010
247 1003136 915102
248 946063 720774
249 548135 893450
250 1008501 786116
251 433277 451431
252 1012381 922707
253 65768 726568
254 882897 110428
255 977640 31813
256 7564 764196
257 1013917 18874
258 975691 730331
259 485784 965270
260 392412 484809
261 83751 820534
262 1012394 725061
263 992134 945525
264 440966 473570
265 955000 108285
266 53258 776941
267 938745 189580
268 58200 829252
269 399194 455087
270 1026455 950942
271 1037330 17224
272 954921 27336
273 427121 495698
274 396822 468169
275 436193 427519
276 988561 882951
277 924570 79062
278 594564 924708
279 100926 770666
280 991028 721635
281 893355 105703
282 418122 478536
283 996500 893022
284 1032028 816380
285 87056 839508
286 512877 885409
287 1015465 714776
288 976620 850351
289 977893 791030
290 506464 963541
291 375548 436723
292 584868 937793
293 77642 702987
294 525216 918430
295 1017604 1018490
296 1014994 807278
297 512670 1020972
298 1076784 723123
299 928224 747839
300 1033103 942219
301 950812 823312
302 1035569 963798
303 412749 584302
304 958983 762120
305 398709 480581
306 994856 923938
307 71542 832645
308 104031 745321
309 438522 461311
310 967969 58280
311 964262 133498
312 488961 437467
313 65477 748539
314 445302 492373
315 999911 773774
316 388093 392467
317 990583 853861
318 519280 858600
319 543873 950378
320 400088 430752
321 925605 803671
322 910417 55711
323 946753 731938
324 357447 509580
325 1032341 773179
326 941916 828991
327 961747 753789
328 446463 490284
329 1034260 58419
330 548296 995736
331 135474 805257
332 893454 53474
333 943673 90132
334 908142 785743
335 1075786 899413
336 483480 982782
337 955102 898817
338 954150 764326
339 521935 872820
340 971991 805068
341 926983 65156
342 960534 930342
343 1026086 77979
344 400584 419883
345 925015 94852
346 979702 781765
347 136112 799943
348 415782 434786
349 1038884 939903
350 1065479 896194
351 552166 907782
352 895976 938578
353 336348 495338
354 376173 421840
355 959318 931407
356 436284 432101
357 980705 865733
358 388158 515660
359 358821 523250
360 933484 877332
361 928519 57967
362 988219 760134
363 366144 480226
364 933819 750841
365 929551 809452
366 492734 414455
367 31245 809909
368 1006979 829598
369 536321 961567
370 950197 68656
371 528575 1006637
372 424956 402139
373 580390 936686
374 955380 99918
375 431324 469071
376 1031949 874343
377 381460 441043
378 110318 723679
379 1017826 983713
380 891607 101924
381 586480 898068
382 140287 742660
383 70067 771734
384 979308 108062
385 485797 995039
386 936452 115248
387 466533 447377
388 963111 94753
389 995303 819850
390 950440 764357
391 388362 500655
392 940840 184312
393 511092 953031
394 132036 770607
395 1005789 868019
396 1057930 825987
397 912875 803675
398 1005144 926842
399 86258 751097
400 985892 934436
401 578535 922806
402 1022006 784169
403 1014263 868156
404 560577 970709
405 904680 75861
406 1006532 760783
407 952769 819187
408 446092 505886
409 1049466 764413
410 913184 88483
411 942109 59168
412 531271 898301
413 954001 819290
414 925667 922035
415 382735 466355
416 959169 914219
417 436799 490141
418 92767 776339
419 894041 53884
420 478031 942607
421 977016 896170
422 424869 424579
423 863168 28079
424 537108 923607
425 980829 923709
426 109330 795624
427 531760 908426
428 80854 690648
429 957956 87480
430 72653 856260
431 975325 772006
432 977824 787340
433 98108 809244
434 1018283 62231
435 1053554 835496
436 506192 966573
437 86360 734726
438 118147 813737
439 443596 525488
440 74621 825253
441 1058806 926052
442 535418 900360
443 1041422 810243
444 511297 946094
445 954559 9958
446 558991 928993
447 896127 42202
448 82176 713690
449 447873 428811
450 1035095 918245
451 995618 101416
452 967392 867076
453 511290 912090
454 995461 917991
455 1021343 922202
456 498520 928719
457 46258 738739
458 398897 486232
459 457295 516518
460 929550 116310
461 396576 362075
462 908162 97944
463 563830 922435
464 413653 450969
465 30182 764850
466 123500 861186
467 59700 772522
468 1042182 771289
469 417272 475138
470 988688 763099
471 446755 396887
472 449449 388167
473 38631 733846
474 103694 747351
475 554657 975785
476 98467 811910
477 465571 892117
478 947150 800633
479 931802 -10996
480 970562 99864
481 362385 506262
482 471591 436971
483 942957 108855
484 1025736 810945
485 932969 84757
486 117197 679328
487 959897 809518
488 597814 938401
489 37557 807892
490 378052 476016
491 1036391 723390
492 416509 475961
493 527189 951549
494 984048 926360
495 1018977 924424
496 539715 911462
497 20694 861791
498 1009182 896825
499 1034359 802086
500 995368 772574
501 970736 908234
502 598588 974142
503 74355 860713
504 50375 801526
505 990825 847334
506 402496 444024
507 961844 839721
508 528966 945822
509 945155 53348
510 445726 494521
511 972324 816574
512 1000673 982197
513 575051 930392
514 1049477 878010
515 531269 1015636
516 94325 765769
517 362740 383710
518 355650 454753
519 968329 879089
520 947302 818528
521 500935 900305
522 1052459 772291
523 1003580 768108
524 407200 421368
525 591774 853004
526 418136 388482
527 1003779 752965
528 543504 880440
529 911528 776888
530 991681 902237
531 83379 842241
532 489212 968833
533 934519 34659
534 373276 453033
535 948095 64317
536 531359 955908
537 994883 82552
538 67198 826453
539 526541 912876
540 1063477 98552
541 972706 852788
542 1024458 864349
543 1044279 928014
544 882117 98762
545 430422 523722
546 1014229 849309
547 98670 703810
548 390223 505168
549 386166 466420
550 10047 752106
551 954910 64181
552 111579 726690
553 1004303 858116
554 921471 805194
555 78706 776466
556 47330 702564
557 549433 893347
558 949129 933471
559 893545 45180
560 66430 766396
561 14362 741887
562 953998 864654
563 118362 761007
564 80569 726269
565 145226 797394
566 1004005 821769
567 950479 71540
568 934329 10405
569 544785 992348
570 961493 915808
571 969346 872167
572 161177 705038
573 121719 828558
574 949642 749901
575 994028 816104
576 940326 798059
577 417923 426332
578 16324 728965
579 607076 941873
580 528952 926850
581 913184 766624
582 938398 760512
583 1018046 843939
584 929927 853611
585 549504 951272
586 577057 862601
587 1018074 807011
588 524661 890498
589 1008797 826775
590 31060 762843
591 1004996 870682
592 961641 862505
593 97363 756001
594 912375 120012
595 942953 39830
596 564503 826294
597 401288 508207
598 68512 733143
599 459166 515150
600 999502 948390
