NAME : portcgen-1400-1405
COMMENT : portcgen N=1400, seed=1405
TYPE : TSP
DIMENSION : 1400
EDGE_WEIGHT_TYPE : EUC_2D
NODE_COORD_SECTION
1 230344 936414
2 427264 514799
3 536310 421319
4 961183 286793
5 626278 815157
6 470195 337544
7 561546 353937
8 646558 803428
9 991969 233370
10 816520 57396
11 125620 937590
12 539638 420262
13 578560 334648
14 115677 998337
15 319572 645822
16 784371 604398
17 -34694 430868
18 93941 969572
19 512536 326829
20 773586 55633
21 470175 300947
22 26516 505515
23 263816 812582
24 338092 659497
25 823479 54896
26 934183 281938
27 623701 818931
28 220285 957612
29 -12230 509391
30 135282 977023
31 282892 758691
32 559698 368830
33 905924 245165
34 271801 840700
35 776993 73043
36 125111 932679
37 828028 58399
38 690806 893637
39 -24507 504596
40 794266 66713
41 89517 944489
42 769619 56796
43 520606 383527
44 764943 570653
45 57090 496686
46 298497 845490
47 34443 438603
48 313564 599120
49 586071 441087
50 566455 425577
51 329187 822497
52 541307 379800
53 759646 881035
54 514108 375132
55 -205 502804
56 31664 483165
57 105420 931325
58 602044 849740
59 785183 611966
60 802097 55910
61 283751 819887
62 805705 88682
63 795141 63316
64 808970 574573
65 563232 434191
66 335008 815098
67 309260 634255
68 798251 509806
69 250714 808793
70 777417 580041
71 250287 846515
72 951609 311814
73 548481 397922
74 697596 902730
75 825587 566691
76 626569 815573
77 514701 379740
78 746310 634993
79 526171 438949
80 387218 566479
81 254720 909286
82 294602 770998
83 852652 51360
84 505079 337101
85 803852 610337
86 398452 562625
87 101403 994482
88 616129 796964
89 105209 988982
90 649897 856021
91 648490 766333
92 490642 301597
93 528625 373971
94 280226 839565
95 654054 807426
96 296130 640821
97 524551 416163
98 569348 816909
99 696460 883092
100 681329 879114
101 1002810 286844
102 459673 562671
103 98153 1027809
104 519926 382294
105 829408 31882
106 101406 988437
107 20432 474059
108 487312 311836
109 586730 355288
110 689575 900731
111 9173 456356
112 826970 72417
113 536062 308379
114 777797 596311
115 612912 755255
116 441540 270497
117 716092 894806
118 942428 328921
119 302538 817941
120 -3331 485012
121 801706 75154
122 274125 828427
123 901804 310513
124 383850 508203
125 188083 942548
126 360719 627593
127 30657 922519
128 79349 501088
129 810132 572817
130 513167 428287
131 828014 26682
132 742851 904275
133 762220 592828
134 298949 635611
135 65121 987704
136 336815 653577
137 321661 642018
138 454704 291392
139 222408 914875
140 264468 970317
141 278092 816210
142 585838 416671
143 782149 38238
144 952005 286120
145 323975 639819
146 573139 414927
147 297698 836167
148 545358 375361
149 358190 580535
150 706024 854817
151 -12019 473729
152 631349 778379
153 988489 291667
154 498832 300484
155 953611 265913
156 525547 418904
157 359809 611012
158 291360 648674
159 784654 81015
160 795917 559953
161 550806 378136
162 758013 936940
163 797685 557632
164 276349 936442
165 960030 268388
166 334912 618637
167 240113 970762
168 763191 553269
169 388345 519445
170 917200 295290
171 500035 404104
172 481552 248258
173 432372 534195
174 538773 434795
175 42824 461283
176 796098 610507
177 814896 601323
178 28345 458018
179 589518 856996
180 526228 373967
181 355891 556172
182 550375 355128
183 590401 823905
184 523795 418325
185 304612 599169
186 226538 900962
187 283253 920422
188 427230 539023
189 460127 237209
190 318867 615323
191 134563 988336
192 507783 395272
193 249141 790749
194 582234 400871
195 110216 950438
196 987380 295416
197 781796 636923
198 502082 369439
199 384161 515833
200 402044 515821
201 941165 330495
202 945919 289667
203 377932 583944
204 730292 892889
205 680807 942183
206 559407 400714
207 512089 361860
208 940654 273616
209 526907 431120
210 263779 988199
211 999751 266659
212 613811 786461
213 780843 58261
214 408641 551113
215 478748 308391
216 653173 855464
217 617179 827871
218 731288 916260
219 411748 550375
220 805102 42496
221 639311 808045
222 803731 56738
223 7341 529045
224 597970 809363
225 959711 251082
226 291563 590838
227 307910 820303
228 10472 497659
229 783451 578565
230 1023487 327812
231 118867 994123
232 744912 880312
233 100001 970800
234 479833 287212
235 131274 939255
236 287072 636462
237 600313 360592
238 546464 377977
239 99063 1006077
240 511905 391110
241 546948 368853
242 -5167 477121
243 530648 411371
244 803667 67901
245 714316 879560
246 357961 645162
247 258332 883244
248 518882 300387
249 790401 76428
250 233141 779451
251 513581 314017
252 360393 552624
253 511360 447337
254 462227 479424
255 836829 590633
256 334185 643945
257 969857 266663
258 224553 947940
259 245434 923593
260 812767 595802
261 609267 811328
262 561793 433287
263 809871 575000
264 286893 768896
265 201766 779767
266 195113 941334
267 733373 940164
268 316966 818082
269 253928 808067
270 489527 332052
271 202042 940641
272 204996 918274
273 201609 919598
274 653385 865402
275 294271 640307
276 951344 307193
277 -25710 463436
278 562759 352244
279 1011323 263217
280 307469 824989
281 532041 395697
282 728728 888307
283 617146 486316
284 780654 75147
285 363976 650833
286 704837 942399
287 716473 900448
288 799206 624841
289 -11699 471240
290 15560 500488
291 -44511 460818
292 93745 963580
293 526843 438485
294 782944 554673
295 971698 260891
296 748303 915593
297 140054 982211
298 365141 550870
299 586555 840738
300 751259 104093
301 538669 319405
302 990508 246973
303 530367 393518
304 220854 978264
305 805530 610537
306 91363 999410
307 299451 570566
308 130087 950033
309 123674 961909
310 306008 788234
311 436913 323427
312 299301 826291
313 593584 757123
314 540255 473919
315 562828 397964
316 310774 576572
317 673264 792016
318 591325 800777
319 801961 591758
320 537265 423489
321 152406 1003984
322 26490 466207
323 787350 581202
324 294201 813113
325 144525 953636
326 523420 356190
327 124860 1000117
328 486700 397401
329 286641 607433
330 348354 630138
331 394605 476757
332 316529 612047
333 995792 301226
334 479314 391354
335 719821 879525
336 403273 505050
337 433636 281613
338 532043 296554
339 959378 259885
340 131064 1020044
341 749083 912832
342 304138 792950
343 466723 279136
344 460296 309021
345 140357 980900
346 559926 391886
347 634575 841879
348 287033 800527
349 593244 835639
350 710285 870848
351 220490 805562
352 766921 91535
353 950153 302467
354 555462 412072
355 240483 915090
356 759673 629746
357 741141 59000
358 133259 967808
359 805448 39948
360 6042 484767
361 498197 319649
362 546353 342702
363 746056 904934
364 530827 412370
365 364768 532917
366 -12456 493388
367 1013229 335641
368 634184 792723
369 1021161 279768
370 837921 593360
371 314263 624745
372 550131 407821
373 702014 881761
374 527536 439306
375 462063 332984
376 298063 822561
377 257018 798331
378 744765 921593
379 966900 303039
380 585080 466100
381 254514 807807
382 227897 940032
383 281047 847427
384 257827 774807
385 489643 312956
386 724845 874498
387 780761 596297
388 689612 921639
389 591501 323559
390 664882 895904
391 412139 539669
392 457062 299204
393 559749 400128
394 91442 1020993
395 20062 430208
396 533570 380607
397 933195 280002
398 822626 82941
399 789097 59471
400 638566 844189
401 72604 965748
402 314268 592677
403 708841 900630
404 777672 581435
405 457059 512512
406 96492 967375
407 737717 829409
408 15754 455982
409 568656 394034
410 12551 499021
411 763876 613609
412 829499 572391
413 76321 986077
414 774812 619588
415 666519 827904
416 304678 623734
417 524567 394771
418 960958 281446
419 934270 290762
420 199338 956065
421 506452 435744
422 556446 367999
423 56405 968100
424 618627 406872
425 382299 566321
426 445423 268821
427 531083 358922
428 594151 788356
429 786579 560554
430 543106 463517
431 759077 901122
432 81548 969986
433 926918 351393
434 31298 473128
435 756639 896547
436 -20523 459860
437 352299 627656
438 387504 583161
439 192880 972700
440 371178 543359
441 333816 660924
442 -5374 477040
443 -35945 488033
444 772944 575425
445 793972 587690
446 778064 70048
447 129065 1029814
448 967420 255808
449 555507 374512
450 344856 590760
451 543419 374705
452 499212 343246
453 492269 292031
454 826064 102637
455 489550 328542
456 576424 484031
457 499485 317795
458 431843 567525
459 528142 376694
460 124034 985637
461 781313 649911
462 930011 326024
463 497121 291376
464 321124 652745
465 451898 306099
466 543958 345756
467 98588 953611
468 506281 310756
469 387730 528783
470 220349 918100
471 821849 573260
472 821257 599935
473 650818 784360
474 126681 950970
475 406423 501169
476 271276 844059
477 788232 27410
478 715270 851749
479 697221 814348
480 11439 459814
481 493977 410785
482 280832 829938
483 487338 311975
484 506790 378802
485 241663 673907
486 982632 273723
487 535110 404884
488 366258 606476
489 795448 21402
490 434012 307300
491 14717 500458
492 534215 356552
493 84432 988157
494 109517 954017
495 27044 476999
496 99361 956424
497 8442 471389
498 738086 884832
499 591286 825267
500 76352 933570
501 556065 769043
502 780455 79663
503 601949 796251
504 798270 628212
505 557594 411343
506 960366 259720
507 426063 502665
508 263247 947718
509 605770 360709
510 989303 294867
511 146019 954801
512 545667 410269
513 827794 609464
514 332624 588640
515 299416 613543
516 975241 300458
517 554825 376646
518 278421 830348
519 914180 279549
520 970785 319424
521 528596 344292
522 733814 875378
523 328955 632260
524 636276 786484
525 124558 948486
526 941321 273986
527 994243 284120
528 752406 60522
529 522054 443535
530 337655 620362
531 32143 466055
532 539148 345387
533 783793 53597
534 266995 817324
535 994864 277650
536 334656 653907
537 341633 645940
538 155548 972779
539 312268 769781
540 714434 866479
541 695289 885239
542 508292 463512
543 535086 391002
544 119906 1004121
545 710859 906807
546 51722 531563
547 642641 848940
548 287268 826048
549 433203 559571
550 106823 960872
551 272816 764323
552 77848 946011
553 622396 808677
554 584886 805549
555 409936 509457
556 288384 640625
557 584788 410049
558 1010648 299108
559 24294 531936
560 681485 925513
561 789203 54191
562 788068 29328
563 129491 986465
564 765383 620279
565 585666 808726
566 364939 617096
567 505106 436089
568 33665 500286
569 823760 582134
570 13158 468207
571 410967 538127
572 364774 524948
573 594058 366780
574 605528 814828
575 300647 628283
576 598768 805117
577 -18739 505362
578 15115 454350
579 834148 94428
580 241535 900355
581 775698 66082
582 414040 502387
583 848869 63099
584 247338 992754
585 708504 892773
586 942588 275848
587 634751 826608
588 776333 623172
589 415196 538033
590 669072 813382
591 113061 921666
592 573837 386221
593 76867 989264
594 473779 310295
595 557455 376428
596 591861 419900
597 751375 11049
598 993759 302451
599 700997 870884
600 950031 245322
601 319987 633472
602 334327 806542
603 498824 406800
604 591607 819616
605 856332 45476
606 679981 819416
607 550581 431525
608 154415 933555
609 837204 582487
610 339871 638381
611 119715 1013439
612 316555 823179
613 480520 253797
614 475315 312542
615 503470 301604
616 723601 859585
617 998499 315615
618 544195 357512
619 810217 18209
620 103175 955201
621 367330 535074
622 221876 940024
623 965215 302175
624 255160 937654
625 142922 957828
626 544161 391494
627 598671 819516
628 629601 813956
629 279825 792119
630 98489 953612
631 206547 949267
632 513168 427002
633 954944 291990
634 572381 412324
635 1019342 297632
636 544544 411601
637 46083 502463
638 277002 967073
639 316374 616443
640 629353 802057
641 287852 958261
642 785948 58509
643 697827 870191
644 645256 766814
645 192224 985522
646 644632 822867
647 71181 1017146
648 5033 508682
649 226718 961466
650 143881 996676
651 833706 620493
652 643446 812433
653 119497 988145
654 524464 438486
655 398642 530805
656 126530 952782
657 22200 532028
658 577387 411742
659 776561 563031
660 1016204 317051
661 974976 297705
662 568488 422182
663 209415 976126
664 787257 75487
665 249138 585344
666 292006 773064
667 953646 275828
668 433910 523599
669 320501 619869
670 275003 646819
671 730488 591006
672 526240 345354
673 281922 592418
674 521420 304591
675 725325 889313
676 291266 582046
677 797258 579998
678 133790 930795
679 771991 613215
680 578881 794470
681 568006 417191
682 740167 899724
683 524503 442366
684 620410 811967
685 205777 946886
686 249776 980122
687 733156 930250
688 965877 289144
689 233700 918799
690 593666 437189
691 381324 605507
692 218284 908154
693 638357 791827
694 1001487 291001
695 272113 963633
696 676282 875271
697 793836 610512
698 537971 394032
699 974543 269974
700 997789 320200
701 161500 932777
702 608179 795426
703 106820 986590
704 463737 521111
705 453147 326207
706 634548 774853
707 530151 411956
708 9327 492201
709 961209 344121
710 239102 940600
711 795736 20940
712 756189 598918
713 746013 582874
714 442639 269830
715 824393 93586
716 -22465 461689
717 557482 410935
718 80401 961716
719 323928 621178
720 461016 278366
721 760138 33615
722 590520 375553
723 415987 543866
724 234393 947048
725 222406 915880
726 330263 670953
727 980637 245796
728 799689 43262
729 200977 915024
730 374690 620126
731 821163 38331
732 256697 787479
733 736656 936683
734 521571 398057
735 562174 401317
736 -7434 462277
737 615216 803083
738 201957 961774
739 714291 875218
740 1002970 227845
741 575060 417693
742 603168 772601
743 712356 873376
744 28254 499887
745 733404 578586
746 942934 301030
747 165683 982782
748 271941 821748
749 227864 957724
750 754609 49230
751 724023 887537
752 507545 433299
753 811533 550022
754 324669 770015
755 126254 978774
756 504635 307680
757 552979 402723
758 948862 297061
759 737498 101084
760 20438 496343
761 542211 260890
762 200508 942292
763 531320 454034
764 503321 428946
765 301225 620033
766 419646 547338
767 123557 990295
768 559474 430857
769 105784 985929
770 465991 285877
771 136996 939201
772 294019 826954
773 582916 362669
774 258855 918890
775 359416 630192
776 796418 55900
777 852312 -1510
778 376455 501418
779 419271 532109
780 208126 951091
781 501813 308683
782 627483 762882
783 974081 296860
784 263053 890521
785 766026 59362
786 334438 822831
787 112789 953877
788 242480 866975
789 738458 905082
790 360168 482554
791 934473 292151
792 285037 757601
793 103788 965416
794 808112 625704
795 306829 783265
796 597040 790343
797 427589 567506
798 826980 78198
799 50606 460445
800 138975 974980
801 188444 912334
802 642735 796616
803 11845 539755
804 711971 936017
805 859261 97674
806 806654 56582
807 800724 49589
808 295808 592529
809 704996 908005
810 551521 479367
811 -3847 468935
812 507446 306148
813 743930 891458
814 752866 909544
815 671383 810481
816 610025 833581
817 222522 949364
818 601006 799707
819 414244 562508
820 655832 824174
821 31353 499155
822 588543 379190
823 524758 314723
824 514281 494217
825 798520 592361
826 493362 264441
827 628654 776925
828 32030 985754
829 276908 810978
830 222651 950391
831 411387 539544
832 319081 612547
833 -17285 474283
834 605227 807328
835 804704 51710
836 987992 295772
837 342521 628409
838 195306 922227
839 578787 355779
840 526232 418556
841 1001656 277896
842 548588 369371
843 71690 1010847
844 563208 429568
845 948371 325879
846 135400 1012749
847 415186 524704
848 338058 615548
849 316638 640119
850 500452 305955
851 619394 807927
852 832837 36598
853 -4744 463645
854 489552 315192
855 518701 288732
856 777687 42034
857 832196 82463
858 -18557 411321
859 291152 782055
860 210514 952871
861 829243 33044
862 959057 330420
863 314209 751393
864 965241 293397
865 254614 814042
866 361107 548841
867 307211 789118
868 246123 930221
869 764689 917195
870 100032 1002434
871 808928 581049
872 666175 793853
873 406833 533280
874 390714 584137
875 582579 811336
876 218998 945793
877 963483 331595
878 428688 284270
879 992693 282006
880 732008 859797
881 416313 520037
882 598214 807650
883 550738 346818
884 897121 251464
885 389857 544730
886 400124 507963
887 541411 417584
888 311414 611501
889 540679 397757
890 719299 907787
891 -5392 487054
892 221393 933801
893 568825 358175
894 514272 285236
895 140383 1014234
896 541009 442749
897 711347 903126
898 -2408 454171
899 733578 858106
900 2340 469997
901 228928 925325
902 447635 276413
903 268291 759275
904 792603 617904
905 104774 975812
906 624731 800705
907 553318 386073
908 524298 422935
909 568442 443376
910 295888 791950
911 757771 864571
912 325257 796645
913 541907 375736
914 319193 798006
915 497001 433598
916 355574 543522
917 779269 575123
918 785390 55071
919 825972 86030
920 959257 272866
921 439666 566225
922 636442 773437
923 748466 885462
924 812525 559898
925 733259 866171
926 257292 939362
927 283025 926061
928 305138 620945
929 942623 261699
930 696059 908750
931 781729 622409
932 796129 602645
933 263761 819898
934 815283 46629
935 525807 436218
936 389632 496369
937 605208 802762
938 421295 515237
939 387227 556221
940 966084 280544
941 733402 915773
942 467427 281794
943 525902 368673
944 511074 394381
945 69490 502441
946 432140 509716
947 558932 357219
948 566714 418511
949 736226 857526
950 782556 574507
951 717419 899266
952 989521 296584
953 519876 322381
954 789607 609751
955 613067 813045
956 826113 46919
957 276842 778087
958 667834 795364
959 644682 812981
960 494619 294292
961 825946 33451
962 -54148 485057
963 244775 858365
964 542845 446004
965 524899 412848
966 792220 577875
967 724749 899714
968 524355 435576
969 124145 1010588
970 448492 344987
971 122388 981371
972 533984 408459
973 758174 619865
974 548809 453430
975 8895 533447
976 482751 351830
977 592428 340198
978 512592 275701
979 104006 1011373
980 444249 314038
981 623831 814401
982 965245 261478
983 614173 800737
984 435592 336508
985 1017414 382422
986 464519 288822
987 412128 502074
988 991946 313137
989 977977 304892
990 640421 780302
991 987245 310007
992 289731 815112
993 590016 779674
994 107763 960792
995 730280 904104
996 623513 754140
997 131036 981198
998 688599 922230
999 406788 524222
1000 962804 275746
1001 779416 68108
1002 218653 928457
1003 238981 981030
1004 561357 372978
1005 823926 24990
1006 329164 839271
1007 943677 266532
1008 527515 354476
1009 319031 615881
1010 775512 603271
1011 5728 479326
1012 705259 923882
1013 -17290 454554
1014 464808 338983
1015 356360 622705
1016 102498 981262
1017 16229 505670
1018 800417 66101
1019 510874 436510
1020 459022 329664
1021 365989 485775
1022 222907 907394
1023 279460 737080
1024 618954 800055
1025 606784 815880
1026 969335 323478
1027 812249 61611
1028 106127 982602
1029 810668 583046
1030 788648 568807
1031 576729 428903
1032 187099 926852
1033 739314 608090
1034 356288 617050
1035 540414 429270
1036 369846 519354
1037 405064 540968
1038 993406 317086
1039 310546 588914
1040 795721 60776
1041 39935 494459
1042 513547 386229
1043 83738 934828
1044 540283 421778
1045 1031741 316426
1046 315502 599851
1047 143304 974486
1048 399270 525110
1049 971738 262807
1050 316419 622291
1051 696210 921592
1052 586877 409391
1053 536424 396622
1054 275146 834901
1055 826346 43113
1056 14536 460715
1057 520053 438207
1058 723502 931204
1059 547126 343156
1060 444413 323420
1061 379799 495879
1062 99316 980849
1063 424238 525997
1064 781708 576569
1065 999071 269584
1066 594821 329774
1067 288597 758191
1068 392710 571513
1069 276642 934197
1070 228861 917292
1071 305994 814382
1072 82992 974733
1073 993681 283819
1074 589305 788031
1075 804641 617995
1076 751596 599120
1077 959250 310218
1078 289600 789594
1079 724961 926438
1080 616846 848610
1081 642843 794098
1082 366845 655349
1083 293360 761921
1084 570637 374199
1085 630086 820395
1086 28109 482002
1087 542497 363136
1088 384273 564393
1089 531192 410287
1090 494982 340690
1091 145891 945097
1092 252505 774218
1093 398550 544595
1094 781567 621582
1095 56898 464389
1096 128095 946267
1097 534882 820898
1098 544264 381671
1099 925549 308453
1100 530232 431620
1101 343687 633175
1102 493166 289234
1103 -7572 455718
1104 777794 89404
1105 32509 496877
1106 298248 950482
1107 526829 425362
1108 802309 606913
1109 520531 382937
1110 289668 984991
1111 401150 292676
1112 342274 628810
1113 485524 306440
1114 749152 35258
1115 642157 802351
1116 366136 537257
1117 -20384 482900
1118 404467 541342
1119 340291 670656
1120 473030 298799
1121 363843 522474
1122 294564 871368
1123 815574 29326
1124 582187 458219
1125 264580 939793
1126 397823 487277
1127 611715 776648
1128 343991 612737
1129 577230 400804
1130 973046 245918
1131 508502 457142
1132 109145 1002286
1133 399189 587769
1134 602404 846081
1135 768351 581200
1136 1035689 224087
1137 233529 931637
1138 784018 588196
1139 430909 561803
1140 408883 535338
1141 391323 532436
1142 805581 605541
1143 819961 637559
1144 244148 792191
1145 795869 72030
1146 103984 974150
1147 695075 926657
1148 565118 389681
1149 571750 425011
1150 584078 379533
1151 818521 74627
1152 631689 762389
1153 760956 612398
1154 415528 553873
1155 562027 411102
1156 54746 505406
1157 580057 352802
1158 389186 597124
1159 693834 877351
1160 -2045 479218
1161 399717 536759
1162 965526 281924
1163 613029 829088
1164 829062 13170
1165 413491 523192
1166 809457 90887
1167 313696 810790
1168 322188 658622
1169 757762 616166
1170 499322 419544
1171 19233 484203
1172 307779 682300
1173 -19416 414912
1174 635573 810230
1175 504627 480483
1176 555900 440614
1177 212922 921913
1178 1002134 272202
1179 261590 812633
1180 115928 971093
1181 560614 376055
1182 783260 623103
1183 477084 299865
1184 816413 613611
1185 90145 979050
1186 307643 596189
1187 641793 808875
1188 582088 436352
1189 547684 410132
1190 601546 766384
1191 287201 773925
1192 699188 846594
1193 972412 272706
1194 255192 784870
1195 640013 845431
1196 391953 537223
1197 734222 863123
1198 188682 926554
1199 546875 435377
1200 639577 787296
1201 646236 805760
1202 7168 453215
1203 749564 602490
1204 644882 776854
1205 225515 946244
1206 568611 441829
1207 818057 566886
1208 395985 547775
1209 2698 492162
1210 964433 286255
1211 -9387 502083
1212 624308 798309
1213 -7575 492442
1214 223826 930673
1215 227660 985916
1216 396176 552181
1217 426462 570099
1218 536036 389668
1219 673467 867774
1220 239467 947983
1221 960904 234637
1222 1005257 276178
1223 659008 851378
1224 519270 329233
1225 947048 322726
1226 991421 355882
1227 808166 98023
1228 835637 35730
1229 325066 655994
1230 -34142 456170
1231 18298 507340
1232 467414 322655
1233 -5003 491968
1234 591637 817878
1235 546500 448314
1236 792388 561552
1237 12456 451642
1238 622677 401232
1239 216 483215
1240 860747 64246
1241 272110 620549
1242 967329 288563
1243 611105 375672
1244 -19381 497673
1245 603781 772296
1246 -15273 442920
1247 361295 595563
1248 333765 611414
1249 316936 638781
1250 574787 425292
1251 504428 288391
1252 592705 810649
1253 731528 870018
1254 933438 243854
1255 612679 839254
1256 523848 415092
1257 450230 291433
1258 533266 332564
1259 822964 82972
1260 290133 739957
1261 404810 528482
1262 291694 984825
1263 819200 57072
1264 785580 61277
1265 606148 821162
1266 744370 55626
1267 310146 643764
1268 493336 375895
1269 545469 415026
1270 501962 394335
1271 293570 606948
1272 808250 624774
1273 304384 844957
1274 542564 348928
1275 757632 591465
1276 327963 611028
1277 121722 971361
1278 550466 414017
1279 700526 863431
1280 957793 318400
1281 622669 828794
1282 630580 816474
1283 542727 473425
1284 330927 575166
1285 81185 455183
1286 313112 591212
1287 545742 407099
1288 93493 940221
1289 197526 979139
1290 676901 784967
1291 236524 969480
1292 306105 810704
1293 290879 827103
1294 681141 861502
1295 382268 579462
1296 463803 313363
1297 258076 777994
1298 994616 274677
1299 274931 802235
1300 263366 787940
1301 588276 408256
1302 479454 294309
1303 544461 453847
1304 1013716 273371
1305 985629 300313
1306 419595 327506
1307 127012 932694
1308 98161 993104
1309 538365 393478
1310 418115 504070
1311 481922 298320
1312 801728 95208
1313 88740 956587
1314 601962 839676
1315 499779 407714
1316 107532 986697
1317 330074 625439
1318 250179 810069
1319 160082 979919
1320 568125 818308
1321 667950 784215
1322 969255 248961
1323 576075 388591
1324 82749 953460
1325 683218 897224
1326 27113 490767
1327 351891 519064
1328 951289 261203
1329 535881 390567
1330 588764 379004
1331 548377 438544
1332 223363 943260
1333 325217 628368
1334 516314 278924
1335 443827 292154
1336 491193 295033
1337 646035 787889
1338 283455 655722
1339 940146 281999
1340 342989 823251
1341 647751 764708
1342 97941 956869
1343 338206 588882
1344 526535 294352
1345 -8371 496473
1346 373107 528981
1347 986277 242759
1348 793487 93748
1349 281131 883050
1350 798835 614847
1351 745601 884157
1352 325425 673414
1353 143088 1002736
1354 517215 425534
1355 553093 427594
1356 486654 345136
1357 277593 843790
1358 555252 341440
1359 520633 402220
1360 452136 313708
1361 708119 847928
1362 690258 885237
1363 724098 890528
1364 47583 482277
1365 540454 454964
1366 389622 653284
1367 560393 431446
1368 997113 327837
1369 617538 816639
1370 534118 350083
1371 601560 824588
1372 792038 589669
1373 563541 336282
1374 123761 965603
1375 11372 481287
1376 771570 569612
1377 540425 370146
1378 976238 307205
1379 796121 636357
1380 353245 618215
1381 601642 843998
1382 835458 61829
1383 718973 843227
1384 198952 949619
1385 912923 285358
1386 511357 411097
1387 729672 585801
1388 833135 61014
1389 777860 588027
1390 -26788 460303
1391 110142 970754
1392 24300 528468
1393 -40499 522260
1394 821728 50522
1395 584511 434961
1396 801837 595964
1397 794353 119339
1398 831407 59993
1399 782096 59749
1400 550214 346867
