NAME : portcgen-300-305
COMMENT : portcgen N=300, seed=305
TYPE : TSP
DIMENSION : 300
EDGE_WEIGHT_TYPE : EUC_2D
NODE_COORD_SECTION
1 483471 -36978
2 536925 -70384
3 17541 476480
4 142608 535824
5 607800 83207
6 502305 -38872
7 778844 745194
8 651074 821707
9 627946 930557
10 469313 -13056
11 646425 957559
12 507191 -24104
13 833425 891312
14 41265 499219
15 119153 491582
16 495093 -70882
17 435632 94306
18 471086 31446
19 568562 -42642
20 614302 860067
21 124444 455181
22 529454 40629
23 98522 576403
24 653672 11406
25 499754 -30599
26 485047 26255
27 663143 973379
28 572744 -52553
29 429909 3777
30 116350 581442
31 60076 607165
32 514053 38299
33 74690 566420
34 542210 20574
35 71262 498665
36 22083 507524
37 577707 26880
38 428998 -51776
39 407821 19085
40 623792 969991
41 678604 997783
42 734228 854334
43 174743 507124
44 616034 942126
45 780850 980319
46 342073 2184
47 667635 903145
48 639475 940605
49 529156 -12107
50 450473 20736
51 491572 103803
52 35472 497363
53 101371 618295
54 450803 26876
55 701897 863591
56 707970 826601
57 438593 -18206
58 672320 897549
59 481137 27093
60 744381 901679
61 490993 6860
62 478575 43963
63 541722 14820
64 503262 19561
65 23253 566040
66 725007 918843
67 65507 492958
68 785363 990027
69 596429 912484
70 694235 841442
71 549188 -77539
72 481484 80299
73 611700 896158
74 -29575 461519
75 61836 533573
76 691468 957073
77 465966 1094
78 711808 976250
79 34810 571247
80 747256 732967
81 532267 -61056
82 586420 836305
83 487091 9676
84 41277 504717
85 95375 579824
86 695276 845459
87 448396 28555
88 573973 977965
89 664960 898313
90 -12571 486775
91 360515 -81448
92 464768 28680
93 -8838 544245
94 603221 901967
95 604094 914215
96 49233 490014
97 757333 864951
98 707608 863291
99 506694 -3243
100 -76135 503555
101 694178 948946
102 659889 895714
103 471543 -41255
104 94448 482251
105 653278 856633
106 31184 489130
107 174590 471076
108 702924 968139
109 183343 519837
110 535819 33430
111 643386 909390
112 113237 622580
113 26024 391903
114 757933 963241
115 32394 499949
116 662807 797891
117 477365 20382
118 812602 914623
119 516690 -77390
120 105033 472439
121 698608 796726
122 689409 873776
123 458457 -34799
124 387657 36453
125 114932 613995
126 463561 34888
127 563259 893945
128 559984 -86837
129 703474 871516
130 102625 495185
131 438156 -127792
132 706107 935486
133 737335 922955
134 443183 51954
135 598089 44144
136 676283 877642
137 643291 897734
138 487636 -23085
139 522412 4991
140 622645 875845
141 414488 74578
142 665877 922881
143 678699 859684
144 356502 29824
145 134414 485993
146 497947 -2236
147 464869 -77516
148 112599 631199
149 511679 91754
150 106274 573422
151 648062 898207
152 614646 -7605
153 569603 806054
154 706660 926155
155 23196 506244
156 659203 969753
157 47056 498691
158 589462 60356
159 658601 772962
160 445645 -7345
161 645203 833506
162 50550 467257
163 698692 922165
164 661194 892335
165 441673 -62213
166 654815 791887
167 683456 995431
168 551518 17178
169 -10938 529422
170 552082 89194
171 451889 67675
172 11519 493229
173 449905 -72584
174 557834 102884
175 698364 850954
176 483873 -30565
177 483305 4577
178 671342 970402
179 497402 140168
180 730024 930247
181 141939 430770
182 478022 34768
183 533668 -24865
184 500768 -33936
185 719018 1056238
186 453672 -12963
187 527608 8308
188 635806 929245
189 706326 942108
190 693021 973579
191 19631 517397
192 49533 599478
193 23604 596492
194 690060 1019371
195 405214 123638
196 546803 -48716
197 666326 861468
198 511006 -3517
199 621145 840677
200 472777 88275
201 359545 67834
202 62838 581265
203 58604 535950
204 524600 -107379
205 100045 486865
206 510784 -45546
207 570993 45302
208 154728 538215
209 691460 796637
210 766201 940039
211 2711 496707
212 26029 549422
213 522590 -61461
214 87663 540925
215 672845 899417
216 652895 984953
217 669135 854796
218 563886 60684
219 90507 468229
220 623417 926419
221 88411 508670
222 642705 941018
223 -7172 482706
224 587840 831231
225 788425 919973
226 103228 485948
227 580335 42648
228 94171 430493
229 624699 937743
230 543765 -35956
231 -12721 532419
232 600204 918893
233 731342 923249
234 678307 915420
235 428023 26965
236 146361 480973
237 607521 881231
238 582263 82998
239 187627 598526
240 11658 451919
241 694111 852343
242 450770 55415
243 630209 873691
244 718769 871547
245 59300 485166
246 669158 874942
247 103093 573600
248 107040 506210
249 546192 12322
250 3997 567598
251 106404 411144
252 126302 496406
253 582509 -18324
254 44544 580273
255 617750 911457
256 92047 441635
257 705784 805240
258 137582 570384
259 541124 -78865
260 560722 -9040
261 582964 907851
262 456272 30038
263 62310 557902
264 577721 90617
265 129468 599636
266 498846 27731
267 699022 823285
268 676024 929734
269 56581 523406
270 121920 491271
271 236717 475330
272 508720 -63971
273 95223 553305
274 682693 912487
275 759242 869784
276 587125 42853
277 374787 180095
278 771576 913763
279 730014 907405
280 691531 863488
281 643186 908204
282 102588 582806
283 458538 -52285
284 120501 599494
285 575805 -33250
286 122851 427223
287 16186 499055
288 453655 54892
289 630376 893594
290 503559 -2629
291 583638 872068
292 -84783 479720
293 784653 905033
294 505706 129619
295 755730 983114
296 79737 571366
297 726558 952770
298 94154 510327
299 468280 108162
300 789263 958746
