NAME : portcgen-1200-1202
COMMENT : portcgen N=1200, seed=1202
TYPE : TSP
DIMENSION : 1200
EDGE_WEIGHT_TYPE : EUC_2D
NODE_COORD_SECTION
1 726468 690121
2 264476 467859
3 284002 132671
4 286311 78808
5 436719 52432
6 334439 94675
7 790876 672368
8 842195 39434
9 279175 465547
10 325275 436032
11 797418 967560
12 443780 66700
13 271738 149774
14 773249 419006
15 769602 637830
16 276547 500662
17 819900 114047
18 589517 940587
19 255356 456006
20 476300 432231
21 556137 1022965
22 750560 309404
23 309533 92145
24 831192 51249
25 593918 985569
26 341671 103784
27 786849 923861
28 593958 953017
29 727371 639930
30 749149 652841
31 434561 17834
32 747714 655654
33 770234 77237
34 333268 104338
35 294010 425934
36 760943 634547
37 254551 515498
38 547981 994825
39 258357 496030
40 746089 298149
41 301405 424269
42 522417 463478
43 197383 905574
44 206414 874732
45 261430 83774
46 831246 465476
47 817756 982874
48 760779 273974
49 311585 85691
50 741518 637607
51 808979 443824
52 308794 96909
53 456457 463686
54 256067 452952
55 710384 661105
56 194046 831524
57 737400 648895
58 774987 317763
59 268629 113353
60 818961 110248
61 819698 92825
62 809639 1005890
63 726428 970137
64 455983 54057
65 805488 611285
66 337950 59117
67 789059 598114
68 339881 113647
69 816272 933436
70 839499 475152
71 427765 36716
72 805860 85652
73 308521 95284
74 298610 60111
75 822748 96949
76 777900 306731
77 545604 955300
78 744141 278855
79 817757 277226
80 436018 57533
81 784729 48838
82 182001 821029
83 414816 59439
84 260001 116886
85 470198 36051
86 237662 416991
87 476815 68283
88 768806 911005
89 822131 995722
90 790692 932831
91 215229 859460
92 755011 669041
93 227356 478000
94 443696 3294
95 581913 959772
96 784320 344686
97 759986 323830
98 271680 490443
99 791828 465831
100 475640 461744
101 544947 459365
102 289075 464955
103 229289 37368
104 749394 276978
105 295846 45735
106 754331 661314
107 329340 121647
108 814559 59457
109 828245 924330
110 288598 434893
111 780669 320194
112 481147 435862
113 732770 254226
114 821051 432005
115 306025 9502
116 749940 293468
117 783416 427891
118 835406 117613
119 300009 90871
120 793431 80663
121 755099 418284
122 735618 649442
123 140057 898698
124 327566 180751
125 791836 589234
126 537587 942965
127 764073 306347
128 814557 420823
129 847229 74470
130 527189 440856
131 831799 475770
132 800933 616002
133 441768 -48200
134 282948 88343
135 779521 373155
136 834783 434227
137 540873 499219
138 817623 906512
139 807556 441070
140 829782 105210
141 266772 123634
142 249398 887046
143 305243 40367
144 775837 281668
145 775753 115990
146 765102 918318
147 719222 682021
148 493562 499405
149 530655 433166
150 748177 436791
151 452951 -7315
152 347963 100945
153 790394 69051
154 735437 640418
155 765639 319706
156 488449 451931
157 436944 27434
158 781866 652531
159 193238 872864
160 148501 829863
161 363766 134756
162 559453 969856
163 496648 6374
164 733333 981798
165 204734 888814
166 368767 122783
167 229543 865379
168 799862 958018
169 813001 402358
170 742364 69874
171 480377 477595
172 307290 115577
173 835892 104096
174 206138 781871
175 347011 134754
176 539280 474964
177 763056 333611
178 799595 899463
179 719570 258127
180 311323 113479
181 313451 112622
182 753596 282844
183 286718 94752
184 802518 966200
185 756115 256316
186 192502 891388
187 749565 687975
188 767543 325238
189 245019 877428
190 310576 94781
191 820823 386411
192 323138 153114
193 468349 45479
194 182750 856370
195 835803 95318
196 284207 482143
197 233383 510954
198 246931 127819
199 725297 325319
200 336662 51266
201 828270 88438
202 775970 1003056
203 471659 430808
204 466235 106389
205 156557 887951
206 778978 951420
207 854664 983788
208 747441 101506
209 437470 36399
210 756705 917680
211 509715 476771
212 724704 976769
213 732398 624985
214 457838 62152
215 725457 965001
216 748182 264421
217 316971 81026
218 742626 644792
219 210182 848440
220 703975 284592
221 301355 497324
222 495917 418365
223 800699 276083
224 770308 425644
225 173721 852731
226 782021 432355
227 522279 942595
228 155625 874359
229 319479 69473
230 308144 464391
231 838211 75866
232 821785 371503
233 738012 112051
234 796673 387894
235 799642 663513
236 775566 959020
237 721391 306262
238 836821 937000
239 755554 657250
240 440422 39130
241 302143 76311
242 416738 43263
243 463091 46517
244 224157 854255
245 814618 990433
246 271400 75497
247 581927 995381
248 827653 415241
249 744566 286987
250 310606 113928
251 817376 933486
252 783577 277016
253 774327 60502
254 522565 503775
255 235661 873199
256 190960 859924
257 724645 466661
258 781285 333521
259 759791 257475
260 481145 56631
261 793190 131709
262 774807 323453
263 558011 971051
264 823989 129762
265 764773 650078
266 869060 24191
267 774322 921646
268 818624 954712
269 822121 113641
270 838440 78840
271 498306 436170
272 739240 662789
273 504606 446972
274 581588 984019
275 519637 424319
276 424829 5303
277 426015 11174
278 749787 618781
279 822244 115791
280 238998 494256
281 305200 57254
282 782899 430999
283 466886 68330
284 293528 73192
285 479342 24242
286 270996 97322
287 279301 91507
288 385326 143013
289 707145 302078
290 506098 440402
291 377318 107573
292 588210 939054
293 727421 643334
294 291498 575009
295 707888 642977
296 422588 10581
297 814386 443373
298 733964 282664
299 313665 83184
300 431643 -24837
301 593486 960106
302 487639 481926
303 787376 972350
304 735480 277461
305 799111 93694
306 246606 477159
307 798360 990435
308 225910 555885
309 342154 93770
310 742200 667342
311 308512 59702
312 283917 32662
313 824667 641226
314 805072 98030
315 550108 958469
316 781293 935106
317 522516 974366
318 286530 90726
319 740715 983647
320 287926 457796
321 845966 455482
322 481697 455239
323 727302 292721
324 152630 816136
325 763269 589040
326 241769 82969
327 777578 394183
328 294204 84927
329 290385 155000
330 782547 289909
331 324761 55556
332 843479 110941
333 243058 151312
334 769039 278956
335 776861 974348
336 305512 81513
337 277358 94959
338 201705 876688
339 828957 89040
340 476182 474147
341 731150 309102
342 771193 970092
343 308689 114195
344 537889 954156
345 776985 944740
346 301279 125829
347 224689 815113
348 279056 135142
349 775592 69918
350 301568 145200
351 379260 85351
352 327813 104894
353 284877 78000
354 755429 275436
355 230580 844917
356 459763 42348
357 280842 87945
358 314679 102741
359 766974 239501
360 413093 27495
361 761399 320402
362 803628 391589
363 438316 484391
364 300865 462199
365 355729 102812
366 262411 511983
367 338419 95087
368 844062 88126
369 799303 115842
370 449346 89681
371 813278 445618
372 335943 139867
373 400125 37062
374 757941 296227
375 781319 316728
376 304543 68137
377 813419 95877
378 742903 462809
379 742280 270841
380 465369 -198
381 842758 81265
382 820102 143992
383 275492 91575
384 267919 98338
385 540075 1008064
386 308638 66087
387 799223 430420
388 792665 127723
389 252515 69745
390 557735 1010343
391 804897 1017507
392 758198 978958
393 727975 294422
394 223786 142935
395 327826 155384
396 251394 60831
397 832908 137596
398 786311 412723
399 827484 400710
400 758526 948536
401 806013 331657
402 250375 78446
403 275820 185736
404 237358 474192
405 571341 967577
406 812589 968788
407 550452 930064
408 567890 926536
409 802732 662031
410 794932 59084
411 812931 49040
412 724688 640264
413 165924 900493
414 799427 444870
415 479481 421849
416 446726 445879
417 532947 981555
418 769128 422554
419 812256 437281
420 776351 304013
421 816483 103583
422 456366 476744
423 778398 247407
424 848024 414810
425 277064 71496
426 812512 436875
427 206814 887476
428 436335 -14289
429 797966 460374
430 286103 166804
431 729213 660572
432 441944 -10600
433 283862 73539
434 530901 989753
435 814620 412031
436 715874 632882
437 537220 980693
438 561468 1011612
439 793014 39700
440 791916 76450
441 770326 961074
442 768849 660857
443 305952 149121
444 284394 499185
445 813559 394872
446 283932 49497
447 754256 411538
448 814496 964073
449 229830 506176
450 824746 384516
451 308158 45310
452 307749 458640
453 527928 963073
454 801272 625698
455 754012 278349
456 305863 65653
457 261739 474833
458 298452 455470
459 238449 505175
460 770157 266682
461 408349 20129
462 445023 51488
463 240846 116816
464 486944 448972
465 417684 -8494
466 183795 872709
467 783842 74140
468 570883 972778
469 188669 925921
470 815556 105584
471 324797 130897
472 170650 834992
473 488187 427811
474 569977 1055190
475 747302 289694
476 788157 936244
477 274734 12828
478 492165 -23437
479 261863 460696
480 410073 54639
481 780650 408185
482 312512 158805
483 795447 397849
484 735403 289475
485 289621 118994
486 824679 40746
487 792619 436687
488 820045 76088
489 235903 475054
490 764986 636069
491 808790 916505
492 281936 466931
493 348034 104967
494 469310 478405
495 469006 55442
496 218732 830863
497 839158 428542
498 772102 410607
499 620196 995094
500 519252 467541
501 756661 282752
502 767096 285625
503 516458 457636
504 752433 267991
505 757666 476351
506 805660 411865
507 247659 468757
508 784559 280798
509 759430 465416
510 264663 506221
511 513012 401207
512 735238 934967
513 814592 472173
514 260416 435912
515 210714 54214
516 280362 114768
517 735518 618283
518 734068 625161
519 476209 464167
520 530934 435008
521 290392 90300
522 497579 444919
523 510240 461122
524 472234 30469
525 458692 89674
526 314397 84616
527 756223 900097
528 170844 853832
529 744100 1027324
530 545945 1014560
531 832685 363946
532 789879 86415
533 777394 969944
534 345025 83207
535 565190 959512
536 522827 471803
537 751263 426560
538 483616 32846
539 309014 100515
540 284852 150356
541 806810 85524
542 499475 987629
543 456596 38261
544 802279 982891
545 406272 49737
546 417194 33311
547 604943 1022391
548 456581 432546
549 180478 880400
550 788767 408490
551 188028 845403
552 817654 418027
553 255650 516340
554 596940 961406
555 789142 931056
556 270157 85530
557 415244 82211
558 794784 666714
559 817786 108884
560 759951 907137
561 493660 455074
562 843797 98894
563 208435 832308
564 752442 951075
565 818842 418687
566 257602 86650
567 775675 910111
568 268593 86689
569 207247 528457
570 256915 75124
571 439689 -10734
572 482950 60812
573 730748 311149
574 802224 442212
575 275533 539720
576 275102 491217
577 821104 418398
578 493306 387056
579 733571 957372
580 769586 928783
581 750740 329550
582 306111 139307
583 776912 612501
584 825051 75947
585 746078 309704
586 567172 938569
587 481993 12660
588 228544 91308
589 760434 653649
590 461409 442386
591 567268 940764
592 776616 148161
593 799471 256315
594 824284 444422
595 292582 501541
596 298088 527597
597 284483 44410
598 321175 60721
599 301376 122436
600 564460 972006
601 689088 277886
602 218969 904799
603 777537 636663
604 323434 117135
605 583677 977781
606 473152 3335
607 773423 676665
608 756790 297549
609 331597 91983
610 446012 74677
611 547986 930630
612 265754 83344
613 476404 436701
614 225395 497605
615 821767 996236
616 264844 109485
617 773680 444713
618 757042 660680
619 778959 294475
620 200539 865521
621 293937 79813
622 634157 993015
623 480207 26969
624 548574 967788
625 802661 474804
626 754491 344987
627 291834 113526
628 188582 884916
629 437171 480017
630 760413 295746
631 716343 317279
632 283537 432987
633 264435 128793
634 485700 118279
635 305786 94631
636 195626 488656
637 836749 137489
638 493445 68533
639 758361 640670
640 787053 428287
641 826649 93494
642 591488 1027187
643 781731 349617
644 164304 885851
645 329427 74851
646 749910 660964
647 801736 102817
648 442982 9002
649 763609 260844
650 803978 87321
651 865780 948048
652 832975 468700
653 797296 1017623
654 300182 85876
655 476911 10176
656 282495 110309
657 444772 496450
658 760288 611956
659 265663 114842
660 816070 421950
661 313388 96651
662 806246 427885
663 775423 635753
664 795182 991893
665 806590 648556
666 346824 141638
667 456139 45028
668 819660 97941
669 276494 113896
670 416185 8505
671 798417 289111
672 802310 83698
673 280882 402594
674 293771 61170
675 448492 14440
676 234336 924370
677 297746 101120
678 558067 1024692
679 730865 281084
680 478801 482320
681 769452 912172
682 758734 312535
683 202908 506187
684 765860 415503
685 247297 504659
686 311770 178310
687 480242 73195
688 323553 114995
689 440655 62882
690 574822 964985
691 773545 109303
692 764660 657782
693 487169 451199
694 233868 448574
695 768518 940184
696 771277 919502
697 757192 1001936
698 763900 612824
699 716258 326669
700 796768 271504
701 813688 148640
702 194536 836820
703 236045 884518
704 257316 526116
705 592087 966744
706 539528 982302
707 264943 492753
708 736075 956011
709 315535 155093
710 309224 141047
711 830708 143666
712 351175 95339
713 491817 484731
714 238550 873642
715 277531 84071
716 801551 465522
717 737762 655517
718 817958 72067
719 785179 430624
720 777258 286222
721 452125 480006
722 837987 80883
723 557815 995881
724 234912 487876
725 534966 962983
726 238691 523537
727 506738 455271
728 366884 87640
729 829138 921605
730 805344 435677
731 244929 509292
732 353036 93883
733 213297 908128
734 558011 942749
735 272043 512090
736 288200 80343
737 332389 100017
738 155944 883740
739 220780 70280
740 372045 79386
741 756823 642392
742 234253 521615
743 285581 463302
744 758697 647793
745 778074 158559
746 846840 73026
747 811201 951594
748 759310 973337
749 771406 385038
750 338158 169371
751 870321 414521
752 197321 861461
753 737505 626343
754 213733 525662
755 493173 434794
756 463433 428313
757 753601 679706
758 770916 646341
759 187479 894611
760 432947 472618
761 826754 111443
762 770525 101774
763 319945 151632
764 511532 448498
765 420187 -5226
766 723578 261895
767 760320 948634
768 845902 87035
769 313487 117776
770 715869 647617
771 745603 270996
772 267786 99585
773 853533 76888
774 299486 96593
775 587473 1007728
776 284522 469392
777 597054 1025411
778 458951 491090
779 441868 484494
780 319239 139577
781 560677 987141
782 462822 483427
783 213853 68575
784 286955 484581
785 269422 106395
786 234681 466930
787 756011 945033
788 181057 510170
789 775347 923553
790 191566 877482
791 237439 533437
792 456840 2326
793 495058 437134
794 787517 123775
795 294846 477172
796 746048 961056
797 231416 821851
798 295095 94980
799 687513 289485
800 292590 162523
801 763640 298552
802 497725 5805
803 331122 143814
804 708777 951838
805 483224 -25315
806 229915 863136
807 459452 -4102
808 788217 678769
809 286104 66776
810 512897 478199
811 564084 971574
812 834021 427945
813 787089 594344
814 743255 964825
815 215496 492561
816 268664 173224
817 749726 1008808
818 304286 483505
819 510682 57947
820 600796 1014011
821 824565 98151
822 547157 976851
823 570083 943710
824 779873 957150
825 615103 1026392
826 803908 238939
827 235260 473905
828 325957 83899
829 558666 438304
830 851002 940061
831 245110 457356
832 392814 81015
833 312791 132979
834 609349 961045
835 565073 1010066
836 782896 989086
837 785966 480059
838 452337 487937
839 766001 117374
840 602308 978433
841 736390 302764
842 431685 61581
843 242187 489038
844 814030 287209
845 780951 58567
846 562644 952093
847 470921 37068
848 299417 94464
849 803883 947373
850 274256 468279
851 441678 -32797
852 321594 89958
853 792020 171585
854 731296 287964
855 741760 586992
856 275565 491066
857 829326 115308
858 812416 422686
859 784090 1000676
860 816789 89248
861 269085 141958
862 530250 436466
863 762753 643736
864 767578 269729
865 289392 471288
866 797212 981513
867 837911 82087
868 754112 985175
869 754730 351127
870 266403 436571
871 252652 428309
872 476054 458454
873 150177 868349
874 256970 459921
875 183074 872971
876 708209 348201
877 211327 519779
878 793991 91631
879 246432 456638
880 784487 694862
881 429884 34007
882 811680 52032
883 237131 492870
884 304107 95049
885 445885 8144
886 263358 501582
887 281756 153117
888 306375 110711
889 302853 97730
890 174881 861211
891 742434 622524
892 518225 459901
893 495447 49522
894 161887 900631
895 292883 157174
896 839759 50539
897 201382 854776
898 528437 403961
899 266481 465343
900 306943 131559
901 293810 96069
902 542728 984205
903 318180 545573
904 364648 122126
905 732509 304388
906 301128 67200
907 775734 117166
908 804349 947943
909 780624 945743
910 463677 19860
911 268570 479716
912 295531 124383
913 512977 476758
914 494790 28714
915 279567 62838
916 317178 202917
917 215181 836760
918 555240 979985
919 813768 435839
920 206904 946997
921 761211 138466
922 777924 82678
923 274080 125389
924 492268 462116
925 206958 852765
926 456161 45694
927 754571 988199
928 770964 75375
929 114574 890857
930 518766 454568
931 747869 349140
932 259217 541848
933 263052 464795
934 431274 52032
935 794012 119809
936 302122 114986
937 791813 904069
938 182545 829402
939 354559 133873
940 495532 460588
941 702859 241542
942 452107 433378
943 820854 398893
944 785337 460595
945 777814 661511
946 457557 476403
947 557235 952597
948 719631 324776
949 487596 110412
950 802147 88468
951 773871 385805
952 269671 484807
953 525980 428507
954 520609 465630
955 289580 126917
956 308221 95803
957 812533 436414
958 236034 875942
959 251900 848248
960 775630 966469
961 307166 75831
962 766205 645675
963 766879 430899
964 735735 304043
965 786485 277696
966 529623 997375
967 162856 860543
968 250991 90646
969 818859 982545
970 210336 900969
971 733639 624712
972 463031 6551
973 263194 90732
974 541106 983662
975 533197 499921
976 556194 972956
977 424851 20860
978 256458 488957
979 764841 102958
980 595465 1010941
981 802100 415435
982 334127 104854
983 481422 79823
984 728580 293414
985 764660 284370
986 776658 425677
987 427621 46500
988 685915 670782
989 475344 423597
990 858215 83023
991 408875 53259
992 868568 155179
993 774510 939711
994 381754 20949
995 470503 410924
996 718617 307103
997 151880 849372
998 779221 450837
999 308604 113296
1000 366234 121140
1001 536797 979436
1002 436338 17567
1003 688486 290736
1004 841268 382252
1005 806227 460491
1006 568058 961453
1007 291564 95061
1008 236066 858723
1009 275119 109794
1010 297190 120013
1011 796495 129038
1012 782879 316036
1013 812428 66410
1014 818245 466374
1015 765669 301763
1016 787697 314632
1017 722088 653984
1018 219154 81960
1019 326264 97685
1020 297619 110381
1021 781150 969113
1022 851329 402511
1023 827817 403791
1024 592577 956119
1025 483896 428136
1026 172055 851985
1027 846218 425120
1028 462390 47411
1029 212562 896116
1030 310243 129240
1031 327758 113859
1032 282807 104036
1033 510551 1011356
1034 713915 267347
1035 814336 364708
1036 575117 944209
1037 763067 967563
1038 813042 79466
1039 268861 497573
1040 779126 276998
1041 437853 -19361
1042 267348 505054
1043 793731 439018
1044 775811 971303
1045 599217 1007110
1046 777005 961413
1047 725398 675632
1048 753712 995790
1049 704129 654492
1050 806075 113349
1051 457304 13670
1052 261874 497539
1053 247028 23023
1054 291555 121841
1055 745334 230769
1056 724309 641885
1057 244826 502574
1058 599886 1030089
1059 461220 435064
1060 780102 81519
1061 744481 337701
1062 173805 903962
1063 806413 312202
1064 777313 675321
1065 791094 442394
1066 752498 615716
1067 335782 118264
1068 327405 69762
1069 439080 445151
1070 502211 441337
1071 753436 297334
1072 511417 394092
1073 209108 878011
1074 321610 98008
1075 306111 141419
1076 804459 111344
1077 449915 445973
1078 756558 285618
1079 791195 973835
1080 252182 100860
1081 792505 423502
1082 303965 122406
1083 280361 469811
1084 378622 114645
1085 779420 73453
1086 137216 941999
1087 777721 655433
1088 279002 513405
1089 775124 957593
1090 192978 880495
1091 242132 88306
1092 214356 501051
1093 739346 306592
1094 804931 407996
1095 756373 262681
1096 303213 111555
1097 285365 491121
1098 769563 313908
1099 392026 34192
1100 763469 671858
1101 387847 72711
1102 778424 945779
1103 188149 887097
1104 741866 299120
1105 173968 823204
1106 477276 471483
1107 160734 869387
1108 771378 307724
1109 585696 996125
1110 195579 863950
1111 299104 50235
1112 361149 107602
1113 760985 664791
1114 510592 426714
1115 487281 506268
1116 437836 17393
1117 811176 132848
1118 815064 403441
1119 299905 115610
1120 327304 138901
1121 808633 303974
1122 815743 451185
1123 796530 106550
1124 303368 95522
1125 832713 68619
1126 786033 657660
1127 307089 84911
1128 268470 470051
1129 410802 95025
1130 426746 -5416
1131 239171 542389
1132 754657 317389
1133 805263 129684
1134 776708 426799
1135 782002 612632
1136 816253 967610
1137 811805 644935
1138 297695 503804
1139 455807 24726
1140 174879 881302
1141 832072 411775
1142 779719 420152
1143 172211 869436
1144 194708 819389
1145 447196 59798
1146 463359 419723
1147 446802 10384
1148 432184 31535
1149 532995 409293
1150 473521 -30891
1151 467727 459854
1152 758826 645821
1153 215589 843356
1154 786949 119734
1155 375227 114951
1156 738985 294319
1157 752190 947255
1158 286154 513848
1159 187132 841614
1160 771512 320320
1161 279264 487780
1162 731600 614398
1163 479510 426275
1164 823314 146073
1165 816673 943246
1166 257307 475092
1167 270693 60533
1168 465604 466403
1169 796980 166642
1170 795774 951866
1171 258142 508815
1172 305592 80485
1173 773349 372292
1174 571039 968627
1175 739806 643233
1176 153125 845391
1177 797384 675682
1178 822118 962795
1179 783975 959772
1180 312827 87212
1181 748303 600043
1182 734371 637844
1183 737970 286451
1184 236457 463864
1185 161986 858622
1186 803186 960383
1187 439601 27212
1188 307625 103838
1189 802216 1033889
1190 756022 407453
1191 465690 502314
1192 275313 75098
1193 215626 455638
1194 220802 519927
1195 286897 520758
1196 447108 72076
1197 340350 84461
1198 812067 47085
1199 794598 67098
1200 336635 130731
