NAME : portcgen-1400-1402
COMMENT : portcgen N=1400, seed=1402
TYPE : TSP
DIMENSION : 1400
EDGE_WEIGHT_TYPE : EUC_2D
NODE_COORD_SECTION
1 465601 342765
2 368952 273732
3 674139 45423
4 365214 779876
5 862539 325884
6 243744 402190
7 630428 595584
8 562808 332533
9 584445 349969
10 597478 594032
11 435523 952063
12 620664 660513
13 609245 998483
14 390392 330528
15 768055 622907
16 836268 356355
17 657346 559993
18 418977 310696
19 413517 283483
20 618052 576089
21 848861 327384
22 667509 601263
23 664654 931811
24 650716 984273
25 526310 332124
26 360071 791178
27 365017 305834
28 351731 322456
29 230993 393411
30 753307 608242
31 579680 312751
32 285686 851853
33 391249 332897
34 433239 897350
35 237584 995948
36 416360 320093
37 882181 935393
38 545186 341318
39 589984 582510
40 443101 899444
41 794453 614091
42 285760 412252
43 338220 801693
44 470746 939061
45 743618 625632
46 424307 291989
47 582890 352384
48 632478 625207
49 761211 605416
50 547099 348615
51 655530 547556
52 170884 990757
53 596496 643524
54 608686 562701
55 351225 823878
56 605179 587204
57 291786 831374
58 869813 914482
59 603240 332455
60 547670 338496
61 740708 586723
62 348472 276522
63 601313 942342
64 675666 14736
65 402516 229371
66 580039 287638
67 885410 962387
68 414094 931928
69 304927 810642
70 591763 1018218
71 869533 917835
72 646109 32661
73 585737 997439
74 229448 985024
75 339212 778966
76 862213 985799
77 640093 609491
78 799351 349021
79 412202 944382
80 612105 958869
81 532468 344864
82 326692 822184
83 340707 793745
84 652286 588063
85 305067 809838
86 697761 598015
87 618594 993033
88 333508 791491
89 159232 976191
90 310072 807933
91 307280 762284
92 568903 380930
93 845076 985289
94 344606 829096
95 687226 60325
96 666400 531379
97 628377 992311
98 613943 969501
99 356206 287360
100 553128 367078
101 317043 760950
102 662286 18702
103 611271 548680
104 442199 950430
105 635687 557763
106 248221 395608
107 211457 992578
108 199667 996128
109 567692 979040
110 885463 358666
111 396548 917330
112 851699 946784
113 282305 394242
114 314974 794448
115 355692 290241
116 619411 601456
117 350025 812561
118 300274 783980
119 653357 602839
120 771334 615052
121 558177 307621
122 295052 774493
123 772442 598687
124 779181 595613
125 528368 271679
126 853205 951044
127 659101 609275
128 612222 999105
129 334261 765293
130 623511 74223
131 657909 665686
132 276455 454977
133 671430 573647
134 622157 939590
135 260270 995795
136 277831 390782
137 836074 311917
138 659357 97665
139 189022 947442
140 691006 55114
141 445279 940997
142 353023 272919
143 863853 915928
144 783887 994041
145 673672 61054
146 395276 283423
147 195165 992425
148 615769 550805
149 615040 653921
150 371618 308067
151 586505 661560
152 708141 46017
153 830605 954596
154 422487 941455
155 828068 962840
156 238680 968207
157 665422 1006319
158 656282 565226
159 346439 785171
160 789687 598428
161 308917 787219
162 289923 393006
163 208344 960970
164 282659 406697
165 375938 281427
166 754064 575946
167 644373 551291
168 850266 578648
169 825683 313811
170 588106 953668
171 652584 543131
172 407570 933252
173 638158 43761
174 349790 297865
175 530928 362154
176 621582 671935
177 272358 392866
178 232514 981079
179 786574 588746
180 635433 672525
181 786167 590256
182 360804 812186
183 664981 22863
184 303865 788473
185 354455 803457
186 310351 788603
187 659973 582628
188 397174 945549
189 837073 602809
190 888349 984769
191 859856 919851
192 238167 967617
193 365849 286454
194 220087 973535
195 366495 308648
196 873944 378491
197 847800 975020
198 579817 359612
199 429087 292183
200 315644 812232
201 289573 377569
202 435106 908706
203 821602 320807
204 898208 976799
205 845394 958616
206 221592 988412
207 251186 399996
208 264352 944606
209 871624 336184
210 250297 947245
211 239292 1036306
212 195916 993247
213 661381 540575
214 617235 1011245
215 254442 413285
216 409493 331495
217 820592 306923
218 192524 989195
219 875167 346702
220 223496 957596
221 218308 436496
222 577064 978500
223 704509 108454
224 402488 331851
225 218569 994557
226 854088 926689
227 598921 580493
228 648226 567042
229 633188 686100
230 536852 314134
231 412000 300357
232 215606 996960
233 322114 827382
234 863687 893681
235 619267 557202
236 292601 453354
237 788164 603120
238 867936 944527
239 547335 335858
240 791351 584061
241 432544 922424
242 799314 373115
243 267841 405263
244 593596 586742
245 733389 609189
246 339750 802612
247 640530 625767
248 733483 604625
249 670779 554345
250 593364 646590
251 682074 49247
252 769407 626069
253 352815 299053
254 429352 956763
255 276326 437321
256 908956 936821
257 436176 299294
258 402683 296958
259 673471 88087
260 297434 835864
261 314860 795847
262 603198 664010
263 651655 1013247
264 574465 321090
265 828824 947235
266 220278 1019412
267 708852 40612
268 256885 400571
269 763030 594880
270 352035 762115
271 635566 679191
272 196164 960576
273 830864 948237
274 344654 807391
275 647917 575653
276 615938 1015050
277 311277 822674
278 845754 916692
279 392618 740169
280 412723 247310
281 559247 359919
282 858193 933565
283 314646 840086
284 602707 610377
285 867386 302580
286 498366 331561
287 442336 955210
288 657452 965566
289 447187 907254
290 635244 646505
291 799985 326323
292 783428 338552
293 808991 618703
294 776210 632644
295 591673 989772
296 527836 334956
297 598826 705267
298 487483 933776
299 843947 963712
300 588630 351714
301 855317 931141
302 397064 291855
303 641910 77474
304 407338 807858
305 384398 910592
306 875458 921707
307 275182 782293
308 801340 637337
309 783114 327535
310 553822 309910
311 341972 787040
312 309407 398386
313 248790 400562
314 620664 674300
315 650081 567130
316 638921 1008268
317 282187 422758
318 409829 326695
319 778910 644436
320 856450 331805
321 876123 927998
322 729613 104348
323 352361 761834
324 415058 899853
325 608673 345931
326 607006 529369
327 266390 405784
328 602331 1045281
329 344279 781466
330 418896 889285
331 811322 362324
332 213976 944562
333 588297 321566
334 250394 433961
335 842486 332383
336 282233 802381
337 229323 977876
338 852592 341301
339 271954 405280
340 319484 776441
341 881992 949717
342 803182 347520
343 426635 928676
344 280455 381734
345 624427 641089
346 348501 806639
347 690246 24710
348 413847 263331
349 623377 88281
350 543227 350775
351 347131 841424
352 346107 799031
353 268081 407342
354 391413 324359
355 407211 260164
356 516959 298989
357 643721 79697
358 684293 560352
359 630688 632336
360 785095 618305
361 227527 405854
362 612709 674618
363 810269 330137
364 270396 402269
365 587758 645912
366 294805 802551
367 412846 889252
368 604270 661726
369 318828 779001
370 625096 643796
371 445268 965157
372 592590 589561
373 374844 288313
374 318481 814671
375 616200 679515
376 763464 871370
377 560831 347208
378 657424 90844
379 644860 64825
380 631931 663090
381 410141 344247
382 301363 828156
383 594616 575680
384 527115 311363
385 620502 554059
386 813830 621362
387 630652 670269
388 416435 935431
389 588301 994049
390 653939 636246
391 612877 665511
392 288928 801801
393 345360 765510
394 204027 994795
395 510015 316892
396 607625 1019237
397 339247 747550
398 604703 981078
399 618080 309124
400 296618 821850
401 851610 338331
402 655801 937335
403 598914 586612
404 852949 927946
405 841909 328861
406 620009 552957
407 216013 360333
408 233373 946448
409 816754 324548
410 332046 804273
411 613698 663423
412 825196 296100
413 568880 340174
414 257266 395883
415 604733 578299
416 376837 259085
417 617452 640888
418 622791 961730
419 663320 48227
420 324981 803888
421 680500 72345
422 649830 584895
423 270497 861934
424 660141 72802
425 879136 930204
426 168828 953582
427 908784 356335
428 857974 954128
429 696291 52910
430 184951 958044
431 336004 286320
432 279852 830791
433 832844 350819
434 846577 345279
435 394177 303223
436 890414 339125
437 321754 755227
438 364680 811276
439 320082 809512
440 263725 410005
441 414918 962842
442 259325 390186
443 637220 567970
444 548585 319516
445 382073 835356
446 299883 790551
447 854982 943866
448 440479 936134
449 468121 946091
450 402800 341053
451 302791 835270
452 622793 609138
453 626900 50499
454 262192 383834
455 257343 390877
456 549393 365901
457 608574 590767
458 390337 271283
459 231793 373126
460 755382 651533
461 646328 562029
462 269002 433083
463 859391 340025
464 623684 599249
465 612406 1039817
466 389632 302313
467 393650 935186
468 815080 344009
469 757755 586323
470 867519 988800
471 195793 978641
472 705831 45907
473 587231 633246
474 229035 411936
475 408941 314805
476 660382 69851
477 687343 38211
478 554392 314664
479 583859 650359
480 350845 450766
481 340075 802805
482 625810 579756
483 626025 551043
484 434013 903611
485 596773 1017228
486 459264 951133
487 885682 940318
488 803804 338470
489 336352 853302
490 657047 540747
491 270722 408710
492 301006 744600
493 615928 581317
494 432079 928912
495 779292 583922
496 267031 426213
497 472181 910398
498 778725 626767
499 628676 975264
500 718434 607650
501 397884 773482
502 826268 303568
503 373968 280423
504 321681 798496
505 876250 322035
506 320210 831998
507 745788 609662
508 742280 68148
509 598010 307873
510 399632 278368
511 850576 311440
512 670706 610036
513 755823 584545
514 587295 984864
515 835332 325334
516 620486 593676
517 786301 358126
518 759094 599197
519 623476 537342
520 404033 308118
521 415546 779801
522 829137 346027
523 190839 1008979
524 639706 665470
525 767744 614702
526 639836 553112
527 538258 351541
528 605624 582198
529 679805 91331
530 198787 995542
531 601676 618057
532 349047 796778
533 343245 825551
534 183577 947792
535 800302 904712
536 329128 843781
537 289602 788630
538 813638 950550
539 900129 916292
540 667406 84766
541 244607 990058
542 796002 608037
543 521035 343643
544 344710 736295
545 441241 912336
546 221937 381021
547 828928 930820
548 845136 950786
549 660483 90201
550 385799 300476
551 254236 403572
552 602995 674435
553 605856 1004138
554 657730 59185
555 250267 1021829
556 402608 813919
557 808219 597637
558 597034 573765
559 773711 594194
560 642196 596814
561 852636 378016
562 608578 564375
563 543380 318051
564 174625 1032563
565 618741 666306
566 638039 1009193
567 619562 985206
568 641944 500820
569 683713 551042
570 591428 981588
571 423905 917855
572 862202 947647
573 265836 370940
574 572607 357241
575 831320 366181
576 243399 391825
577 659479 1897
578 437601 950671
579 678041 24158
580 663390 559994
581 393061 793882
582 332963 810524
583 427665 924029
584 401776 948861
585 578084 1001554
586 859046 915238
587 747508 604874
588 638729 977710
589 216499 996153
590 802476 332350
591 249226 410096
592 219881 450381
593 359869 302278
594 586706 348243
595 608775 679714
596 664805 86369
597 624928 945126
598 873144 941714
599 863904 986964
600 238066 995369
601 828772 338698
602 234261 418493
603 363193 323750
604 393986 780298
605 610120 612410
606 687849 48309
607 223152 1031078
608 246283 1009780
609 639389 660912
610 252734 389745
611 388660 938899
612 419062 952721
613 410058 317313
614 385701 934556
615 242700 418716
616 400527 297426
617 874204 344041
618 365560 800958
619 287529 404237
620 297940 387823
621 855726 318211
622 213170 942300
623 323751 806396
624 303164 776287
625 602460 641692
626 628336 961262
627 692113 72647
628 225155 989562
629 625687 575858
630 657089 560948
631 643653 578315
632 625647 549055
633 613293 675064
634 202982 986107
635 367978 820365
636 616996 531846
637 455007 956948
638 240392 462537
639 822014 330456
640 592700 988690
641 628303 623149
642 427449 302663
643 258229 382649
644 325051 769213
645 591773 966168
646 821715 930016
647 207643 958034
648 467598 917255
649 301717 409069
650 817197 951386
651 864590 389708
652 860554 310932
653 882058 378925
654 636824 609670
655 309830 819909
656 528024 324735
657 418143 870358
658 307029 748805
659 752478 565292
660 769184 534030
661 524304 344188
662 435573 931335
663 839748 327997
664 322506 781807
665 387955 946458
666 294114 390613
667 678756 92866
668 618346 86117
669 906111 1014472
670 330434 806042
671 742675 94388
672 548693 299846
673 363184 299978
674 308981 816548
675 642416 655975
676 433593 914592
677 297452 869714
678 323019 744031
679 300719 738094
680 335345 803573
681 650516 973367
682 458737 946556
683 621160 64846
684 262442 394093
685 596901 1018907
686 719838 20537
687 772304 598263
688 613728 608134
689 850773 349785
690 585276 649059
691 338301 263425
692 228374 406058
693 746608 631828
694 615447 679119
695 195113 999950
696 209204 982073
697 795303 398758
698 742484 610632
699 811500 918343
700 312323 761462
701 274638 453120
702 421336 278667
703 581087 309566
704 662850 75669
705 624882 1040263
706 271211 429093
707 152396 1026978
708 787402 360668
709 378700 807323
710 843717 349609
711 667643 1049306
712 851281 354576
713 638427 64238
714 636429 578926
715 875801 920321
716 295210 804158
717 594012 676342
718 775025 620364
719 230006 972702
720 363071 294873
721 658637 697871
722 324169 774828
723 214917 978426
724 659569 47739
725 872620 334562
726 251980 398195
727 537252 334253
728 375123 791370
729 649853 568124
730 602869 692760
731 411084 926486
732 846117 365510
733 398135 979486
734 551373 373363
735 405908 942396
736 416559 325457
737 221594 1017624
738 666241 639936
739 882682 960307
740 526439 346836
741 343835 795855
742 267371 812435
743 825896 324338
744 304759 773258
745 177123 976711
746 607343 966063
747 387464 808061
748 847112 914550
749 233300 959934
750 664660 27937
751 542952 337479
752 744760 621661
753 358926 317750
754 666841 75280
755 303243 424537
756 655757 38887
757 835312 287758
758 606894 628341
759 231755 400282
760 516390 336268
761 838505 897831
762 836667 334713
763 514628 310736
764 398554 292185
765 599146 579952
766 376133 816510
767 323508 819361
768 671523 640531
769 639474 52845
770 625968 976040
771 641624 62544
772 347433 260029
773 806936 313699
774 357769 333178
775 658864 557919
776 651467 989500
777 196953 1006840
778 554602 332013
779 627158 660891
780 645038 568393
781 798057 659267
782 212153 1009997
783 412115 259528
784 278646 424084
785 810319 568693
786 367475 307029
787 630071 943480
788 627740 981607
789 803150 378475
790 655216 516724
791 416518 962859
792 350220 797849
793 596875 1033499
794 348701 813036
795 228566 1011045
796 243259 398833
797 545888 991773
798 232901 957150
799 385958 292392
800 634262 572024
801 311193 788354
802 670118 565160
803 413700 281694
804 824501 942884
805 555806 317996
806 771044 650948
807 633318 543052
808 829468 314038
809 265230 423656
810 613237 537424
811 294574 764303
812 760148 611420
813 317110 725588
814 760059 597184
815 262671 958360
816 827275 563612
817 474099 972050
818 668955 27789
819 589512 979223
820 817594 356382
821 348541 814644
822 377454 310117
823 653618 544391
824 852649 349659
825 250698 986652
826 318209 814401
827 328757 854396
828 254244 407961
829 235614 928479
830 689796 115796
831 313920 289992
832 656788 54171
833 461300 925691
834 352931 808360
835 335548 789012
836 633664 639816
837 734690 91763
838 192321 937801
839 840628 340316
840 375597 813895
841 850996 936191
842 897059 928168
843 414495 890352
844 675255 646429
845 834243 381750
846 276087 394711
847 247335 401916
848 644268 969257
849 615353 960185
850 316220 777139
851 642897 45568
852 469344 918281
853 402671 264348
854 353699 837664
855 665116 49011
856 595744 570715
857 666488 609783
858 684845 78164
859 329124 792111
860 802751 315327
861 857959 324440
862 186018 965478
863 403316 317950
864 814932 590388
865 207767 1019031
866 217564 973573
867 763363 578784
868 824749 359933
869 792241 640284
870 404462 958250
871 176364 968319
872 900253 978634
873 880553 932538
874 341067 818587
875 556205 316230
876 431796 939108
877 352712 839967
878 316822 390472
879 388765 905858
880 448560 913184
881 302525 784481
882 645539 1004042
883 878827 928282
884 739860 581523
885 184130 998507
886 294972 406902
887 297132 796819
888 766328 606474
889 339126 811680
890 268167 397170
891 625624 962522
892 573426 921970
893 876343 951118
894 400903 312752
895 314856 806813
896 312149 791570
897 669144 74037
898 773232 618485
899 302379 802091
900 343606 786196
901 297628 784462
902 427395 913833
903 669879 97320
904 685389 23651
905 393454 969918
906 623587 987904
907 205376 973131
908 296527 856963
909 698744 536450
910 583134 1032094
911 261058 423895
912 836776 360188
913 659012 661856
914 283825 359101
915 232822 982328
916 631740 682907
917 882796 330811
918 650177 1015069
919 666607 49263
920 826919 628454
921 274647 410264
922 533561 296787
923 349448 838593
924 635002 636255
925 325766 763526
926 743761 628482
927 274651 773612
928 548731 323434
929 764806 625438
930 812120 363224
931 558559 312815
932 572913 1000152
933 374503 302298
934 543399 314599
935 231037 388343
936 672641 90418
937 231945 997425
938 355460 793586
939 823198 330578
940 318313 770089
941 466515 955170
942 332927 312181
943 633567 949832
944 310192 787865
945 877633 966470
946 518152 344800
947 612685 966715
948 643350 644018
949 301305 386149
950 678378 564425
951 808425 329989
952 318576 832878
953 272367 865003
954 635405 623006
955 318271 754297
956 810864 367025
957 781256 649805
958 383266 807915
959 613969 687064
960 416656 943174
961 664090 61131
962 829902 303366
963 610913 607019
964 636487 108721
965 358123 797737
966 507269 299902
967 552748 352760
968 335074 795259
969 266220 418134
970 614105 986976
971 779204 564078
972 669408 581477
973 645297 645184
974 241987 941881
975 410780 292730
976 308510 815059
977 225535 927237
978 751976 604241
979 446461 923783
980 617631 649337
981 531660 331912
982 615290 598010
983 895300 960331
984 653960 74676
985 348566 315136
986 605203 609654
987 366414 279385
988 552793 357016
989 830785 945664
990 267058 721891
991 624214 527344
992 615419 657444
993 625945 945584
994 446603 957628
995 593081 967943
996 613328 984995
997 346045 795028
998 411299 315266
999 204523 958778
1000 388872 301207
1001 257499 411284
1002 618904 994057
1003 422789 919980
1004 650946 64983
1005 840613 930166
1006 419351 918244
1007 892429 932567
1008 420642 954146
1009 592357 316844
1010 311222 843786
1011 419003 938304
1012 292743 841694
1013 607063 971060
1014 343858 799196
1015 639876 561124
1016 297100 784903
1017 354517 316219
1018 693377 58014
1019 655598 96725
1020 583762 945333
1021 279799 404213
1022 605265 999957
1023 564853 345727
1024 401391 306764
1025 616357 1009263
1026 440947 919807
1027 663750 1019177
1028 638341 987934
1029 252758 399614
1030 194973 984854
1031 602374 998453
1032 536826 305690
1033 349985 307628
1034 446522 963283
1035 646644 970488
1036 695569 55876
1037 638516 983152
1038 257826 465431
1039 649335 651757
1040 613647 627300
1041 843421 354248
1042 637036 977982
1043 282587 402906
1044 340549 811292
1045 162521 927495
1046 328555 823180
1047 317285 797577
1048 798360 342373
1049 449821 931904
1050 376226 936874
1051 371088 266158
1052 154874 950857
1053 394384 981327
1054 491533 311150
1055 674712 74236
1056 327993 842751
1057 288188 395557
1058 875888 967507
1059 903042 975639
1060 822487 315358
1061 170643 999537
1062 586033 1015573
1063 460571 971082
1064 228451 418031
1065 258830 394532
1066 614869 664880
1067 236965 417190
1068 627168 589482
1069 344446 806825
1070 417614 989070
1071 325237 831086
1072 670804 583326
1073 538775 310733
1074 681915 602260
1075 312495 857012
1076 863907 943726
1077 499344 375301
1078 337644 828094
1079 786536 639857
1080 425474 297340
1081 275473 775105
1082 428016 309709
1083 362331 886872
1084 498388 926760
1085 860139 920836
1086 681846 27255
1087 855768 975379
1088 653592 681399
1089 686083 88211
1090 407396 304757
1091 616628 564193
1092 857349 324550
1093 723371 589573
1094 400913 294102
1095 677517 617841
1096 659199 563616
1097 296013 815396
1098 212818 918072
1099 437194 899392
1100 304866 815385
1101 590547 978818
1102 327598 785553
1103 650648 626451
1104 850305 393214
1105 902366 1020379
1106 569946 345652
1107 376540 306249
1108 350043 276554
1109 804974 634727
1110 338285 830453
1111 770422 612104
1112 309397 772272
1113 363072 883009
1114 309957 833445
1115 674888 544285
1116 583560 541680
1117 812322 960598
1118 579959 572689
1119 659683 962490
1120 614139 92498
1121 358485 290786
1122 568190 354850
1123 423795 913816
1124 604657 632844
1125 886314 356263
1126 571388 591530
1127 620413 620303
1128 860426 911759
1129 375878 319874
1130 230226 987668
1131 396657 338042
1132 848809 924373
1133 644504 650269
1134 842718 933325
1135 625782 68890
1136 222704 974209
1137 608976 981088
1138 196788 405220
1139 868037 349989
1140 196507 994190
1141 626011 582858
1142 584375 1026569
1143 659272 60005
1144 566831 337841
1145 652738 30989
1146 683146 604679
1147 827108 326308
1148 640931 975375
1149 849207 329682
1150 806587 326834
1151 322983 783795
1152 674577 580200
1153 229461 992151
1154 565378 308074
1155 642031 45632
1156 635594 -20054
1157 627021 674678
1158 321877 854211
1159 708863 72495
1160 853831 932096
1161 873152 921025
1162 736812 662136
1163 761719 597683
1164 237811 392104
1165 650592 71907
1166 817404 356535
1167 632584 993284
1168 338141 248973
1169 289141 450816
1170 637609 674201
1171 222882 975679
1172 595520 643449
1173 297540 375019
1174 550561 293130
1175 260283 427358
1176 657964 973280
1177 649347 661265
1178 217405 981401
1179 878852 951069
1180 641861 647794
1181 895113 953950
1182 652652 664572
1183 623336 618005
1184 848781 975740
1185 590608 626394
1186 878235 921948
1187 626290 662823
1188 651973 975116
1189 676293 37558
1190 313972 847752
1191 310518 736152
1192 262170 344853
1193 216083 968844
1194 750844 600362
1195 183027 947153
1196 652883 1005422
1197 529591 345627
1198 260062 389935
1199 885202 982210
1200 649664 1002147
1201 360612 318228
1202 658322 568411
1203 267983 365111
1204 617402 661455
1205 334073 832904
1206 646110 544398
1207 817313 348711
1208 776097 594495
1209 680937 17791
1210 717508 603804
1211 622065 656896
1212 811863 336374
1213 649397 77479
1214 860337 1026525
1215 361288 267802
1216 608872 676734
1217 361493 343077
1218 408867 956840
1219 553687 392616
1220 606552 689694
1221 258485 379318
1222 860572 922394
1223 746540 626654
1224 214039 1022246
1225 829596 934326
1226 553216 318372
1227 344291 791120
1228 558544 332785
1229 254466 409388
1230 846682 905942
1231 446594 953540
1232 616327 596184
1233 611805 1036557
1234 575189 342566
1235 604106 972506
1236 625514 606286
1237 616237 658792
1238 307493 815648
1239 444287 943628
1240 602857 675892
1241 409428 313572
1242 644450 625992
1243 745553 639606
1244 502338 352701
1245 362271 319439
1246 725300 606795
1247 705774 80716
1248 324754 781577
1249 284796 396147
1250 756276 614252
1251 697588 56308
1252 656511 565222
1253 690274 32796
1254 433184 919635
1255 328338 780167
1256 557755 586858
1257 607694 581390
1258 899277 908058
1259 642084 574946
1260 668282 643795
1261 356991 330437
1262 600209 656126
1263 212965 970419
1264 382549 924360
1265 621910 302931
1266 237582 989899
1267 615381 973047
1268 169256 1038692
1269 707057 22886
1270 234291 422106
1271 764015 608682
1272 350345 262487
1273 322705 842835
1274 421295 937427
1275 534491 340226
1276 673290 104427
1277 582153 375852
1278 245060 1012673
1279 326527 836626
1280 649599 1000392
1281 632203 571023
1282 415172 317018
1283 838920 318728
1284 333713 822937
1285 810702 945542
1286 747110 590741
1287 636561 631080
1288 390724 304089
1289 642202 690464
1290 248908 941320
1291 316909 252380
1292 357621 314819
1293 382458 882688
1294 447817 922131
1295 362677 787959
1296 656420 666948
1297 360887 821451
1298 561448 337921
1299 880653 939618
1300 836036 325050
1301 603560 94928
1302 614870 673052
1303 753883 629306
1304 232467 981129
1305 660704 532930
1306 831241 620215
1307 558988 305821
1308 407673 941433
1309 637110 914015
1310 765736 585191
1311 593935 1000558
1312 895116 952917
1313 380928 266502
1314 649493 655122
1315 224770 437057
1316 335547 814553
1317 265424 397925
1318 658099 52443
1319 617072 607428
1320 246671 999192
1321 889368 967421
1322 611253 599568
1323 311732 885331
1324 408363 285904
1325 622551 582372
1326 609103 537506
1327 364678 836204
1328 829983 551919
1329 375405 293784
1330 902156 918094
1331 696650 66890
1332 621331 579258
1333 834572 989321
1334 286100 388045
1335 230724 1004688
1336 581824 1000832
1337 600339 598841
1338 225316 407056
1339 891959 926289
1340 358120 782018
1341 897445 917209
1342 629230 647613
1343 630576 1006675
1344 317281 771071
1345 638012 620536
1346 268742 414853
1347 620141 989846
1348 528243 267453
1349 571825 333078
1350 858716 920092
1351 757198 596176
1352 911503 919157
1353 605222 642041
1354 828091 321941
1355 791625 600184
1356 675357 60282
1357 626921 522546
1358 695733 47796
1359 302721 777043
1360 595194 979242
1361 298852 373805
1362 390274 276924
1363 839061 931903
1364 214186 983107
1365 446949 936749
1366 409543 937967
1367 602415 667110
1368 799241 594769
1369 653489 42385
1370 805335 324976
1371 308623 843151
1372 894476 904014
1373 842694 353664
1374 375883 282314
1375 342472 826659
1376 217894 972687
1377 592437 628461
1378 337297 281671
1379 626638 652754
1380 264529 446873
1381 654014 89608
1382 419283 916828
1383 300225 395564
1384 622280 561407
1385 892534 953251
1386 625170 54312
1387 785292 963129
1388 697560 93720
1389 466971 963557
1390 881662 909956
1391 773299 633700
1392 397840 904777
1393 868492 935093
1394 875668 907501
1395 646538 74820
1396 821269 630805
1397 626070 980542
1398 551692 334281
1399 564462 967085
1400 644380 41242
