NAME : portcgen-1200-1208
COMMENT : portcgen N=1200, seed=1208
TYPE : TSP
DIMENSION : 1200
EDGE_WEIGHT_TYPE : EUC_2D
NODE_COORD_SECTION
1 714428 197249
2 93573 104520
3 51686 56777
4 30770 115265
5 682029 221117
6 357038 189150
7 233670 143161
8 314500 172442
9 117714 122066
10 111164 124305
11 577934 913076
12 123990 385122
13 32533 852073
14 103227 146659
15 558430 926824
16 79322 113272
17 123093 357161
18 712745 179435
19 213419 137068
20 187044 154225
21 48747 785983
22 103161 436530
23 237833 169450
24 771183 21993
25 290903 119128
26 37103 809198
27 383978 323543
28 381204 165656
29 94273 369676
30 144526 320549
31 752803 69548
32 181124 103792
33 136761 151534
34 241236 121447
35 122216 170380
36 30036 182949
37 47081 83504
38 921323 340830
39 141845 122567
40 90749 145653
41 15744 35323
42 967843 351841
43 357551 244722
44 75795 127746
45 101004 107737
46 81004 135402
47 699555 191745
48 140669 119643
49 94240 150004
50 796240 26368
51 87150 351497
52 590542 947561
53 351559 170852
54 239195 131900
55 546358 908496
56 713779 202203
57 345020 175493
58 119441 361513
59 740388 16458
60 -11269 828064
61 131769 328351
62 428053 323933
63 46690 858792
64 774197 -19133
65 709879 215472
66 204414 125574
67 190896 150576
68 181440 384189
69 211737 71461
70 378160 165907
71 296262 175862
72 205280 168541
73 108755 156704
74 140443 133401
75 802803 40874
76 78301 847079
77 130921 196932
78 772730 40232
79 169268 328028
80 28610 87705
81 119115 415086
82 745663 76536
83 13452 83594
84 91875 369416
85 49779 64395
86 938187 360190
87 372899 341350
88 812644 49909
89 201443 131579
90 196779 121645
91 723478 230125
92 581422 980066
93 -788 29372
94 65972 22375
95 63771 133723
96 941594 356373
97 109750 848988
98 345092 146363
99 754246 174602
100 368410 345557
101 175967 127556
102 757384 -11304
103 118856 67937
104 126722 356731
105 737779 153519
106 566957 946973
107 347105 355422
108 158318 131075
109 348495 182143
110 36975 85802
111 737958 45836
112 955399 277512
113 49563 76864
114 63967 787695
115 143055 376057
116 510415 940302
117 399301 230860
118 141146 111162
119 755258 30060
120 117116 119601
121 612981 956812
122 65122 800887
123 286636 186470
124 134000 176569
125 721129 169705
126 287820 137567
127 960760 373783
128 160396 270268
129 214702 151907
130 192110 111119
131 118204 126034
132 711356 190700
133 26685 55634
134 106078 340322
135 118371 348874
136 200112 355130
137 687428 176393
138 960485 318519
139 164442 381813
140 942353 290170
141 237546 114960
142 330333 162590
143 109274 163503
144 335571 199339
145 130826 117502
146 -1940 801765
147 134262 324612
148 75681 832182
149 87966 819875
150 229380 122451
151 151345 115659
152 195983 172900
153 19470 77318
154 1023430 342224
155 17647 784378
156 34280 794679
157 90818 327344
158 131531 109779
159 136499 339764
160 -12159 31206
161 669430 230248
162 383849 397873
163 927517 373915
164 111764 121237
165 716514 158354
166 664514 166194
167 154009 173445
168 439345 386592
169 747204 25651
170 88295 142747
171 701402 207084
172 139188 126886
173 41321 40746
174 114274 136434
175 41377 98490
176 99310 356260
177 527431 934504
178 130419 126546
179 147397 132620
180 104143 83970
181 120071 145325
182 339426 174972
183 318686 133391
184 740371 28260
185 154819 377375
186 505535 946744
187 44226 69381
188 778377 55573
189 226180 88128
190 116840 137084
191 560062 905696
192 356111 143651
193 26765 79198
194 166501 109191
195 737251 119069
196 354200 192243
197 124591 369087
198 160030 178584
199 763387 18458
200 329531 198889
201 774517 24269
202 607269 873334
203 144395 368388
204 607695 900432
205 232334 152831
206 26854 843445
207 363211 382792
208 151858 319091
209 352846 329873
210 605154 926241
211 1026007 398392
212 114115 146908
213 805939 55252
214 96797 799729
215 176262 142866
216 302401 223267
217 25444 858169
218 362883 151114
219 263615 140068
220 237256 84534
221 76918 815616
222 402790 368139
223 102548 326226
224 19683 62315
225 120041 160513
226 521620 891873
227 165208 131118
228 749869 9250
229 995315 352043
230 196829 403833
231 422053 395697
232 943606 319682
233 44643 855893
234 144011 110429
235 521636 884236
236 112116 162682
237 120795 128950
238 21936 87307
239 338736 223746
240 758488 39447
241 806041 46018
242 140056 108794
243 40703 69238
244 265150 178749
245 117633 172004
246 695823 37708
247 108846 119988
248 94934 133904
249 54444 45791
250 781526 151199
251 285317 145429
252 29290 740781
253 383051 369232
254 311585 216499
255 243599 133432
256 115941 135169
257 986225 386038
258 175705 124072
259 586429 917654
260 15588 57388
261 48284 802995
262 752355 154944
263 569497 902941
264 723742 109451
265 1020242 356016
266 186161 136310
267 697147 169137
268 351047 172416
269 1020035 336887
270 959158 361218
271 93290 807073
272 819077 58677
273 949472 340248
274 757059 -769
275 222876 137815
276 38220 801037
277 569215 956951
278 92955 354396
279 42919 819281
280 791298 14358
281 404292 420855
282 228838 140982
283 92093 46904
284 599271 930524
285 107418 149912
286 348392 187713
287 327872 163300
288 94819 82045
289 130005 165162
290 143084 345944
291 28829 114294
292 938262 326598
293 392354 382200
294 781928 30316
295 43301 57920
296 325417 384164
297 268473 104737
298 150326 130076
299 920282 382331
300 103303 344893
301 157707 317299
302 588587 936043
303 26044 78101
304 589679 904865
305 969877 315004
306 42084 758126
307 75683 143720
308 88701 344992
309 41348 47626
310 102963 368795
311 986866 318185
312 435278 366102
313 944242 343446
314 70327 142473
315 577759 928380
316 324805 201856
317 996276 371475
318 118008 813067
319 73951 848914
320 327642 139727
321 235841 189855
322 10053 52210
323 834094 5676
324 338751 204382
325 219065 154712
326 90477 364661
327 151884 89801
328 116100 138007
329 954996 324342
330 25101 36117
331 703270 133325
332 343387 128047
333 341028 132467
334 166376 80401
335 762802 15324
336 743713 212119
337 732450 41031
338 147586 166915
339 567649 963499
340 6869 60582
341 252882 133441
342 304765 181210
343 125006 397715
344 751820 10337
345 98966 160128
346 407104 406427
347 126181 124561
348 113863 113798
349 938820 303711
350 513559 953942
351 256028 87876
352 191795 148881
353 43191 791997
354 203866 150021
355 61249 837436
356 403746 398917
357 20677 50152
358 330418 167553
359 74332 21522
360 206099 152204
361 953843 304052
362 716224 180295
363 751632 64461
364 57867 122679
365 82440 158258
366 529687 985143
367 654789 237089
368 596275 962385
369 76158 833154
370 904798 350318
371 358459 147575
372 672357 177943
373 210874 176096
374 563390 951460
375 144497 114353
376 148111 323632
377 698477 177019
378 163134 164030
379 218077 150315
380 136760 178193
381 690433 211307
382 185794 352256
383 388504 196533
384 710689 66022
385 54856 83756
386 228915 126313
387 370483 418399
388 523844 868492
389 142441 156696
390 383883 389549
391 331885 162919
392 35131 56075
393 553814 921722
394 349670 339906
395 103434 179706
396 -11252 120892
397 368075 376962
398 538319 911925
399 268609 191397
400 299095 174281
401 321318 180212
402 122944 128457
403 804109 70976
404 27015 830148
405 132997 315474
406 47679 800501
407 171044 80492
408 363692 195130
409 133614 139643
410 417634 408906
411 690715 185911
412 111336 170300
413 270089 216437
414 971479 355216
415 124591 151307
416 376401 386029
417 778309 36269
418 810077 90218
419 109085 351866
420 361353 386334
421 217483 132078
422 748596 36781
423 979669 318738
424 773575 -1022
425 162009 130527
426 973753 355536
427 666017 179837
428 381678 361574
429 220957 187060
430 792004 41036
431 795992 27473
432 710581 68314
433 46317 832806
434 985446 368223
435 89570 147429
436 88260 770002
437 954887 304109
438 958351 358823
439 345478 171177
440 96146 193596
441 148105 126473
442 91504 119794
443 199965 333730
444 19737 861350
445 111896 401409
446 68051 369611
447 761436 3157
448 742020 233031
449 732574 135030
450 169595 186350
451 369999 373603
452 663824 220608
453 166155 150240
454 663640 176418
455 980946 383801
456 358659 362430
457 103054 103486
458 694934 244801
459 730029 41845
460 961940 317440
461 245094 149570
462 194134 131094
463 69529 160585
464 341830 175461
465 423790 425485
466 25522 772118
467 322137 131311
468 3983 872637
469 238569 133871
470 715344 165006
471 321520 168172
472 191186 130231
473 288050 155675
474 207109 182462
475 43749 813543
476 603851 968158
477 322609 179970
478 126056 187203
479 75270 359713
480 683765 192268
481 553510 954425
482 118223 156198
483 97281 356419
484 237067 146895
485 365770 438871
486 1014383 375091
487 86061 800034
488 359533 177470
489 31332 846276
490 357505 370023
491 363272 164750
492 358047 429998
493 58485 58582
494 789589 12562
495 399976 355345
496 383343 159018
497 123365 147927
498 158174 92065
499 140605 343834
500 182271 109626
501 177513 146080
502 381159 344730
503 238992 94119
504 104538 159872
505 693994 165160
506 562577 918814
507 113710 139416
508 62999 72933
509 155475 147120
510 15299 129377
511 88839 365032
512 2519 78548
513 959060 316800
514 185737 134932
515 69869 818461
516 61104 778625
517 150172 98432
518 791766 48301
519 716654 44053
520 389308 385718
521 755490 136489
522 29022 850529
523 350938 386062
524 163695 167609
525 308415 185910
526 578603 904735
527 293204 197499
528 133719 330242
529 907818 309049
530 238202 131746
531 316586 165003
532 169676 107379
533 47860 775934
534 959635 347770
535 143335 178535
536 153488 367557
537 64947 826502
538 -1002 771337
539 539314 956367
540 767663 71159
541 563511 918050
542 594319 952609
543 183775 89085
544 114854 140000
545 436128 410456
546 576778 872839
547 551020 898149
548 530783 980307
549 149234 350118
550 137903 351552
551 727684 23337
552 52643 107447
553 537572 939518
554 111547 356904
555 89931 41498
556 220348 120282
557 674207 167950
558 356575 204465
559 501176 953351
560 121488 378961
561 101926 137459
562 574773 944181
563 326421 192743
564 127307 179847
565 88147 73856
566 949794 315368
567 425585 396627
568 693162 189310
569 139993 144977
570 153612 370473
571 425823 331673
572 972594 386926
573 12383 76808
574 170037 376216
575 120210 114116
576 226052 134366
577 120908 155516
578 138181 154040
579 358530 410287
580 589703 924734
581 5927 60300
582 153729 359958
583 369361 345719
584 106173 297957
585 525676 958906
586 416203 381724
587 249695 154338
588 56510 134642
589 318767 128887
590 35443 81667
591 74531 790862
592 375285 416319
593 93409 791682
594 332751 413376
595 382908 378221
596 108199 151246
597 703541 180286
598 127926 340338
599 161647 172784
600 100974 162109
601 392319 402538
602 988755 324533
603 104265 182471
604 171719 326591
605 603676 900973
606 172819 110783
607 109914 180936
608 36881 802094
609 22869 82231
610 524967 973687
611 908836 361513
612 775561 56277
613 325381 167245
614 31978 791867
615 199635 163082
616 951115 324820
617 684556 203610
618 580893 962140
619 21166 823096
620 131922 329697
621 778333 106299
622 668815 168205
623 66282 62418
624 355276 150056
625 417865 388381
626 937084 358185
627 94471 89561
628 115647 396175
629 381534 383318
630 61422 830184
631 11690 816998
632 123078 167582
633 154876 330900
634 947451 320626
635 92414 154754
636 143864 170380
637 145080 192585
638 105451 144270
639 785513 -5966
640 361212 216788
641 213737 114595
642 53314 831050
643 362931 360883
644 64192 362072
645 962339 328174
646 714326 147835
647 136884 100502
648 209211 125892
649 237271 115684
650 363444 385959
651 131655 126337
652 345958 189829
653 29893 864656
654 783538 34225
655 345878 208469
656 559657 927383
657 136200 126065
658 161899 379779
659 79486 377322
660 376942 164948
661 241063 108776
662 146692 126597
663 963893 328692
664 382345 414449
665 49505 750229
666 99438 136953
667 727182 151944
668 132939 89541
669 117139 427759
670 329865 120293
671 74884 30579
672 70945 859528
673 748234 158842
674 94170 125024
675 155469 104856
676 80713 845400
677 383241 405274
678 -2857 790068
679 987170 350417
680 162906 124263
681 103484 151615
682 555623 917059
683 335719 208607
684 391984 364598
685 33730 66484
686 350273 176557
687 577306 932494
688 23951 34789
689 -32813 67608
690 311731 192483
691 133657 95017
692 100202 349749
693 681872 153520
694 369785 141618
695 765518 68448
696 387278 178454
697 979572 342456
698 431293 413298
699 25369 774292
700 85223 373780
701 739737 27744
702 61962 97282
703 99912 188611
704 37046 -9403
705 213245 98390
706 751552 50926
707 37635 12401
708 385832 355851
709 376664 371529
710 85818 402521
711 99736 168255
712 9071 52850
713 184835 148156
714 122187 340352
715 78328 142652
716 26669 90356
717 164776 161505
718 707926 194459
719 116359 369847
720 242307 157477
721 273795 184651
722 943714 291833
723 117498 154453
724 158176 193178
725 805638 21885
726 678650 151967
727 187676 128605
728 17148 95379
729 39966 36675
730 693324 164855
731 589152 945010
732 171989 133507
733 63904 725677
734 149190 112936
735 109322 191736
736 74948 808338
737 50835 59490
738 326892 346288
739 225935 166267
740 328730 159831
741 244764 152927
742 121154 112952
743 115908 103976
744 368804 398493
745 342830 198552
746 178412 126242
747 783703 -8197
748 755523 -16995
749 793464 44430
750 74160 38260
751 41419 2567
752 139874 363805
753 752751 77511
754 118022 124210
755 980961 371315
756 918990 308318
757 749436 151756
758 19165 793834
759 825568 31506
760 735474 143795
761 965054 367361
762 406044 328349
763 158451 98321
764 119380 413280
765 112555 185410
766 754273 51516
767 726692 216766
768 371461 201504
769 168744 157114
770 327149 408836
771 184461 386672
772 130715 146903
773 292878 173447
774 371608 181083
775 128653 106161
776 116856 155043
777 102976 184653
778 395511 377644
779 101980 102727
780 585944 900938
781 368647 377507
782 41804 91108
783 111089 57394
784 80633 824628
785 343754 180981
786 184185 125237
787 330619 393461
788 42408 795839
789 97426 95639
790 85298 91018
791 30497 52982
792 195606 296676
793 969677 324290
794 34401 107649
795 551076 847887
796 128442 370700
797 778682 178171
798 313230 157984
799 142211 127622
800 681878 192278
801 969958 316706
802 19345 48833
803 138149 333994
804 44478 98406
805 759419 2958
806 552079 934793
807 344050 368635
808 135778 155176
809 999505 403947
810 946884 348420
811 121651 366712
812 757266 65162
813 167319 349745
814 9166 -21973
815 72468 137402
816 401729 450110
817 588041 949761
818 129002 305843
819 594820 949057
820 61746 856833
821 754653 28392
822 29312 832116
823 187895 150048
824 99389 192481
825 574309 932629
826 694067 172110
827 179200 408531
828 142108 119391
829 761259 216339
830 959726 372664
831 698233 196295
832 359176 347432
833 382463 185599
834 27269 819529
835 119279 341740
836 196000 72402
837 393780 364407
838 68808 146921
839 520203 958918
840 550795 939889
841 205803 187210
842 118283 182215
843 146724 173827
844 25273 817514
845 79914 91875
846 194790 148862
847 138466 104659
848 366013 368057
849 757415 42362
850 35482 826987
851 213445 108162
852 -11891 43562
853 606717 938707
854 201527 387599
855 751905 160935
856 144327 143127
857 757261 -2367
858 188076 314604
859 549163 957458
860 964212 369921
861 589748 928914
862 164574 355438
863 715530 134725
864 696090 188593
865 999943 393112
866 711782 204976
867 401128 209066
868 47835 829408
869 590733 929895
870 40780 835990
871 73935 389749
872 42969 102755
873 40703 44040
874 993709 352546
875 149633 175132
876 20885 120892
877 59042 836304
878 736275 34448
879 610786 960250
880 181413 353886
881 736858 42617
882 132910 161635
883 365802 397134
884 357064 349119
885 112351 361316
886 170717 366911
887 55417 67140
888 733086 192444
889 634140 921128
890 772075 36054
891 412010 356213
892 384061 380639
893 812519 46476
894 213722 163490
895 561997 923863
896 380205 390654
897 -2552 777436
898 101579 134105
899 124817 120151
900 129793 202471
901 112881 66032
902 258240 197486
903 106722 370404
904 370006 123845
905 358456 349118
906 46744 806200
907 139315 386248
908 580326 969314
909 526642 896715
910 370203 197500
911 115428 175848
912 707189 203695
913 199026 155634
914 199857 130492
915 557984 950227
916 269575 123703
917 241690 155047
918 123876 185790
919 625770 982025
920 185725 180986
921 331595 318430
922 103429 131384
923 726890 10000
924 117817 126683
925 743256 3760
926 696352 214680
927 257133 116415
928 653512 168862
929 28676 823074
930 42434 69116
931 232935 127550
932 93933 370507
933 768614 34230
934 51157 770089
935 12699 67769
936 582479 924626
937 584219 888869
938 332546 165428
939 748938 -172
940 404368 391690
941 185900 162535
942 174302 352508
943 986317 345607
944 224158 114369
945 347676 347354
946 171490 347914
947 129347 119774
948 989577 383304
949 686116 113672
950 521485 910877
951 58778 793121
952 146416 139078
953 10068 818330
954 546978 923269
955 347412 351040
956 672419 177323
957 123473 56318
958 161628 338533
959 705688 132040
960 587804 903225
961 696358 149650
962 389955 361590
963 936964 354196
964 942633 311465
965 148709 365458
966 931705 355366
967 713308 197344
968 647938 169616
969 148200 357991
970 245142 123918
971 117819 360761
972 231739 172118
973 391584 411759
974 136951 200563
975 196000 128525
976 366742 386930
977 149121 143787
978 39695 93447
979 607404 955685
980 918995 310957
981 353484 137486
982 804844 84005
983 289478 233983
984 326745 178166
985 133298 166784
986 209735 121319
987 712775 124068
988 138003 307242
989 36896 841318
990 339703 185546
991 137587 125447
992 100247 121669
993 517486 925161
994 243722 106778
995 555605 949060
996 114784 357586
997 382543 380841
998 97143 786093
999 743513 5566
1000 1030645 380966
1001 157813 417529
1002 32120 118173
1003 390248 447667
1004 515633 868392
1005 123521 123019
1006 329919 401026
1007 429188 387141
1008 51254 782483
1009 218739 77831
1010 977742 343428
1011 581494 970560
1012 770275 -16306
1013 138020 346682
1014 68326 63309
1015 344521 158552
1016 373820 145819
1017 539377 904426
1018 962017 382420
1019 533439 920539
1020 1781 86605
1021 975470 380661
1022 338259 226054
1023 719361 18532
1024 731200 198364
1025 963156 378388
1026 84072 53004
1027 760466 36257
1028 736362 24006
1029 87356 834557
1030 72349 139845
1031 435743 362487
1032 763491 48242
1033 411903 399351
1034 973404 397429
1035 83048 51209
1036 47345 73011
1037 81585 839432
1038 34467 60196
1039 -27894 49277
1040 362224 240831
1041 142583 136705
1042 138010 370483
1043 324227 159175
1044 738293 197216
1045 766097 20770
1046 312329 159067
1047 371049 341404
1048 337429 169832
1049 49248 73068
1050 178531 178612
1051 688061 191028
1052 527299 897985
1053 39668 58135
1054 593633 931424
1055 711941 210491
1056 732229 24440
1057 49770 93547
1058 5238 89060
1059 545024 970862
1060 538257 916822
1061 337555 368057
1062 30605 823492
1063 328069 161471
1064 85088 134920
1065 374448 182390
1066 126377 385125
1067 629245 944657
1068 754972 201268
1069 323301 173476
1070 780337 128930
1071 765656 52398
1072 339117 198012
1073 94144 392828
1074 559865 975144
1075 1002964 388404
1076 1007908 334193
1077 150902 343308
1078 387051 206771
1079 340934 350875
1080 393495 432971
1081 38359 -2228
1082 -10593 5847
1083 60423 67128
1084 362544 362287
1085 402345 370195
1086 214584 166895
1087 749665 19929
1088 163046 150398
1089 117139 761090
1090 23031 837479
1091 91214 417663
1092 588376 965693
1093 706884 167854
1094 708293 190791
1095 156428 132726
1096 531088 948112
1097 174990 365130
1098 101281 108583
1099 687843 131527
1100 22507 842959
1101 36228 789957
1102 108471 144874
1103 352361 368466
1104 538059 908573
1105 74887 808495
1106 692846 206331
1107 177805 308032
1108 166576 124952
1109 571817 887828
1110 348422 150332
1111 55233 85609
1112 184435 152768
1113 773517 56212
1114 68330 807554
1115 1006051 338213
1116 346375 129069
1117 -155 95080
1118 34491 805478
1119 26094 48802
1120 308380 154031
1121 332974 360471
1122 130535 109305
1123 936970 361991
1124 85672 80001
1125 184887 349620
1126 594406 962718
1127 355339 140413
1128 751246 6706
1129 637416 945886
1130 763689 51283
1131 941921 323028
1132 138292 378520
1133 218868 110232
1134 58516 858068
1135 225631 132648
1136 203369 119587
1137 185632 144524
1138 84009 96569
1139 118778 315140
1140 590922 941330
1141 580093 977063
1142 89080 168388
1143 113667 122372
1144 163442 371583
1145 559441 945047
1146 266551 127906
1147 239248 149247
1148 983140 359234
1149 799164 46150
1150 246567 165329
1151 784188 23305
1152 36468 54465
1153 242866 151018
1154 173544 114071
1155 134193 144841
1156 977127 369748
1157 758866 50731
1158 36914 75216
1159 225311 123866
1160 986284 342556
1161 991973 328674
1162 145736 124559
1163 89132 355789
1164 364104 394069
1165 44883 820709
1166 123053 380345
1167 945137 403114
1168 315454 376442
1169 380021 386529
1170 109227 365965
1171 119902 219884
1172 20028 819299
1173 697584 245214
1174 378085 394048
1175 939206 344290
1176 125772 165539
1177 38727 67253
1178 548187 954921
1179 210445 180925
1180 167650 369700
1181 214525 176567
1182 560973 948079
1183 733910 26437
1184 333851 150250
1185 -20309 68183
1186 181072 143385
1187 373217 438628
1188 652118 183033
1189 936932 325816
1190 790728 42528
1191 112518 841766
1192 131977 139182
1193 355566 144280
1194 549179 925021
1195 774031 169524
1196 100274 149251
1197 130684 114386
1198 21252 772371
1199 12059 47566
1200 158631 170745
