NAME : portcgen-1200-1203
COMMENT : portcgen N=1200, seed=1203
TYPE : TSP
DIMENSION : 1200
EDGE_WEIGHT_TYPE : EUC_2D
NODE_COORD_SECTION
1 646514 727191
2 885296 249023
3 214132 903782
4 433014 842387
5 214564 818040
6 964044 232276
7 146942 531354
8 567598 244034
9 900704 435414
10 491889 234849
11 239416 920625
12 245123 825255
13 378864 848187
14 142101 527042
15 864145 755122
16 884938 601904
17 874726 595920
18 198161 877032
19 961174 216679
20 1001862 180651
21 436641 924572
22 942348 225133
23 884166 703301
24 905934 270003
25 906867 401563
26 925362 785255
27 888783 738891
28 597324 241023
29 577619 206715
30 400821 862053
31 577809 196164
32 892808 609513
33 198839 840275
34 572650 236500
35 277510 851792
36 827345 563580
37 169925 506479
38 934480 443643
39 630652 725048
40 964882 389892
41 881973 768228
42 903966 310266
43 523771 241552
44 291340 775367
45 930837 386405
46 309915 804628
47 900138 399128
48 928871 401716
49 371833 895868
50 191570 536332
51 947583 196469
52 386830 823536
53 287500 781067
54 407519 841995
55 846457 609224
56 219083 933316
57 597266 198029
58 639090 746743
59 194920 856168
60 380919 849971
61 931578 212382
62 917256 762962
63 917251 760181
64 861354 630247
65 204244 552045
66 186132 515630
67 542209 239234
68 873976 573449
69 907097 290938
70 911262 410681
71 195440 812946
72 177064 924563
73 644910 763541
74 152247 893822
75 555610 229066
76 113466 827626
77 628377 775835
78 914694 146561
79 136974 507776
80 274478 812669
81 344859 879498
82 110494 475343
83 574859 239948
84 372092 840543
85 121968 798597
86 249882 775287
87 916448 363695
88 384254 839608
89 911494 726562
90 159453 829232
91 187044 523952
92 868172 627898
93 388383 867393
94 115437 471065
95 611935 765825
96 916803 750485
97 898144 774831
98 934104 211873
99 259241 794187
100 300670 807472
101 248158 903797
102 345844 891020
103 210604 890724
104 794462 773361
105 553658 194226
106 929754 401721
107 839704 605404
108 145460 807680
109 195357 555302
110 588649 729615
111 209946 885176
112 915917 765477
113 120917 568183
114 448693 816000
115 155997 889003
116 972079 189884
117 269243 915305
118 200597 545200
119 393502 865675
120 962251 248606
121 653285 713637
122 213180 892613
123 936346 432935
124 885769 715641
125 633672 753717
126 977752 182436
127 344682 818578
128 289210 797286
129 884399 738120
130 899036 422967
131 229156 919867
132 188701 872300
133 871326 751630
134 227735 542369
135 971416 198827
136 817008 636934
137 322257 821202
138 668683 700564
139 1033797 224628
140 529190 256156
141 669348 740941
142 212526 899011
143 433373 896113
144 380009 877724
145 891724 831459
146 179283 864484
147 915100 712791
148 181839 844892
149 648602 715448
150 871698 373607
151 182953 542196
152 1000747 234130
153 830133 605720
154 237030 490152
155 267020 826556
156 154244 560899
157 947279 427573
158 539048 281109
159 418049 886002
160 883979 807661
161 899681 401183
162 239086 803167
163 134015 559540
164 697485 688821
165 429433 887580
166 938656 426272
167 875166 699413
168 200095 907070
169 965688 407038
170 604586 205354
171 134281 909518
172 838875 530092
173 217862 829351
174 520499 253759
175 831462 374815
176 280303 798484
177 177272 843832
178 907310 355254
179 205176 931528
180 588696 251920
181 557122 265287
182 558150 199548
183 926639 737899
184 180021 963703
185 576034 207031
186 154149 593277
187 394548 938771
188 176723 496303
189 583796 255526
190 896585 440761
191 408630 923611
192 188031 853530
193 644201 736240
194 258655 838355
195 925609 389376
196 278796 847950
197 881090 366352
198 270934 816786
199 350257 847765
200 596122 755577
201 164219 498991
202 445772 812930
203 853465 581404
204 222798 553493
205 185590 938770
206 187954 931820
207 190650 800620
208 818628 552297
209 957289 217780
210 911058 760140
211 195562 785705
212 908214 756928
213 922111 218391
214 282083 887442
215 550828 229277
216 972103 253555
217 254594 850842
218 1041987 200858
219 394363 851323
220 213999 922640
221 156031 513385
222 936123 210896
223 551236 226282
224 876613 205652
225 274470 806444
226 881301 337343
227 625317 760654
228 876746 694178
229 218372 880652
230 917662 247176
231 904154 243426
232 890483 724584
233 132046 769721
234 954781 174209
235 907968 245286
236 917456 769610
237 295827 796790
238 551895 186534
239 925554 461551
240 139405 506913
241 959286 168993
242 200125 926574
243 962857 792152
244 483185 219633
245 178849 784401
246 888598 569774
247 603638 746732
248 393124 906143
249 570350 259303
250 198530 818242
251 412430 900989
252 695034 763181
253 583941 747270
254 186560 871570
255 876521 562068
256 262666 908202
257 857616 581789
258 915583 360208
259 277666 871858
260 204833 949427
261 836963 208354
262 186916 579951
263 193859 905783
264 431223 866661
265 340645 804703
266 903276 755942
267 910984 408216
268 1000905 184983
269 919166 442357
270 883301 617189
271 857277 619779
272 198532 516501
273 197399 862068
274 993114 226226
275 256089 824935
276 135802 585541
277 172924 804721
278 154301 886238
279 274430 800115
280 521813 254198
281 198438 758205
282 138311 509836
283 198347 829470
284 614068 707845
285 809215 629229
286 926721 425981
287 152360 518006
288 132037 576885
289 897758 251355
290 584277 256330
291 201668 933536
292 184635 874028
293 589188 297915
294 126740 538111
295 953667 256353
296 168788 795975
297 625842 734881
298 980966 143947
299 949030 273562
300 864631 247667
301 940562 249922
302 216470 885210
303 256185 776973
304 895657 381111
305 403418 923871
306 874602 604641
307 942171 214065
308 153905 811781
309 949276 209030
310 250594 900064
311 274068 806118
312 613278 755662
313 939235 168033
314 996747 215439
315 880646 763611
316 440496 863093
317 608550 715792
318 522528 224872
319 856381 592596
320 537334 200124
321 622765 732916
322 160700 851438
323 295415 841780
324 870914 589026
325 409336 890166
326 941770 432666
327 449757 935177
328 553782 323074
329 109915 775718
330 433460 900725
331 154445 785780
332 903958 272398
333 615599 761902
334 601910 215484
335 562179 203682
336 918081 430101
337 902938 755949
338 607573 715484
339 190204 843701
340 964007 133027
341 205489 942351
342 505436 235140
343 836585 586277
344 872160 275005
345 886027 364633
346 228502 925067
347 953731 153973
348 885203 274990
349 873420 641604
350 190087 918775
351 171668 837539
352 642127 781159
353 159718 831557
354 897112 752197
355 206395 833615
356 912467 364223
357 141445 811792
358 865948 638007
359 135416 530362
360 423914 856308
361 173811 826552
362 154143 518911
363 888695 774112
364 159802 513429
365 174804 755695
366 822843 601188
367 977528 193148
368 887982 578278
369 882368 800732
370 362724 912738
371 848167 635150
372 146989 520551
373 785027 615394
374 913412 723012
375 614003 663650
376 148887 831263
377 214933 877022
378 203327 590319
379 910685 396933
380 967681 699441
381 927902 750599
382 969425 192886
383 894065 415722
384 936565 246962
385 172047 833306
386 597416 708106
387 892964 287363
388 465014 869486
389 533009 249866
390 326625 823064
391 931351 239138
392 319637 786273
393 958925 258573
394 163098 832519
395 269241 829991
396 960433 184743
397 275149 821077
398 568077 200545
399 244576 790864
400 510270 237321
401 440784 868901
402 798111 566226
403 560342 191429
404 959309 211253
405 905988 221281
406 202960 797377
407 212981 895306
408 428886 887249
409 943786 397979
410 400643 918749
411 964573 232999
412 224853 524740
413 922001 277328
414 870198 738169
415 1032985 195107
416 189961 913194
417 198741 899434
418 830488 800584
419 205529 826856
420 865235 390222
421 163555 497259
422 194723 494013
423 636136 776044
424 128950 840232
425 235042 892857
426 880502 388960
427 856081 558538
428 544158 141184
429 347826 915611
430 428735 866068
431 117984 820217
432 946552 201796
433 876618 562921
434 407884 895580
435 553404 195702
436 157183 827208
437 139645 532495
438 342575 833062
439 561561 231123
440 914051 231699
441 566352 225360
442 959416 179299
443 946332 438602
444 860121 640386
445 886651 776938
446 878134 389400
447 863732 812801
448 901944 783931
449 964300 248796
450 845950 646010
451 314232 823462
452 608542 765578
453 963177 179843
454 830563 567452
455 849662 588589
456 971331 204074
457 931998 711848
458 563559 174508
459 280346 807530
460 955337 186664
461 826251 598298
462 888505 262444
463 656682 727693
464 626112 757037
465 941121 406059
466 232235 944260
467 160790 787367
468 950510 217313
469 542420 227220
470 962418 198820
471 808894 586910
472 526351 258841
473 872657 254245
474 860093 597687
475 153902 795390
476 273751 827246
477 613402 737586
478 931442 431852
479 164757 830411
480 904367 255789
481 261459 895220
482 944374 410203
483 958642 181552
484 954767 176596
485 619137 761022
486 913220 396995
487 259464 900322
488 799559 592030
489 972634 162201
490 526691 221632
491 200868 897189
492 182922 903582
493 158331 869656
494 169739 818532
495 885556 770329
496 965323 214623
497 324130 803199
498 550107 230174
499 415543 844566
500 557414 319808
501 989211 187918
502 324583 838039
503 201699 953391
504 168328 892698
505 154996 547103
506 822497 604995
507 959705 228068
508 100785 852898
509 125037 488623
510 957167 274757
511 276847 854182
512 391820 889490
513 178600 815606
514 914479 220730
515 936325 435296
516 149263 842244
517 177080 815407
518 207273 896682
519 222480 839002
520 619572 744810
521 413496 829439
522 864706 620901
523 135909 826628
524 584943 686071
525 908550 341348
526 580061 227487
527 613423 759838
528 922955 774594
529 847088 781390
530 970598 218520
531 270237 804871
532 118864 863263
533 959996 249446
534 815597 631078
535 892083 633004
536 861013 271164
537 539774 279706
538 836095 563066
539 236275 865698
540 978033 187203
541 577298 247419
542 948094 246772
543 635879 769299
544 139881 803385
545 1030825 214684
546 331416 850310
547 594797 231447
548 521351 222756
549 873671 310951
550 551973 270115
551 277997 886986
552 140787 550671
553 439439 913283
554 287461 822138
555 918337 769030
556 548541 220770
557 986327 193203
558 809102 537539
559 592755 221862
560 927922 423682
561 907625 421799
562 948765 197768
563 632836 704367
564 606657 741110
565 538864 175718
566 932660 228258
567 930568 375018
568 176017 908215
569 134906 513636
570 929949 431526
571 381410 866059
572 528271 240832
573 165262 549048
574 919536 378184
575 192505 796396
576 396705 848510
577 892086 249119
578 997605 229385
579 303127 787559
580 529210 241693
581 112911 821887
582 252883 790850
583 188557 908305
584 886633 257681
585 870215 760288
586 531688 208357
587 891737 761247
588 555860 234366
589 980794 162354
590 603422 772374
591 194708 951187
592 916030 361111
593 63919 507668
594 665813 747940
595 243345 803289
596 277115 935729
597 543064 244512
598 165388 560215
599 325217 849752
600 634322 760995
601 833044 587434
602 881752 624536
603 151026 519571
604 533440 227683
605 926398 381632
606 282321 831684
607 942857 757581
608 859253 744004
609 181846 533511
610 239097 913906
611 270520 855655
612 155350 507336
613 151591 462006
614 916837 284865
615 877954 762484
616 896263 754801
617 958805 164660
618 867704 240065
619 903815 416726
620 810115 643575
621 536061 199152
622 381766 886027
623 189576 501104
624 205414 787614
625 940151 401632
626 939083 796890
627 940386 398297
628 128867 826478
629 940198 754830
630 931158 389536
631 427281 876066
632 152723 785967
633 973862 245731
634 913576 360406
635 273828 803618
636 148072 588554
637 250267 805937
638 539420 202530
639 405846 814139
640 625489 679199
641 497624 236158
642 552767 273811
643 561507 235595
644 984472 144719
645 639369 744755
646 922006 202878
647 537989 250142
648 117541 812543
649 984000 402407
650 216634 933967
651 201122 505449
652 179988 801910
653 293924 775332
654 538956 204492
655 876726 774309
656 859622 608999
657 1009879 224157
658 971671 210881
659 628144 690801
660 189072 950024
661 600301 710104
662 932124 194971
663 221426 802776
664 408570 900478
665 639652 769064
666 918789 754974
667 244911 836210
668 115593 853931
669 672432 756672
670 182933 498783
671 872471 658753
672 992805 185216
673 827125 575278
674 561068 231807
675 411074 872089
676 970885 178720
677 555972 255661
678 916761 755942
679 812415 630921
680 983373 197592
681 608204 234733
682 867729 668914
683 210221 521841
684 972882 173463
685 195870 943095
686 884860 768605
687 237405 891371
688 535824 213906
689 571983 206868
690 972349 246207
691 922309 745846
692 992012 227918
693 657467 756272
694 893573 699083
695 331678 769660
696 880780 217944
697 572743 220358
698 886126 369265
699 906935 380583
700 863860 716760
701 962926 390127
702 223699 909394
703 869666 593388
704 265287 802390
705 308042 811380
706 937488 397027
707 159209 850712
708 162704 542060
709 934208 177722
710 916537 384729
711 157712 536794
712 225093 907741
713 206201 523875
714 254387 900654
715 407794 911440
716 367114 848615
717 330620 833601
718 210856 844357
719 206191 786426
720 240135 858655
721 884675 573387
722 859676 231827
723 206816 905110
724 946808 203591
725 974453 229534
726 911614 760218
727 920693 386791
728 269783 869971
729 162570 818847
730 998068 150820
731 165626 865599
732 505924 204903
733 921550 287630
734 851352 674947
735 820924 611129
736 235373 883568
737 982280 169926
738 228275 866272
739 533499 256536
740 675321 792416
741 593879 209938
742 862720 583787
743 163226 535796
744 921726 775694
745 890407 271967
746 990673 228685
747 913665 405893
748 938664 216381
749 550107 245788
750 560707 235169
751 252700 795586
752 892372 648686
753 328061 779384
754 375750 857751
755 858110 392653
756 154377 555236
757 180851 908890
758 549257 200342
759 86617 537467
760 929319 414977
761 881445 786359
762 172872 507565
763 424433 895543
764 317776 828338
765 111373 857304
766 859231 758330
767 897942 240148
768 569594 218814
769 505554 214880
770 410658 892045
771 613463 234104
772 427477 823472
773 224857 901196
774 270037 801002
775 214038 974945
776 149498 524202
777 914250 712711
778 265304 833631
779 898084 181372
780 156865 541993
781 426886 872419
782 864863 743160
783 925924 419090
784 248475 841852
785 586088 197076
786 192532 883984
787 310171 866043
788 166926 942781
789 294923 852776
790 403627 875935
791 195919 833791
792 537473 263681
793 140523 911170
794 388631 842721
795 577102 212729
796 537159 239618
797 985876 232872
798 627025 729199
799 150492 523542
800 216956 935741
801 638735 733380
802 186038 553287
803 941890 757990
804 372200 923478
805 858651 531011
806 842944 579948
807 257276 802088
808 174473 523446
809 944320 410168
810 879434 416287
811 177432 851791
812 522718 204271
813 180523 506370
814 1021392 192274
815 192049 895712
816 596401 708341
817 890747 432760
818 290372 811743
819 551027 145722
820 408934 898569
821 616842 736865
822 195197 819080
823 451677 917239
824 829537 593468
825 644558 716871
826 568688 275152
827 885186 220428
828 129903 838651
829 937468 171113
830 150759 495888
831 885919 381839
832 123508 811416
833 857702 594852
834 178464 796921
835 579747 703099
836 315510 775248
837 879244 393334
838 578173 265679
839 409040 836812
840 908026 383091
841 972811 406660
842 487195 915358
843 924836 733659
844 306509 789906
845 624871 676281
846 395345 875346
847 853250 752281
848 201002 556324
849 213081 529821
850 617702 229902
851 186034 882486
852 809734 586268
853 628802 726751
854 229218 877163
855 188952 504924
856 414314 842062
857 948096 214236
858 301162 839433
859 624941 769944
860 242659 818721
861 899352 240889
862 849089 770382
863 923055 461820
864 418945 861032
865 336907 838265
866 201979 472863
867 955070 375682
868 519990 231929
869 182156 903940
870 796835 625736
871 913605 395321
872 963210 206807
873 165681 917703
874 162851 517102
875 200713 861440
876 176380 799574
877 911974 233011
878 207025 455918
879 650997 764862
880 575688 693766
881 610880 729087
882 176770 798538
883 567146 198875
884 286939 822873
885 862911 231704
886 902001 757226
887 899273 385038
888 934870 285026
889 157582 824149
890 616430 212668
891 568778 253961
892 237631 503508
893 817596 615516
894 633849 786540
895 851981 635809
896 190630 842780
897 885765 614066
898 183282 494036
899 1011072 241191
900 642257 787105
901 392211 868947
902 622265 746890
903 908160 233483
904 847948 445861
905 333297 773685
906 420346 900058
907 248760 851568
908 503489 220059
909 263123 871461
910 991726 187966
911 271303 836529
912 886148 292620
913 328118 827309
914 398909 827734
915 943919 730949
916 278983 864632
917 237705 815924
918 872961 707358
919 825305 627358
920 184561 829346
921 191004 824639
922 417640 880151
923 910687 770138
924 292030 841310
925 218351 926913
926 941184 272552
927 530940 260422
928 244827 925009
929 865707 749289
930 197742 814601
931 180516 853389
932 555810 229182
933 599968 739591
934 646560 764349
935 197003 913937
936 829821 581579
937 817441 561055
938 242167 916703
939 571740 243239
940 962277 255254
941 576721 235058
942 390480 841663
943 900720 782817
944 517355 267771
945 281547 797683
946 139955 576225
947 931821 162816
948 231462 909142
949 408150 902195
950 938210 752959
951 894600 764215
952 882121 622600
953 916304 767746
954 260797 830621
955 563502 267715
956 970612 204050
957 925858 403086
958 181098 525253
959 627171 692382
960 815122 562599
961 907499 803591
962 668040 735822
963 876877 629270
964 979704 180472
965 202101 901992
966 861687 741377
967 627453 785646
968 932229 399785
969 203149 920679
970 650270 747194
971 930546 317202
972 904824 403015
973 197493 847182
974 585245 711589
975 900544 734077
976 634220 716122
977 239587 968826
978 141995 834921
979 902015 753155
980 946215 198092
981 218935 884524
982 322085 856847
983 165985 1005475
984 952507 194241
985 637446 746117
986 291644 831647
987 907098 717366
988 327804 871034
989 1014282 169820
990 929671 451805
991 872857 785959
992 121619 537664
993 553030 199870
994 938758 173590
995 602045 821117
996 793700 595798
997 518906 226328
998 217969 920739
999 904017 272505
1000 928268 168240
1001 202727 839988
1002 880102 260480
1003 924325 229997
1004 569588 251437
1005 867139 789208
1006 191083 801770
1007 1001015 242495
1008 884641 216465
1009 912860 765956
1010 271442 836717
1011 389217 900866
1012 656205 697758
1013 914866 243647
1014 224553 856773
1015 874339 263720
1016 874427 725979
1017 623910 263889
1018 172951 501055
1019 894770 787689
1020 121839 506496
1021 155180 522700
1022 919147 246978
1023 373946 878891
1024 180249 937089
1025 550285 225614
1026 847659 592839
1027 954666 177832
1028 114311 541891
1029 873316 740115
1030 886296 608018
1031 951264 237501
1032 872443 577996
1033 204762 938707
1034 885740 743533
1035 275976 830917
1036 873497 240876
1037 913310 729078
1038 269206 787793
1039 844762 740938
1040 873755 267242
1041 234748 821135
1042 188962 891400
1043 399806 906588
1044 267362 861119
1045 915626 792877
1046 431725 899008
1047 920294 447063
1048 168216 840344
1049 980553 389903
1050 180394 847504
1051 206655 809977
1052 896679 749640
1053 948900 305045
1054 852599 745709
1055 630192 742186
1056 949619 726883
1057 862217 626376
1058 140187 499208
1059 305104 789963
1060 530347 202380
1061 380547 859761
1062 942339 193544
1063 279626 811478
1064 601799 742209
1065 892770 811694
1066 154970 567934
1067 333410 854174
1068 846945 563239
1069 980645 205807
1070 500770 212448
1071 582661 244625
1072 219715 892938
1073 191655 790299
1074 911489 403073
1075 187389 789297
1076 1003780 181648
1077 904912 743240
1078 855908 730741
1079 552194 250485
1080 812142 579846
1081 834676 736389
1082 618159 749034
1083 563392 244188
1084 431929 945044
1085 548348 238488
1086 239740 953772
1087 243333 901705
1088 439243 911944
1089 347576 850551
1090 210634 514127
1091 564473 196684
1092 952608 725822
1093 932574 455039
1094 564185 238142
1095 146399 521428
1096 895091 294437
1097 173085 536405
1098 891895 245620
1099 922000 777655
1100 926973 157710
1101 255457 795372
1102 240468 802793
1103 639888 709668
1104 175690 910412
1105 506761 159707
1106 902074 577377
1107 926776 435608
1108 160190 837804
1109 545918 202703
1110 253168 789384
1111 864566 421109
1112 917218 765747
1113 594829 249317
1114 879729 758659
1115 204025 949115
1116 613895 704313
1117 853321 581115
1118 913494 228828
1119 891926 761171
1120 1027088 190744
1121 442030 858852
1122 263957 882110
1123 569194 202159
1124 590133 209285
1125 184037 500365
1126 941031 373897
1127 573254 280486
1128 885730 782656
1129 663333 696374
1130 406152 827065
1131 801444 631924
1132 610700 743148
1133 297494 781956
1134 868192 766729
1135 197703 782078
1136 865766 553717
1137 887714 641638
1138 553928 264835
1139 273207 822863
1140 852440 770340
1141 902708 398704
1142 286476 846310
1143 840081 597778
1144 907778 726952
1145 332767 824869
1146 251597 858803
1147 152906 561557
1148 809850 595520
1149 876647 776350
1150 615318 712899
1151 873381 702157
1152 165967 803189
1153 374111 878331
1154 892198 190632
1155 989991 181347
1156 890523 726932
1157 172938 920025
1158 957731 426554
1159 172806 884601
1160 589992 197396
1161 874925 602871
1162 926431 734221
1163 931756 723519
1164 196642 855939
1165 269599 909836
1166 191170 923802
1167 895277 530559
1168 874879 269633
1169 894443 255585
1170 884403 354758
1171 961897 263317
1172 930146 800592
1173 856713 606732
1174 428194 863948
1175 901856 748503
1176 395203 886474
1177 838066 243844
1178 927621 397488
1179 909131 379578
1180 842704 618995
1181 931229 195198
1182 172476 795685
1183 566476 245390
1184 182223 563938
1185 903933 760097
1186 953659 187777
1187 923325 738875
1188 389732 911421
1189 841278 574327
1190 927223 404781
1191 657654 725287
1192 663712 672802
1193 308740 840652
1194 174747 496808
1195 948498 203328
1196 130649 516713
1197 402135 828215
1198 868947 772611
1199 807959 563554
1200 697598 694861
