NAME : portcgen-1300-1309
COMMENT : portcgen N=1300, seed=1309
TYPE : TSP
DIMENSION : 1300
EDGE_WEIGHT_TYPE : EUC_2D
NODE_COORD_SECTION
1 656097 524396
2 670469 221409
3 356818 537739
4 412435 156911
5 458458 377834
6 874685 349704
7 352602 297320
8 324542 104950
9 463585 393758
10 74778 927426
11 701073 185932
12 699702 207442
13 862991 972574
14 343187 362211
15 470724 538223
16 259438 201832
17 850785 354269
18 409796 466660
19 691054 248602
20 617937 765656
21 647546 253653
22 413643 538174
23 494759 418880
24 654811 490592
25 691827 238572
26 620477 675542
27 889899 362871
28 231650 186709
29 61122 848318
30 480709 566134
31 163333 867019
32 600251 716565
33 120228 918441
34 218262 180688
35 417042 108100
36 322112 290950
37 477079 315158
38 581889 717044
39 437867 522487
40 659381 517276
41 391917 97702
42 921266 948295
43 239266 115820
44 348537 327058
45 720636 274888
46 737224 190698
47 466331 403159
48 113798 920522
49 394563 159445
50 200516 227138
51 336501 114413
52 458297 429194
53 492261 352425
54 79203 926216
55 863901 374943
56 108417 906874
57 725910 169453
58 100399 916516
59 559820 401452
60 661528 225205
61 331090 310822
62 897574 317668
63 909869 934611
64 679804 494510
65 902001 988358
66 879106 366690
67 465135 390949
68 595274 686830
69 420450 524687
70 370552 308559
71 609294 669753
72 638291 485374
73 472078 363360
74 391245 113384
75 915734 909642
76 626173 703478
77 920129 981404
78 196872 164846
79 665505 522578
80 707345 518670
81 93342 903099
82 654105 211248
83 905019 979037
84 695682 483813
85 672034 500645
86 441560 520903
87 655473 143866
88 113738 858113
89 431104 508044
90 222795 172027
91 720805 203089
92 595319 497927
93 885397 981341
94 644658 467676
95 624486 518572
96 228039 208823
97 452733 382789
98 883997 961876
99 251553 211239
100 369931 143683
101 541793 671448
102 468512 437365
103 452319 406449
104 326593 101591
105 470463 387243
106 950954 945929
107 192251 188948
108 480226 384582
109 738666 189737
110 951123 939973
111 319888 333262
112 842340 967193
113 850198 1029166
114 655535 558919
115 740160 198388
116 402316 568794
117 182340 206315
118 654848 505794
119 213805 257717
120 99269 925093
121 575024 714444
122 391447 171588
123 495879 402755
124 608589 722693
125 632779 225853
126 705768 191684
127 427741 495037
128 492340 412001
129 902715 986733
130 963738 948959
131 544569 710093
132 555241 695289
133 559379 767712
134 380153 160974
135 660099 698185
136 444636 537896
137 82775 879416
138 924510 334674
139 497459 366979
140 423982 537220
141 679800 260389
142 329800 311237
143 224302 251582
144 856860 375950
145 851735 438292
146 453805 402850
147 357897 295524
148 691426 200999
149 608487 527861
150 878168 981269
151 659136 540067
152 592834 693738
153 148201 937365
154 235894 194791
155 692207 220973
156 640184 182808
157 875143 996973
158 204399 193339
159 727110 181712
160 334912 317614
161 719604 161654
162 369414 138159
163 922275 962804
164 359954 197508
165 328557 307338
166 681782 216580
167 887982 984292
168 116414 965297
169 113266 909127
170 107664 938667
171 902066 936832
172 396538 87204
173 652141 228666
174 164775 891950
175 569259 713512
176 503825 383878
177 354454 281834
178 662414 492220
179 493851 418657
180 425689 548595
181 437923 510120
182 592072 748258
183 668072 249875
184 354466 141863
185 708614 205407
186 868743 991610
187 62136 939302
188 446809 553451
189 358168 300959
190 373983 275208
191 405937 522402
192 207054 152722
193 644259 227059
194 673883 235487
195 642113 204701
196 789811 347130
197 323987 367347
198 338576 330941
199 195047 182752
200 895179 975588
201 671364 245022
202 191822 241782
203 607299 482755
204 646849 563067
205 103871 928995
206 646391 178822
207 450891 355605
208 593874 719027
209 388869 141126
210 707329 240967
211 358212 328315
212 720374 492761
213 588456 749946
214 452859 569295
215 428101 567647
216 375352 122107
217 438496 582178
218 890968 938403
219 385632 316574
220 591855 743644
221 937948 898450
222 639794 474154
223 419940 529690
224 585057 730168
225 577762 736902
226 844260 991724
227 136787 899394
228 163878 910784
229 894351 970965
230 622409 531219
231 632857 153604
232 126923 890436
233 385757 300542
234 614263 728303
235 896815 953649
236 148715 920073
237 509732 355569
238 123507 950778
239 901837 942682
240 896104 344955
241 907882 915384
242 480534 561754
243 428995 547995
244 342602 141571
245 945375 976377
246 598741 757836
247 681574 514727
248 860240 984785
249 392409 562640
250 116899 922282
251 312870 317854
252 835928 968654
253 444567 123359
254 615538 676889
255 881574 974668
256 713806 266307
257 606861 751887
258 589494 750299
259 109437 924499
260 814322 349659
261 953230 967507
262 136759 945215
263 694635 196119
264 430322 523980
265 936797 931653
266 398481 494462
267 947690 955900
268 873127 988568
269 649369 173263
270 224234 245203
271 367202 485475
272 699859 195392
273 506409 394803
274 696647 125955
275 942106 932510
276 142298 919408
277 649811 154926
278 657769 569310
279 394704 140930
280 62590 978457
281 155383 927311
282 134433 990208
283 390478 152870
284 894727 364195
285 699873 249601
286 351145 187087
287 199783 188913
288 813144 362820
289 622621 488295
290 963273 934319
291 861921 349865
292 620772 205420
293 987122 961552
294 213455 110998
295 916795 951695
296 119458 951404
297 724059 185142
298 844181 400539
299 407355 132980
300 660796 189763
301 320815 292624
302 583342 756110
303 961852 894124
304 378831 326943
305 441191 542211
306 153736 893131
307 591715 727422
308 234414 208303
309 376278 509667
310 706417 538149
311 947763 962059
312 273228 201755
313 883266 369067
314 879690 337242
315 382305 276237
316 551712 724317
317 885334 358814
318 866427 332474
319 892783 405488
320 190556 195756
321 208060 166888
322 885229 355087
323 666757 204648
324 154205 952948
325 437983 487630
326 921156 397584
327 681249 206586
328 634042 715996
329 696001 169244
330 340251 285965
331 912252 955596
332 202687 171449
333 851358 974150
334 734946 190100
335 866868 975849
336 871463 1037908
337 860909 965358
338 730258 198241
339 204761 179174
340 478854 528092
341 399896 182063
342 469986 532248
343 36270 999203
344 430196 553936
345 332989 278064
346 654265 490546
347 624666 167984
348 244750 153024
349 993551 912125
350 140437 873021
351 565945 194692
352 523447 372692
353 964308 993777
354 963536 911929
355 375458 134320
356 220011 229218
357 595113 689920
358 182724 161515
359 194036 201171
360 423851 566645
361 439546 561665
362 862973 379704
363 662053 186735
364 308364 336424
365 242728 165723
366 421909 355933
367 688760 180657
368 927131 963158
369 419589 527246
370 879930 945413
371 866296 941520
372 623058 208154
373 933738 988983
374 73397 936409
375 671533 187788
376 457707 501219
377 421138 499468
378 696521 220704
379 637348 256776
380 899123 337711
381 249964 222465
382 394983 119709
383 88481 891818
384 681789 233497
385 859908 1018726
386 357920 338486
387 208779 208977
388 262053 330669
389 373776 280366
390 375084 121628
391 451050 341519
392 622773 204353
393 657151 219307
394 398904 517763
395 298724 341090
396 848834 337998
397 627671 522304
398 716108 270550
399 936895 956381
400 909085 960005
401 341011 189578
402 683635 208488
403 214251 215302
404 130233 907130
405 886599 964383
406 408116 588066
407 505379 360780
408 281642 311448
409 672398 220516
410 207667 163185
411 593260 503531
412 659966 210361
413 179265 202185
414 197751 199355
415 897215 944675
416 879999 991994
417 669402 207113
418 705833 172367
419 207928 162036
420 173321 201901
421 167506 193574
422 674918 523377
423 617750 704601
424 309082 284998
425 424384 524892
426 638156 212343
427 655837 486814
428 857932 974644
429 128318 915958
430 859696 380262
431 321462 321361
432 237649 191735
433 963992 968992
434 198481 209296
435 213311 195147
436 855287 310764
437 933706 923018
438 493352 337096
439 635510 230747
440 360104 306519
441 398681 421641
442 497553 544184
443 686814 196831
444 623735 744862
445 894304 988154
446 333327 327645
447 403956 535889
448 351306 284368
449 527447 376161
450 920073 955058
451 827410 354834
452 593282 527260
453 604603 749676
454 999261 971913
455 427480 573245
456 233079 184478
457 437884 568167
458 645127 176774
459 512329 643535
460 643999 681987
461 891642 1001657
462 225936 189258
463 877964 364965
464 937200 931373
465 980235 969287
466 936432 955506
467 659707 168088
468 883333 383205
469 98056 914018
470 652172 228142
471 686047 216979
472 516417 391911
473 104084 926310
474 810290 974754
475 353958 284741
476 678527 183131
477 708215 204495
478 473424 530458
479 489051 528096
480 471932 524727
481 258451 220918
482 914243 981343
483 122601 919270
484 695590 493779
485 687220 229143
486 597817 668259
487 676146 513661
488 746819 265079
489 576040 703517
490 861981 352531
491 237766 201005
492 864971 964093
493 670011 182648
494 417147 540453
495 973928 924144
496 619823 517513
497 875145 995396
498 880393 358104
499 488509 380937
500 417685 524636
501 992236 961953
502 865820 984501
503 143866 175582
504 916451 977481
505 175815 202519
506 352847 149789
507 252832 194513
508 356282 157536
509 603881 705781
510 468037 109693
511 707395 229820
512 934169 1002950
513 121160 968684
514 654493 656041
515 619061 525604
516 97128 912715
517 609329 540715
518 898646 938354
519 207505 172256
520 167379 143584
521 842433 348497
522 876535 343438
523 212332 166677
524 660925 242355
525 816867 363426
526 749063 154458
527 343312 324316
528 844143 352725
529 935988 994387
530 886747 966342
531 818556 363481
532 108643 940191
533 919271 910887
534 196602 207923
535 212004 234236
536 320105 131006
537 124610 959532
538 685719 228305
539 145620 889587
540 922871 962837
541 436770 454840
542 473127 392792
543 330965 325155
544 542029 738172
545 972206 963809
546 957955 955403
547 407522 123682
548 746700 197809
549 384491 147986
550 550687 723702
551 858323 334204
552 473363 495825
553 473093 386267
554 812544 379850
555 722917 202341
556 201571 157145
557 198627 173658
558 334030 165459
559 173891 917870
560 602890 226990
561 831018 382693
562 670225 268018
563 619405 731171
564 365959 326968
565 478149 335706
566 725320 191673
567 678149 262534
568 700110 183021
569 218548 172840
570 927187 942839
571 852075 366014
572 878420 372283
573 664245 546643
574 226692 192995
575 918655 968971
576 607451 482540
577 638187 178855
578 460004 326463
579 375373 278745
580 701885 233723
581 622767 768681
582 470789 567466
583 652777 192336
584 602152 683572
585 457022 539655
586 728140 189102
587 182265 172064
588 658342 196124
589 568912 715820
590 879868 989019
591 833188 981122
592 791555 410246
593 860052 375621
594 342031 124316
595 579376 724463
596 687592 161805
597 85514 937357
598 868525 1003603
599 453945 511909
600 609731 703180
601 879742 992986
602 447068 512303
603 477904 306161
604 642519 158605
605 354371 295814
606 377214 180909
607 523758 376412
608 439000 506652
609 934713 931992
610 361113 364379
611 893020 1026404
612 147273 901151
613 610168 701998
614 961155 978689
615 551159 695708
616 882145 947965
617 391648 296722
618 732762 224066
619 645058 713338
620 619023 246415
621 541579 416044
622 668069 495112
623 70406 900225
624 402302 556937
625 494023 474878
626 847708 982925
627 931414 946392
628 970509 930385
629 634169 173796
630 110438 877126
631 724432 206079
632 715965 176485
633 985442 919287
634 367289 172133
635 847286 376654
636 402024 509906
637 433121 536574
638 472077 518439
639 878432 961156
640 610304 732050
641 410704 165194
642 687131 182947
643 375167 279225
644 382881 520380
645 628829 713775
646 433138 516787
647 385117 333126
648 346246 175080
649 661005 514450
650 701019 263628
651 899062 947713
652 886428 958267
653 385421 148151
654 639532 201253
655 222848 181784
656 474566 422125
657 631539 548467
658 693994 171195
659 676317 225418
660 910259 981182
661 715779 210500
662 868100 938791
663 139647 881994
664 666600 497281
665 595005 749125
666 688718 204409
667 930541 966985
668 615880 684548
669 351170 156108
670 366754 106202
671 889727 1035878
672 185915 228460
673 970460 1022129
674 347180 276512
675 639657 504333
676 405013 516934
677 152946 958975
678 224131 173183
679 839942 376485
680 550113 393816
681 492861 419054
682 123450 916963
683 244396 198388
684 652409 447010
685 412948 500282
686 945437 935268
687 211755 189592
688 914981 933138
689 471431 346100
690 154998 208413
691 432095 479190
692 676267 220525
693 893960 965288
694 968544 933794
695 689131 191820
696 646455 180074
697 621683 502395
698 104068 900252
699 227192 224631
700 716432 203409
701 729064 199196
702 870121 949471
703 877722 363724
704 591992 715044
705 463019 360534
706 840346 299364
707 896787 979431
708 608611 707268
709 926579 999745
710 958217 948977
711 620716 489237
712 687476 204106
713 930134 949409
714 887124 966946
715 706202 241267
716 664805 512281
717 289616 316849
718 378535 568198
719 865022 985522
720 599789 702001
721 691505 494912
722 680149 233457
723 92680 942945
724 723878 229000
725 675894 238306
726 909963 964034
727 100323 901757
728 626779 213940
729 932356 931907
730 942779 977042
731 375155 159574
732 484414 351559
733 239148 165222
734 927715 1027616
735 901219 373372
736 420599 334199
737 439338 563946
738 684007 223089
739 310840 338235
740 873721 330403
741 620328 514156
742 641519 252268
743 579595 750844
744 862910 363340
745 109871 921365
746 431558 551246
747 611828 512531
748 401475 485885
749 609601 558978
750 724734 185507
751 424075 520920
752 374190 321601
753 110436 920841
754 942078 389839
755 595039 693638
756 678891 505686
757 965583 963285
758 485484 379796
759 382842 178158
760 701438 238862
761 884448 385191
762 941237 960717
763 479388 395641
764 468481 405378
765 696527 238199
766 518302 430090
767 179108 210676
768 827361 344771
769 673023 219366
770 715321 201208
771 884464 944432
772 577707 669940
773 964099 961282
774 888774 358487
775 683549 235708
776 695613 194879
777 710911 143337
778 440275 524978
779 424074 301827
780 677937 224015
781 458357 349641
782 213309 152017
783 417601 548526
784 642935 158504
785 961048 936436
786 845953 365389
787 909189 1069838
788 602924 678038
789 97941 918232
790 873485 970749
791 867512 349228
792 597577 720365
793 200670 148645
794 938014 961337
795 912170 1007773
796 447498 525835
797 981798 956165
798 986613 966019
799 139348 901103
800 629227 683067
801 680752 532356
802 894452 977360
803 652666 219872
804 496806 353348
805 637762 533442
806 202688 151650
807 347825 298326
808 67760 956706
809 614496 692368
810 634169 533203
811 846443 987302
812 79388 894691
813 179037 172744
814 674304 198409
815 724572 210041
816 869854 373765
817 934798 1010477
818 89709 921973
819 196878 205043
820 142059 904913
821 336902 383513
822 662720 181596
823 355102 290422
824 945307 951007
825 625716 474385
826 900047 970188
827 892256 342666
828 704680 209016
829 433654 533691
830 467871 389421
831 361366 172248
832 418448 150714
833 610571 530200
834 610050 711916
835 880595 373347
836 639986 540275
837 359312 304722
838 725346 160758
839 245260 167486
840 649662 539998
841 722801 188106
842 621686 488919
843 442434 382219
844 859757 1045694
845 554961 733514
846 617560 463819
847 447926 359382
848 283945 315370
849 956567 938449
850 440356 563590
851 729761 201972
852 462525 386175
853 377047 305204
854 954506 949998
855 686625 198159
856 691981 487013
857 873330 357343
858 313429 299471
859 586932 732595
860 179295 181601
861 658936 463974
862 656714 503899
863 365051 314229
864 600056 742800
865 76766 926863
866 632558 480741
867 386899 161679
868 862743 335011
869 879511 936435
870 134434 965610
871 356861 137747
872 652690 519321
873 201813 163254
874 361369 474640
875 632119 678978
876 443404 499325
877 625315 694902
878 911191 958712
879 667607 205113
880 404078 517463
881 685201 218043
882 677249 533153
883 125152 947896
884 717644 208819
885 882032 368855
886 238905 177212
887 442395 401849
888 862520 363912
889 375011 328428
890 149635 924019
891 915533 973029
892 468906 509842
893 458348 527279
894 919548 1006724
895 896172 970959
896 379387 169226
897 935532 1028008
898 175936 923148
899 620024 490017
900 654907 520558
901 473019 365062
902 648224 205905
903 319502 277852
904 683179 220609
905 836410 378087
906 432066 576263
907 360089 154857
908 208866 179810
909 108160 945797
910 410480 573850
911 864572 299709
912 629063 582532
913 903281 993352
914 681074 224196
915 110537 964575
916 675941 492442
917 318001 132630
918 217979 166095
919 668349 248402
920 165427 970368
921 476530 334783
922 427984 551346
923 641540 495315
924 263421 212402
925 878066 948013
926 663366 511227
927 389751 174417
928 597835 674171
929 658694 198925
930 901278 947492
931 358119 161536
932 369859 155994
933 497494 424235
934 657253 239607
935 622877 669123
936 190645 150954
937 697388 216641
938 458187 512904
939 602652 733254
940 457766 379695
941 133295 907410
942 943985 950471
943 255011 210846
944 708708 191106
945 394610 510328
946 698939 229661
947 649977 196102
948 317778 307243
949 188472 247452
950 474221 468642
951 728316 173660
952 644306 515714
953 627311 691278
954 357025 146144
955 724859 226372
956 925508 977703
957 853376 1048264
958 978119 1001595
959 666428 521941
960 74496 891135
961 680613 473906
962 667316 511959
963 96353 904366
964 427562 339778
965 196245 140437
966 542604 398464
967 721064 224482
968 661681 264858
969 596275 738834
970 669243 200375
971 894115 968754
972 827294 357221
973 611220 197481
974 228370 168282
975 643977 211957
976 417126 509663
977 638661 528090
978 238855 252793
979 84880 880299
980 687835 526363
981 309993 294692
982 352241 318882
983 664186 138266
984 223103 150003
985 478131 378005
986 485675 408249
987 230882 182456
988 947894 983703
989 395922 491890
990 621042 513023
991 480841 364052
992 676218 206664
993 229383 208889
994 384443 117781
995 617653 495905
996 189434 216487
997 116386 904884
998 946054 980591
999 111844 929126
1000 638259 713640
1001 326232 368427
1002 354518 274840
1003 652408 501216
1004 721333 241963
1005 435101 601980
1006 838250 339509
1007 141616 911943
1008 868353 993699
1009 699953 172283
1010 97406 908279
1011 610194 674219
1012 903290 363363
1013 433536 376349
1014 428037 540444
1015 395167 132203
1016 916876 987067
1017 107700 911476
1018 619123 197628
1019 127645 893282
1020 197988 169291
1021 194095 218649
1022 194991 187631
1023 146625 166245
1024 673971 226888
1025 875580 968511
1026 959597 844446
1027 378467 267839
1028 859330 344461
1029 651976 525898
1030 704514 230598
1031 322203 319194
1032 505694 343268
1033 385667 143916
1034 951708 953259
1035 678960 237727
1036 441549 399726
1037 905950 984903
1038 392272 158418
1039 920364 955463
1040 65479 927950
1041 329572 320044
1042 665059 249825
1043 652450 532673
1044 693394 243902
1045 457358 369636
1046 644503 704834
1047 210093 186323
1048 392644 492920
1049 718916 212274
1050 914567 306126
1051 879783 955630
1052 917586 969514
1053 569381 747993
1054 186453 927127
1055 221552 183261
1056 558518 705996
1057 907092 353770
1058 133627 860130
1059 634251 194107
1060 873739 933131
1061 224968 232858
1062 480746 551203
1063 491626 403365
1064 655835 736598
1065 497308 420212
1066 672835 226091
1067 440383 464891
1068 439756 524109
1069 624131 678418
1070 650390 448878
1071 560587 677887
1072 707727 153688
1073 891235 995969
1074 346194 171520
1075 459058 334606
1076 669762 198518
1077 687466 199345
1078 909490 940804
1079 233821 201170
1080 858276 1021013
1081 843043 942759
1082 666187 487468
1083 677224 233647
1084 658826 466417
1085 897493 395057
1086 654090 238000
1087 620163 733554
1088 443091 377144
1089 937413 973769
1090 567024 747110
1091 689260 193360
1092 383177 154306
1093 908496 972825
1094 917239 948172
1095 143089 923256
1096 457605 440206
1097 377595 141377
1098 349198 331168
1099 958275 969816
1100 335909 302473
1101 342904 218924
1102 928268 952822
1103 959440 962619
1104 126819 909555
1105 208670 192588
1106 239524 129516
1107 519446 392803
1108 698628 516429
1109 599504 706085
1110 928760 1011625
1111 440550 472755
1112 294205 310478
1113 696240 509148
1114 669167 188455
1115 631138 457100
1116 219616 191615
1117 458767 550024
1118 404261 129967
1119 707240 194168
1120 460470 388653
1121 147884 886123
1122 448852 562680
1123 648225 180140
1124 574249 692235
1125 389815 507450
1126 824904 374483
1127 660184 209766
1128 666610 247580
1129 717659 175031
1130 665885 201059
1131 923237 959297
1132 71146 926584
1133 420449 529886
1134 392603 483860
1135 772600 210635
1136 306029 281013
1137 711296 227447
1138 358943 300447
1139 524039 447284
1140 586506 693687
1141 116338 930894
1142 496939 367847
1143 937386 940280
1144 427181 534712
1145 714720 206099
1146 686553 222573
1147 841680 405013
1148 484479 417300
1149 642293 178860
1150 680192 164021
1151 701290 170008
1152 607388 503690
1153 395602 137007
1154 915479 965006
1155 851311 308380
1156 642546 187764
1157 77406 961098
1158 121703 962820
1159 408340 508252
1160 511760 370589
1161 347538 278621
1162 865934 937124
1163 586680 693898
1164 935806 983058
1165 861489 295781
1166 633750 740646
1167 971379 974928
1168 404493 545737
1169 917614 984657
1170 659017 198194
1171 379591 152865
1172 407420 493194
1173 387793 312117
1174 860486 959623
1175 249829 162942
1176 715286 215658
1177 228103 192801
1178 600093 717840
1179 432328 521176
1180 691351 214447
1181 431489 330366
1182 566087 728663
1183 634777 670508
1184 632744 504488
1185 641706 710189
1186 925289 969840
1187 903195 971774
1188 852976 344257
1189 208093 166854
1190 970532 933977
1191 460768 392570
1192 363378 168846
1193 127900 902329
1194 380738 274021
1195 688605 224705
1196 689051 446484
1197 675616 220172
1198 889166 1049424
1199 961187 961974
1200 606996 684175
1201 700682 199567
1202 612876 761746
1203 196717 220002
1204 592048 726453
1205 406037 608623
1206 489505 366827
1207 194864 193788
1208 402881 500210
1209 324813 339067
1210 931885 974871
1211 634442 495477
1212 417248 128254
1213 596859 533468
1214 376158 327780
1215 932920 982148
1216 896877 931554
1217 99085 952955
1218 646687 566280
1219 120033 892467
1220 398476 144709
1221 616019 729439
1222 668301 209374
1223 384531 196051
1224 712942 170951
1225 815522 321411
1226 521680 399955
1227 906665 949311
1228 640556 256626
1229 446742 516639
1230 937179 1003840
1231 931740 935122
1232 102610 862838
1233 659584 218826
1234 623839 676345
1235 411980 136959
1236 301537 310692
1237 102150 915432
1238 355557 283538
1239 350937 341349
1240 886236 956863
1241 627294 737410
1242 356484 150296
1243 437355 528819
1244 663560 177049
1245 887667 315511
1246 385898 172338
1247 891126 988624
1248 420395 189047
1249 849803 1000616
1250 402430 574019
1251 363653 304515
1252 669080 180554
1253 464113 349832
1254 661051 230766
1255 401047 567842
1256 646598 243661
1257 892067 303945
1258 354675 282665
1259 358625 309757
1260 961095 942370
1261 428484 550386
1262 898706 324876
1263 620806 650296
1264 291594 357817
1265 260461 160490
1266 292188 281195
1267 859474 336594
1268 901665 308630
1269 638629 494717
1270 905489 972442
1271 642062 493464
1272 368070 128949
1273 345777 329551
1274 859189 392719
1275 756158 194264
1276 744112 217119
1277 651560 221598
1278 417568 513371
1279 899058 341419
1280 941379 969304
1281 462304 435405
1282 893812 1021994
1283 700100 176172
1284 596631 772406
1285 892866 1003522
1286 118020 894687
1287 885449 954840
1288 213857 187319
1289 679701 239722
1290 604578 687658
1291 140520 921523
1292 900574 950998
1293 621637 504251
1294 849067 356926
1295 495756 380241
1296 993654 917556
1297 623680 670690
1298 368715 155318
1299 651271 559282
1300 576947 654318
