NAME : portcgen-1000-1002
COMMENT : portcgen N=1000, seed=1002
TYPE : TSP
DIMENSION : 1000
EDGE_WEIGHT_TYPE : EUC_2D
NODE_COORD_SECTION
1 267516 601739
2 376850 379187
3 960425 995158
4 170132 267030
5 184231 547357
6 92265 631212
7 141211 680089
8 348101 316323
9 352038 457232
10 926872 118628
11 295545 452169
12 189638 555413
13 302938 442647
14 284804 627517
15 943200 938981
16 900192 151015
17 210553 456221
18 320358 482977
19 310836 488429
20 124887 714638
21 856422 396512
22 985638 942838
23 956111 938929
24 344695 489623
25 140964 651903
26 144129 984559
27 279061 604704
28 826672 379193
29 350968 397074
30 271293 583066
31 842055 430941
32 174356 252871
33 376916 476134
34 396055 320174
35 143079 657221
36 837666 375982
37 784978 386458
38 206754 241565
39 190952 555482
40 391071 323089
41 160648 647155
42 849523 67908
43 901652 47057
44 86667 706417
45 299534 384031
46 162697 537763
47 833012 425089
48 313228 618260
49 165173 464770
50 138585 276328
51 934196 83534
52 111672 974848
53 298478 645877
54 293535 567894
55 367757 461507
56 260405 423105
57 406328 303280
58 823042 394764
59 164904 620149
60 410199 335474
61 381275 365933
62 366836 340852
63 190884 470726
64 867003 100976
65 790803 378894
66 146788 669506
67 936009 128562
68 81535 926093
69 138450 675467
70 296182 456994
71 114434 713769
72 825711 448257
73 207148 523441
74 147422 694370
75 96995 658009
76 168645 938071
77 204509 496063
78 342640 454291
79 125129 701050
80 167320 676979
81 159580 260749
82 304562 303363
83 939473 122749
84 115105 931425
85 861219 69430
86 157799 502990
87 144441 694372
88 104727 683164
89 943698 97679
90 120844 647683
91 799950 363121
92 378166 362956
93 341642 385003
94 318889 435987
95 132419 282956
96 171927 486419
97 338900 502759
98 172118 491667
99 168452 642309
100 394212 289901
101 847937 400885
102 953492 907065
103 199042 504501
104 118948 658204
105 215920 491391
106 915144 123068
107 113426 1009249
108 141243 703125
109 146271 952535
110 136628 650766
111 296945 608255
112 198385 217652
113 115739 964177
114 264202 620857
115 939785 110836
116 923734 112512
117 249194 568134
118 347077 319326
119 196559 509314
120 411104 330885
121 352926 443731
122 93600 683209
123 364470 302745
124 129061 959550
125 187012 502615
126 268605 679005
127 817354 398982
128 370218 468205
129 977431 920037
130 312753 321881
131 263062 590528
132 121007 1000753
133 169149 508496
134 67812 982128
135 39340 694633
136 229138 479650
137 838873 418690
138 929034 85020
139 852576 384104
140 948013 966887
141 156173 674401
142 176069 275811
143 255564 306614
144 125737 486805
145 304817 569340
146 875107 125391
147 913086 79558
148 353153 389337
149 861155 71539
150 959786 967164
151 811609 398166
152 274777 585053
153 323489 424315
154 959118 89829
155 907024 938206
156 955492 948948
157 172413 683826
158 119348 955399
159 191452 994010
160 149557 676928
161 263675 586875
162 174209 508570
163 869917 400864
164 323750 327680
165 952742 147443
166 853941 421236
167 262347 572050
168 309037 472086
169 921640 929657
170 298250 433866
171 302236 593810
172 270403 598360
173 192173 289159
174 100964 995605
175 293008 627101
176 267959 631535
177 351437 442947
178 201065 356561
179 261889 592163
180 337408 383104
181 160576 502829
182 304312 489452
183 859227 369641
184 332980 400429
185 936169 937281
186 310789 642169
187 795896 464327
188 149347 228324
189 918155 880156
190 95245 953395
191 865414 936741
192 127628 626794
193 324273 318919
194 219813 588140
195 374363 292553
196 126500 948578
197 116691 703912
198 72681 1010848
199 949002 884964
200 109987 719747
201 914858 153244
202 326557 314348
203 349706 452771
204 773953 400416
205 844528 430402
206 115827 619325
207 146804 690880
208 211018 535933
209 214104 450185
210 104925 923663
211 83730 978065
212 817384 415252
213 971863 943170
214 806207 362253
215 227765 247366
216 368218 352739
217 832140 425741
218 120124 603384
219 154077 952708
220 373751 342804
221 318258 464212
222 127211 252093
223 334544 442139
224 296415 475878
225 305681 607902
226 387698 347253
227 281009 556212
228 953867 872679
229 858133 404413
230 317397 608547
231 841143 425227
232 770266 406451
233 177161 294604
234 359756 343876
235 135879 738295
236 221394 430899
237 188446 518946
238 803536 419887
239 1049441 97809
240 834684 376985
241 122116 918341
242 940856 99070
243 947730 99178
244 173073 248827
245 224839 523772
246 914343 103677
247 342380 384858
248 133066 724295
249 766328 406597
250 105405 950211
251 159600 652044
252 403574 443016
253 337981 591400
254 206028 533045
255 962050 896077
256 912601 136745
257 904012 950141
258 240634 473427
259 206281 256351
260 134724 234871
261 258056 610529
262 894928 911092
263 104277 594667
264 55399 923596
265 311243 379625
266 907066 119238
267 803652 377670
268 140100 904384
269 336484 461001
270 306467 659823
271 323090 640822
272 189793 239570
273 409177 341939
274 109571 962753
275 133834 629147
276 281769 582184
277 238906 244768
278 341141 490667
279 178929 240224
280 978895 929702
281 101075 951176
282 819776 338419
283 288246 569869
284 303327 625350
285 123293 974234
286 953422 98649
287 317217 445724
288 202799 483819
289 897371 79381
290 83291 924144
291 208865 472461
292 248246 565092
293 145675 910498
294 413458 510358
295 317497 449325
296 890094 895201
297 826031 408978
298 854501 401504
299 170175 456801
300 981050 936479
301 276210 565969
302 343652 577208
303 353662 330104
304 838819 354259
305 166259 659265
306 221522 662432
307 436762 348565
308 919122 76207
309 362935 455590
310 173430 678015
311 394574 347711
312 187582 493052
313 291672 413244
314 275431 628686
315 928662 953543
316 267129 563408
317 909035 142422
318 856102 461010
319 181108 229086
320 153240 667116
321 319823 524725
322 299889 604798
323 252678 583096
324 356879 342440
325 836090 116428
326 333457 408667
327 356550 379576
328 913549 900672
329 122326 653595
330 297041 610829
331 899242 977122
332 945761 40826
333 221027 485952
334 279507 494227
335 389561 421680
336 216153 266884
337 239652 590727
338 341957 479366
339 428461 373479
340 802418 409496
341 327269 586304
342 297201 447299
343 334872 447417
344 304573 615977
345 143493 225960
346 755260 390092
347 894643 79638
348 287983 431901
349 833624 410747
350 118661 948969
351 206487 530941
352 389394 339312
353 191466 252481
354 194487 456085
355 231524 271512
356 361550 295313
357 935951 865830
358 240422 233115
359 897446 902366
360 923289 116555
361 194124 277644
362 836929 400040
363 132665 699920
364 813695 384900
365 817776 441550
366 1020998 947336
367 277947 603900
368 338466 411173
369 833826 378795
370 993992 901769
371 184173 271486
372 335216 464450
373 372189 465220
374 307882 447215
375 148898 457362
376 185516 441572
377 830130 380893
378 113720 989434
379 954424 930504
380 121347 906988
381 171337 295260
382 901116 93644
383 797617 460367
384 332088 501321
385 150490 964339
386 175158 484710
387 319206 409345
388 265132 299645
389 391553 460233
390 859171 386139
391 892825 90255
392 369291 341963
393 139567 614083
394 795548 410926
395 949580 72564
396 183025 462468
397 900167 114904
398 122030 616818
399 364246 500256
400 821883 397819
401 166022 484967
402 254706 241450
403 361134 443400
404 368111 469800
405 325506 333121
406 311860 450255
407 934609 103109
408 914540 921608
409 301504 417797
410 96654 889833
411 176991 539198
412 347284 421915
413 147637 652740
414 224135 251531
415 80979 923693
416 944055 88889
417 179193 264417
418 118288 956843
419 316089 574340
420 840792 435005
421 107599 950966
422 175655 721918
423 397456 358405
424 322060 466666
425 247774 585929
426 123092 956503
427 369833 329985
428 315672 601249
429 825223 409039
430 114913 659697
431 936856 947624
432 245435 622781
433 358593 483688
434 761086 413610
435 100268 966222
436 933472 53999
437 1050732 919411
438 951073 905306
439 894705 869843
440 841231 64122
441 831417 118701
442 174868 534467
443 186886 256894
444 208204 502880
445 207888 485477
446 99200 968033
447 137980 548367
448 147250 270408
449 958189 990184
450 137489 669759
451 337576 450560
452 897534 898323
453 932865 139425
454 207806 256906
455 351428 347231
456 834158 416382
457 354779 335946
458 958793 924679
459 208675 506337
460 157021 1029194
461 971746 993724
462 177935 475241
463 357427 354039
464 297781 489858
465 166303 950218
466 956574 933681
467 915421 75923
468 800489 360356
469 764171 408112
470 302658 502488
471 355298 552911
472 123500 972101
473 201773 499590
474 794971 416181
475 129024 978559
476 912110 88506
477 172446 672511
478 332505 338808
479 130461 606747
480 866837 90259
481 233502 293299
482 856117 91162
483 197853 513023
484 915763 128321
485 290699 610191
486 997318 918657
487 169783 907004
488 346578 422195
489 249879 648865
490 96722 936108
491 779730 414121
492 130498 713634
493 175983 971996
494 950241 926317
495 126906 980956
496 904030 107432
497 964101 897261
498 268863 629707
499 376038 344133
500 193198 320434
501 151852 532743
502 155995 614315
503 888711 876782
504 157185 283116
505 810298 405301
506 819215 309283
507 348457 604429
508 342703 601771
509 792087 392540
510 224558 539594
511 363953 394672
512 228927 573022
513 326577 474909
514 378540 327331
515 922832 897044
516 327174 429177
517 158783 959343
518 332185 449020
519 902041 172750
520 152820 632289
521 111382 975163
522 349499 600190
523 850062 439933
524 123301 901085
525 853372 401036
526 901964 120217
527 325687 615363
528 938401 950332
529 163688 646920
530 943188 942546
531 869097 421852
532 812754 415433
533 75983 929183
534 166741 512978
535 175803 208337
536 177565 454414
537 922720 895827
538 918054 866519
539 263795 621074
540 103216 605691
541 187960 420509
542 339760 520511
543 155086 951560
544 424364 307444
545 166310 280537
546 906549 136072
547 168375 479428
548 267669 570684
549 415723 319102
550 857699 427004
551 925286 895884
552 242975 598484
553 175001 714438
554 406078 349058
555 150394 691720
556 357926 465211
557 397329 485968
558 141853 914103
559 959025 880668
560 931669 76202
561 323660 585804
562 214174 461171
563 97772 962494
564 320226 391477
565 357298 402978
566 904585 911947
567 379010 445921
568 130094 634056
569 164747 473434
570 338077 461176
571 876382 470879
572 151056 660367
573 932682 972748
574 117928 911522
575 329972 563390
576 198928 477247
577 351290 460072
578 250004 241003
579 358259 402147
580 179741 296158
581 158833 655544
582 194209 227549
583 123786 628247
584 264555 579317
585 353130 338172
586 179059 259766
587 348955 329883
588 260075 605139
589 983994 902225
590 780792 396310
591 155363 688794
592 112217 663585
593 284995 613174
594 182155 657678
595 405508 345738
596 862628 425196
597 226075 554531
598 144161 290411
599 189697 512448
600 899054 123400
601 232821 288123
602 117247 640818
603 886422 8107
604 147008 501627
605 169553 949744
606 904108 101846
607 185445 528817
608 283053 621628
609 114015 964720
610 175005 274888
611 364658 432464
612 366804 401540
613 919967 134922
614 969872 898571
615 259570 626219
616 358868 475564
617 301522 512835
618 248444 599343
619 332193 499179
620 954720 940009
621 149707 957649
622 916309 971567
623 927615 109465
624 348588 341493
625 920779 190235
626 957956 905512
627 932643 887486
628 904984 960274
629 310403 574703
630 360646 399232
631 142691 630443
632 972685 900014
633 819144 406826
634 258018 634899
635 851067 455702
636 339701 388152
637 398915 349666
638 371676 596615
639 831206 455152
640 277725 601230
641 814811 414360
642 966971 145053
643 330666 413647
644 350680 615098
645 155594 589558
646 399205 364395
647 100195 936678
648 173844 1013132
649 127171 946053
650 806065 426293
651 939366 950663
652 98929 953367
653 144789 652410
654 237696 579712
655 127681 680836
656 152665 273594
657 283754 623362
658 353090 284804
659 386458 339292
660 804882 434875
661 326924 311260
662 401167 332642
663 85038 1003478
664 910208 121515
665 77126 979088
666 173401 290132
667 141286 466681
668 141698 995862
669 113882 927324
670 166906 254762
671 1004932 936026
672 136584 949369
673 983941 982385
674 70639 977575
675 160011 996908
676 300436 627818
677 184196 544070
678 103565 628615
679 91284 969606
680 337540 430881
681 191868 689526
682 934118 934798
683 318355 334489
684 302540 502146
685 137749 611790
686 124312 704516
687 185773 218743
688 991671 904055
689 317996 605864
690 951716 904252
691 202255 251990
692 111163 913957
693 202269 448719
694 143253 197522
695 807349 431876
696 126235 680728
697 1010730 952137
698 912020 928391
699 903964 922737
700 971544 899168
701 325238 597880
702 125306 682074
703 243460 435063
704 308870 347013
705 235699 586967
706 356775 353125
707 75266 713830
708 806927 415745
709 75219 1003280
710 1000531 887728
711 98446 701879
712 350479 429643
713 103195 696269
714 178961 485723
715 174837 506001
716 91750 951503
717 319024 454426
718 332693 360612
719 175436 525292
720 141246 454289
721 98276 962726
722 313182 434503
723 89889 708329
724 218390 471451
725 833280 466981
726 805930 312802
727 396792 350780
728 780622 402987
729 151853 736203
730 131577 641362
731 958002 952228
732 116223 998856
733 168720 516428
734 939285 934436
735 132007 673173
736 900341 845740
737 315077 614807
738 323874 459205
739 796603 440974
740 855190 435625
741 291036 610861
742 286557 595955
743 914382 907849
744 327553 434046
745 953804 902474
746 355403 444127
747 313496 582574
748 934632 939499
749 798026 408668
750 190150 256294
751 195645 494706
752 317282 289821
753 916976 882688
754 137744 910934
755 362088 455539
756 898052 956298
757 176676 248597
758 772116 417341
759 181435 671246
760 205378 219052
761 837027 441199
762 180651 303106
763 897859 883955
764 108585 643081
765 906348 113071
766 242267 622425
767 970148 955015
768 302070 438447
769 901760 176386
770 245517 221920
771 904098 116129
772 968854 903715
773 186158 207076
774 385408 329100
775 780828 361573
776 112186 964906
777 39049 929464
778 339433 449705
779 884355 112750
780 797218 383698
781 932155 915817
782 114227 965394
783 126649 716755
784 333500 449577
785 851699 335414
786 351309 451342
787 948206 141125
788 840668 441575
789 167402 542257
790 317437 464248
791 259079 614571
792 197309 243490
793 249931 241213
794 924440 151509
795 321445 382111
796 890779 176607
797 209130 290156
798 330319 430277
799 346477 500534
800 132113 993290
801 117966 963349
802 335448 419048
803 1019961 880612
804 129974 663458
805 225097 542743
806 328853 467780
807 171825 269576
808 287901 615869
809 316273 359457
810 300423 597038
811 883595 93914
812 376562 463800
813 947255 984053
814 194152 482587
815 79461 925587
816 153360 528550
817 310089 633007
818 302276 551512
819 379681 344351
820 968391 903436
821 151349 287246
822 188089 969528
823 906018 82171
824 853816 371540
825 133067 683316
826 174323 972457
827 167064 488098
828 939368 208317
829 59405 921336
830 917915 83544
831 198661 306290
832 184430 271597
833 96881 933111
834 376407 427745
835 116856 993481
836 190371 522839
837 900424 151826
838 874822 423569
839 120515 901355
840 807335 410626
841 899613 87294
842 316406 544476
843 250273 600573
844 351620 394812
845 129582 496351
846 183326 533543
847 209496 287386
848 269728 457742
849 804708 398214
850 291124 590973
851 315615 590485
852 300717 451734
853 862029 414580
854 854621 415222
855 342301 333129
856 358114 358908
857 102957 940647
858 121421 962349
859 973124 80265
860 403306 372588
861 202850 499915
862 229754 520834
863 153802 643861
864 366488 459521
865 128204 671514
866 325045 490317
867 88348 723451
868 931984 964562
869 100787 974896
870 198980 271301
871 829918 416840
872 231987 575703
873 882078 126451
874 938983 968440
875 96190 906774
876 92891 694114
877 983927 907352
878 103059 918499
879 119141 664201
880 203261 572820
881 199711 483532
882 137565 981535
883 288090 646816
884 862579 417511
885 91658 958449
886 296456 561167
887 106184 719607
888 427107 339050
889 354478 469570
890 815050 433527
891 200340 297709
892 324192 450641
893 308071 635353
894 339958 641246
895 96543 978188
896 370687 449454
897 284653 637566
898 899181 106333
899 930531 854230
900 130402 929140
901 201518 274292
902 76556 930681
903 201291 487303
904 110536 660250
905 148271 969532
906 933200 155326
907 301248 469044
908 836767 392660
909 855818 80330
910 951325 878294
911 156094 208671
912 335511 379561
913 179643 503115
914 214417 281114
915 292160 452484
916 132941 495215
917 881671 998293
918 38491 930066
919 942246 978088
920 116374 652917
921 235388 562744
922 194392 521116
923 843093 78783
924 917605 65618
925 973268 957828
926 983173 146594
927 101109 978725
928 355177 403539
929 802453 390682
930 369317 383786
931 173708 688825
932 407674 363927
933 154113 274307
934 110821 660703
935 874765 95294
936 343234 323980
937 193703 567486
938 36054 650645
939 825009 336306
940 176002 977933
941 218513 231572
942 246217 549680
943 357640 442296
944 408719 325256
945 309929 438870
946 265150 572629
947 177370 623758
948 170100 508636
949 298819 605347
950 128902 981738
951 335937 634563
952 323096 324580
953 75130 1016503
954 964750 953331
955 62779 915875
956 913534 963576
957 918910 90654
958 179033 274053
959 205110 518793
960 371133 469049
961 139197 655436
962 954343 116949
963 203703 226115
964 221095 652764
965 842399 341083
966 324739 258559
967 232602 640398
968 120619 939047
969 291324 645547
970 815151 395584
971 196425 482126
972 115426 229435
973 983183 877059
974 954646 929241
975 381951 394298
976 963109 926817
977 309106 604333
978 243200 527767
979 191658 474415
980 972927 865716
981 113332 277521
982 345697 346687
983 967383 937976
984 942579 905237
985 968830 150435
986 160892 650364
987 128587 927059
988 78817 867113
989 322504 390703
990 944728 921306
991 159516 536785
992 316228 475820
993 1000574 952479
994 133784 217283
995 368632 364757
996 279642 607841
997 78357 980922
998 135678 644913
999 321953 328572
1000 128629 938834
