NAME : portcgen-300-302
COMMENT : portcgen N=300, seed=302
TYPE : TSP
DIMENSION : 300
EDGE_WEIGHT_TYPE : EUC_2D
NODE_COORD_SECTION
1 236595 109350
2 701568 737058
3 600142 365908
4 404061 320552
5 309971 23499
6 484739 320591
7 660293 693761
8 480023 368398
9 471774 376979
10 210051 -89328
11 557284 235443
12 164282 25703
13 688284 680624
14 671509 625596
15 731655 710846
16 754791 698168
17 561186 742324
18 568894 620471
19 255229 62321
20 562868 336584
21 458789 281721
22 601626 686188
23 690932 797094
24 169941 154385
25 239570 -12976
26 248727 -33641
27 522211 274743
28 629990 689710
29 686215 669712
30 698001 699691
31 548245 732245
32 685324 655600
33 494571 323600
34 494953 354665
35 550072 342038
36 708016 697020
37 730952 639909
38 160154 68622
39 229467 39097
40 472260 221903
41 732411 672686
42 824033 669508
43 638300 638666
44 703763 671378
45 671126 661002
46 598710 300706
47 622015 689168
48 659935 699881
49 613105 625935
50 463012 311316
51 546095 320662
52 620201 749475
53 517287 354279
54 626306 653391
55 236797 -9153
56 655790 655648
57 659119 793291
58 597240 724832
59 463894 204042
60 181540 100535
61 566980 309192
62 279066 139212
63 236887 -8799
64 168778 53753
65 749436 685791
66 232156 26776
67 700515 685236
68 638387 734740
69 478782 301579
70 540846 252184
71 516234 331940
72 511717 351240
73 465607 361183
74 205928 -5574
75 471270 276437
76 511887 330062
77 572056 698942
78 493834 338133
79 606500 726447
80 482610 259033
81 516290 334434
82 488578 403754
83 470348 333145
84 503342 338357
85 487842 236165
86 195855 -43073
87 460472 304000
88 522988 292918
89 672917 763778
90 562447 286440
91 548586 324845
92 722678 658525
93 227590 -46776
94 753488 760887
95 519737 298544
96 747902 711421
97 566163 359157
98 521149 307037
99 217206 -34126
100 554860 367943
101 223606 -52363
102 295227 26496
103 212969 -45313
104 722161 719028
105 693656 681158
106 613927 327032
107 314598 70660
108 629006 795872
109 594022 716112
110 689234 727607
111 454788 378026
112 180969 -3569
113 623829 732297
114 612424 631818
115 293228 19996
116 471609 307836
117 516826 226035
118 587193 279487
119 581757 250567
120 290211 70051
121 538405 408114
122 549381 760524
123 301014 38671
124 187949 23842
125 199450 -62445
126 668242 766792
127 653291 644878
128 689148 637495
129 618080 615895
130 534929 367270
131 191625 -6490
132 476368 262086
133 502522 328565
134 288654 40979
135 699610 693279
136 494668 272906
137 266839 67653
138 361808 7117
139 201879 -46131
140 725919 664962
141 436348 250697
142 523117 302665
143 631391 584565
144 250859 -12403
145 663313 677582
146 705464 733611
147 472241 332906
148 207552 125080
149 84496 79165
150 292066 5534
151 592051 674168
152 562139 379894
153 412831 359461
154 142653 53412
155 140314 17942
156 566143 669964
157 795627 766355
158 706340 737301
159 212043 5198
160 746841 713640
161 158992 -54748
162 652048 745018
163 551249 351117
164 505806 359987
165 655206 775813
166 195533 100801
167 117836 15697
168 533559 691560
169 638484 738688
170 660092 715199
171 190458 105953
172 612168 403725
173 776077 620392
174 557638 382326
175 247257 6936
176 521673 282999
177 695717 706513
178 140129 -13884
179 621457 763312
180 675211 605814
181 506168 312864
182 677726 724177
183 505083 377419
184 756795 678282
185 512111 261165
186 363138 -5072
187 454964 305626
188 548035 343713
189 216479 17928
190 622628 259015
191 303597 74152
192 687057 727032
193 605562 342633
194 738067 755229
195 626200 834985
196 643163 600761
197 687863 693283
198 462320 211736
199 485455 332776
200 594505 302583
201 567137 322794
202 758675 618933
203 720850 771504
204 251401 95729
205 640053 689328
206 196344 57546
207 255539 109364
208 659853 661199
209 628207 752227
210 280860 43411
211 464490 274423
212 211449 -1042
213 222743 64367
214 168135 59948
215 286715 74512
216 642171 627860
217 654700 670238
218 595188 656281
219 218225 88444
220 237652 -15326
221 329927 51407
222 579391 329618
223 554776 307172
224 599792 423597
225 330588 16367
226 610296 273309
227 309662 10471
228 469425 265224
229 519763 330747
230 601201 762432
231 493125 317182
232 486479 208448
233 542855 206200
234 254001 28785
235 568397 387879
236 181659 -24714
237 548802 351707
238 202369 38186
239 610893 714195
240 503874 274933
241 182742 57275
242 173927 19755
243 638693 654185
244 512351 358261
245 516317 257075
246 495298 371519
247 641108 658019
248 241903 42495
249 414708 346357
250 210289 64069
251 566082 248313
252 182901 72522
253 695708 740234
254 594889 693911
255 177751 43868
256 559738 304351
257 135933 60773
258 722217 590394
259 503190 273304
260 726406 513034
261 618815 742969
262 663544 728040
263 678577 836518
264 216600 -24856
265 636732 654258
266 251800 88335
267 658410 693936
268 291053 132294
269 783323 610281
270 499717 430378
271 538975 335343
272 203023 -28899
273 257320 71577
274 165500 75109
275 138650 24061
276 540731 202640
277 223515 -50222
278 335094 85259
279 461112 393820
280 224322 34662
281 544278 400741
282 468047 316094
283 179341 36334
284 537639 385316
285 639998 681742
286 604218 248369
287 710102 742410
288 296513 42040
289 722321 676591
290 705472 639728
291 629537 663925
292 747195 781571
293 665888 724440
294 480828 329754
295 528211 405068
296 540380 279260
297 272283 3592
298 548684 372124
299 224352 -8124
300 685826 701409
