NAME : portcgen-900-909
COMMENT : portcgen N=900, seed=909
TYPE : TSP
DIMENSION : 900
EDGE_WEIGHT_TYPE : EUC_2D
NODE_COORD_SECTION
1 964617 263513
2 128769 473855
3 701557 444593
4 215073 255959
5 923640 239640
6 733136 475770
7 59682 112423
8 911759 193480
9 729311 282092
10 648417 385293
11 951531 240029
12 554331 229416
13 84951 668108
14 115642 399980
15 723649 496502
16 797451 438184
17 794590 399942
18 673300 292807
19 963610 315199
20 993474 313969
21 508912 213106
22 109442 146736
23 662568 470900
24 79730 705344
25 301486 222922
26 482061 200452
27 726568 451769
28 998916 292351
29 525055 175245
30 53492 640066
31 114760 726866
32 148056 634383
33 49308 121165
34 114655 662715
35 142482 697846
36 982027 262859
37 49742 163558
38 707013 474972
39 156635 677057
40 716615 332044
41 36657 124245
42 686508 244148
43 709500 342182
44 565701 195642
45 991760 307151
46 781766 439670
47 984487 295062
48 71357 348209
49 519424 284215
50 947640 225137
51 689573 373883
52 111698 386652
53 72612 313383
54 79841 691824
55 63380 134112
56 165539 690454
57 290983 247850
58 769617 479591
59 951733 227424
60 112392 653768
61 670644 286934
62 732196 479902
63 782968 453888
64 989384 263974
65 966805 254396
66 264951 223456
67 68935 79336
68 132992 679272
69 103995 639682
70 66687 125696
71 145821 418367
72 101724 365108
73 7929 154518
74 61141 687123
75 32289 91843
76 333830 287368
77 531026 257058
78 27273 718307
79 51655 400764
80 683945 355098
81 -15360 147265
82 58238 156557
83 97195 113821
84 886058 234713
85 133388 674756
86 485108 138241
87 1063706 219949
88 664717 353835
89 927245 257924
90 645479 312728
91 288170 166946
92 105327 340197
93 505140 221551
94 307629 214776
95 44408 74121
96 1022696 282346
97 950776 228113
98 88156 652026
99 947490 228354
100 69723 354119
101 674650 327276
102 997327 215115
103 101492 653388
104 710197 393561
105 92117 687148
106 94738 124766
107 287447 281038
108 929614 272414
109 28026 185416
110 652098 311265
111 753045 449142
112 124670 435942
113 1019396 325429
114 163705 398266
115 855880 228240
116 174162 704868
117 238702 264168
118 58990 433022
119 71970 107456
120 973845 176459
121 360938 232795
122 947828 264122
123 927952 243220
124 85873 375127
125 313698 211049
126 932353 323721
127 489343 248926
128 712932 505317
129 88162 115613
130 920527 241257
131 482482 246325
132 115802 618298
133 251254 176591
134 732592 320953
135 615098 338985
136 121998 401021
137 103637 420834
138 506676 224979
139 46211 115628
140 489248 211958
141 800767 446015
142 555343 182962
143 984804 288417
144 95933 107359
145 949050 218703
146 751343 474439
147 737897 478774
148 158270 335913
149 564502 181531
150 308558 230665
151 935855 308336
152 338801 277216
153 72138 709499
154 30658 156164
155 552343 172195
156 81327 102626
157 860438 209985
158 894077 199594
159 954818 228394
160 549486 139069
161 126343 438433
162 744717 423362
163 87667 669270
164 107744 374257
165 106808 403812
166 750109 435105
167 103485 741644
168 67303 679058
169 664810 509126
170 133769 393876
171 107266 649715
172 683398 285172
173 73203 189327
174 467551 245875
175 688859 324783
176 45638 110818
177 290888 229682
178 -26470 63360
179 715452 455463
180 102548 697909
181 137613 443377
182 768557 483706
183 749245 465042
184 471587 188124
185 527876 222720
186 294773 256959
187 99037 651244
188 117131 80527
189 47234 352999
190 148659 664794
191 935162 229202
192 226207 216133
193 496069 190843
194 123221 708872
195 75712 686301
196 988475 283650
197 467544 222301
198 63260 116714
199 685063 309930
200 965103 221818
201 982312 293770
202 722360 428365
203 548813 197399
204 1021101 327168
205 996749 218814
206 649088 340216
207 284691 248674
208 676793 320487
209 677654 344571
210 706084 508783
211 300688 236626
212 569092 236457
213 527063 238658
214 506206 226413
215 293734 272276
216 122819 690425
217 940850 315198
218 123360 680920
219 603259 317216
220 59091 111816
221 300884 249824
222 1003527 240685
223 873135 263421
224 835958 209103
225 995597 249954
226 317612 209646
227 964039 281252
228 640605 306163
229 1024966 248224
230 927115 275619
231 765275 438539
232 322432 285457
233 815940 452750
234 1015706 280342
235 237579 263269
236 650135 337925
237 101947 126164
238 107961 152494
239 506159 197660
240 922391 268482
241 493203 235845
242 977250 307766
243 117097 391203
244 1038448 318299
245 184217 678072
246 120107 97035
247 744523 477946
248 35777 105271
249 968177 262996
250 94875 692346
251 311611 248518
252 764805 465992
253 925256 260509
254 487819 221430
255 719970 429000
256 712312 370002
257 944735 263406
258 451830 249053
259 911149 193218
260 154317 389280
261 672113 261154
262 502042 292892
263 704673 469738
264 699774 437713
265 724650 293769
266 908938 230117
267 86471 700898
268 137112 718535
269 939641 242280
270 969561 273896
271 121293 183872
272 281701 238471
273 656940 347160
274 295845 228887
275 665554 267903
276 100267 668715
277 98464 715376
278 651870 345028
279 82932 395164
280 990547 313388
281 893664 204605
282 -4516 99307
283 -971 135689
284 996198 247726
285 94100 397884
286 299196 229205
287 106333 130080
288 156094 341551
289 521460 250343
290 86139 184648
291 973513 225880
292 529644 215267
293 80186 679612
294 599347 189027
295 316552 263134
296 16122 126979
297 286894 259281
298 337722 289231
299 288764 261465
300 52065 99905
301 724126 363749
302 108287 367870
303 247071 243410
304 515827 212176
305 91993 724338
306 690645 363967
307 678626 290237
308 73498 667645
309 88973 110073
310 495016 213199
311 501387 232598
312 663644 277126
313 54500 101144
314 56845 733045
315 83419 362860
316 503559 197255
317 271012 197812
318 134038 350646
319 84174 365716
320 960805 187239
321 278088 248864
322 535632 243492
323 288864 269226
324 502956 190076
325 535278 190297
326 946420 291869
327 121696 400110
328 238718 249535
329 301089 202383
330 298179 269755
331 656956 303466
332 48108 748785
333 172030 419696
334 95062 401761
335 910626 234346
336 127816 435822
337 143707 414127
338 1039858 244417
339 68973 131403
340 621882 334782
341 537215 295725
342 113390 684018
343 688474 501976
344 236686 273390
345 960654 248464
346 986467 203715
347 93211 439509
348 129097 680448
349 1005794 275836
350 953015 212924
351 522320 205555
352 326722 181244
353 748509 477919
354 746096 461507
355 714275 418691
356 28362 193947
357 1021267 333854
358 79981 408931
359 691966 304680
360 936180 188311
361 506133 179194
362 58123 666846
363 71285 759712
364 81309 371327
365 486427 203275
366 82329 112732
367 8596 150916
368 951782 130152
369 524978 204048
370 518476 219148
371 1015216 326709
372 947893 234455
373 102742 661544
374 301911 257272
375 979644 266374
376 57925 122275
377 88752 685478
378 808589 478903
379 973691 225010
380 93902 697745
381 1063112 264273
382 499917 226794
383 888596 243755
384 56053 415950
385 129364 451666
386 262168 209887
387 904347 195524
388 103880 372011
389 659854 338860
390 525189 229629
391 689836 371156
392 35791 711381
393 995577 326608
394 101998 742318
395 635678 299740
396 1036977 238063
397 283134 263352
398 675882 357829
399 657064 345223
400 795973 433475
401 72398 115888
402 999870 266564
403 50394 657203
404 106087 124941
405 672189 330012
406 47760 179623
407 728054 349495
408 976283 285489
409 785049 506502
410 961280 254608
411 138573 412966
412 251411 207874
413 301212 247272
414 929801 240007
415 491333 150360
416 733040 494281
417 959684 234321
418 756737 463684
419 132727 374915
420 54048 392620
421 60105 98618
422 514916 182004
423 97690 180476
424 545986 259430
425 563175 182066
426 668170 368572
427 712556 475810
428 677992 328952
429 900327 248045
430 606706 367528
431 97729 369297
432 155514 699467
433 948900 218490
434 944295 296135
435 268877 260266
436 71812 454594
437 926520 223636
438 880175 196891
439 88279 659329
440 652175 377542
441 885802 217167
442 302456 205667
443 536976 258815
444 708344 335992
445 125476 403760
446 54871 190240
447 268825 195642
448 484814 230584
449 83195 421457
450 699449 338755
451 989454 269712
452 941519 232107
453 903021 253960
454 53396 696632
455 86409 399713
456 137323 418515
457 48165 122117
458 33522 147075
459 38648 165307
460 998032 235663
461 730021 529456
462 108869 353469
463 477402 218953
464 73455 119079
465 697232 296191
466 19577 735803
467 282613 282600
468 654348 294711
469 98629 338275
470 105913 388660
471 530757 186566
472 123228 651639
473 539453 206885
474 996758 293361
475 1029585 226118
476 137047 382549
477 113502 402852
478 267290 186496
479 163629 442498
480 96228 377189
481 110512 664787
482 190790 397541
483 88120 88958
484 91205 340697
485 792506 504796
486 54753 685023
487 147693 338536
488 945248 243508
489 116646 352303
490 671557 340357
491 911665 203663
492 544630 232771
493 671816 268016
494 94209 130740
495 80866 164191
496 904022 234957
497 -8164 667768
498 946554 175436
499 508197 217053
500 99236 418734
501 76834 149924
502 -9197 100900
503 500193 222158
504 100745 107828
505 508804 228592
506 229036 204402
507 337774 174888
508 946812 257892
509 534821 196148
510 46390 183342
511 903803 228587
512 884076 298900
513 1002959 276377
514 96043 437602
515 255343 281405
516 927591 309017
517 960156 250656
518 150828 356699
519 287532 274795
520 890068 256959
521 243855 198352
522 852649 219332
523 165163 436366
524 125216 421293
525 604263 369525
526 938773 261944
527 80790 80895
528 35332 165560
529 937899 287992
530 762348 478769
531 739147 469394
532 110313 695552
533 758236 481676
534 96653 649839
535 1023110 258316
536 503056 200812
537 702621 376478
538 285831 334648
539 1017863 318789
540 223808 242426
541 485097 212925
542 53136 690995
543 263492 257828
544 671592 268046
545 98889 409635
546 915809 202714
547 480816 218500
548 58899 99612
549 910679 259695
550 105339 674627
551 39168 148635
552 743462 517706
553 727254 479282
554 328937 220018
555 966486 228717
556 925822 253516
557 68514 146838
558 88947 641789
559 654617 345481
560 701476 350279
561 910397 201177
562 702354 357111
563 998279 223191
564 964207 307225
565 927909 207222
566 34655 122821
567 638571 344405
568 109789 123281
569 854103 188354
570 339901 194060
571 338609 254815
572 664600 365636
573 966077 263356
574 954377 242407
575 1059817 253254
576 681418 253267
577 636850 346911
578 101381 381301
579 998470 268812
580 517211 153229
581 146700 374860
582 878881 160037
583 477950 247323
584 558604 272456
585 994584 308304
586 644856 316526
587 101011 679509
588 120701 329534
589 731623 385037
590 664149 375642
591 106290 687404
592 104795 660783
593 957945 285714
594 972808 259997
595 486884 230964
596 66553 101538
597 717702 387026
598 654544 317137
599 87385 47098
600 522242 205313
601 302899 194165
602 649893 265586
603 81774 401091
604 61864 192525
605 742983 460855
606 777253 433237
607 999051 232542
608 483031 194088
609 720021 416739
610 928570 187310
611 801736 496602
612 21758 126373
613 106301 693834
614 318145 237488
615 952915 293586
616 844081 247285
617 949647 270131
618 154937 364290
619 904083 232002
620 559827 207954
621 931035 214642
622 727698 564371
623 100065 415449
624 956492 217054
625 1013676 299125
626 112882 401232
627 444786 147734
628 721554 483890
629 73100 129569
630 697310 336737
631 110708 696365
632 984179 214182
633 782518 465181
634 58320 671835
635 296993 224920
636 789218 490905
637 591813 334319
638 498833 213150
639 909902 259715
640 290414 275579
641 172778 381854
642 94618 149225
643 81844 149529
644 918073 230264
645 69336 151314
646 -6742 165189
647 55581 141718
648 956864 282067
649 235613 287786
650 680034 316430
651 76860 695100
652 110471 384231
653 764273 512076
654 935316 215575
655 679601 386509
656 57107 106821
657 921051 207907
658 446647 229771
659 779174 492344
660 80519 114012
661 743725 431827
662 44917 738185
663 723063 362700
664 254411 288072
665 50436 184244
666 959981 261848
667 61039 115460
668 760494 458206
669 964126 276170
670 124081 370005
671 985278 252727
672 69433 119875
673 492253 269665
674 259172 283784
675 88585 697700
676 498565 240798
677 277035 265106
678 949894 311127
679 961190 230019
680 144714 406105
681 559605 217832
682 750332 476417
683 986820 229691
684 682704 326907
685 649591 312660
686 810142 487106
687 697335 355777
688 98651 391337
689 54591 144269
690 83949 390467
691 90464 701125
692 312112 244961
693 538553 250692
694 963196 185379
695 100856 703061
696 715220 477283
697 22452 430222
698 296742 217602
699 977177 252656
700 112210 120602
701 543088 292220
702 39828 733144
703 686267 319753
704 559308 214032
705 1003427 293669
706 104023 417774
707 902943 299128
708 996992 199498
709 252641 254396
710 463806 210765
711 329394 276830
712 123181 145624
713 699440 324213
714 937096 237486
715 188905 447140
716 1006822 285182
717 941739 267065
718 498461 188715
719 669755 314198
720 66257 167226
721 491946 243534
722 707758 347958
723 526614 206683
724 251417 189252
725 278084 251794
726 1011041 283387
727 55413 179238
728 338330 184865
729 291518 273822
730 120952 718283
731 973279 334581
732 671342 245092
733 557225 204100
734 503813 250491
735 957793 295605
736 268561 220559
737 722968 493315
738 982801 258319
739 965647 310191
740 505308 252995
741 976496 268648
742 100788 107522
743 313419 280800
744 37724 136716
745 311988 249225
746 555237 164335
747 275884 198880
748 700262 479246
749 85843 688440
750 779926 484096
751 55365 352931
752 288764 203824
753 30244 99126
754 38958 600865
755 117993 658542
756 48517 157550
757 544604 183661
758 930178 151704
759 715944 380774
760 895858 231413
761 305960 197241
762 1011167 230713
763 808360 462901
764 901114 207828
765 174935 364564
766 289814 248948
767 776317 390956
768 995619 308822
769 103613 358473
770 83621 376616
771 777381 505609
772 902713 200009
773 881557 202363
774 22554 112792
775 248351 214744
776 962037 259679
777 686827 457177
778 298788 252007
779 930198 188980
780 498016 215489
781 492317 244737
782 493092 212755
783 273550 223588
784 471291 195479
785 102828 399567
786 88946 705259
787 951752 269297
788 645155 290495
789 75797 432493
790 767325 429321
791 736370 405479
792 710807 516899
793 709726 351679
794 925333 216258
795 162642 345694
796 20925 156936
797 94958 82183
798 461359 221253
799 123581 692555
800 146181 669840
801 51241 84139
802 781212 364625
803 952863 243585
804 70638 125750
805 880334 233184
806 277837 299187
807 893529 257833
808 950129 238222
809 975129 249791
810 900422 192926
811 264935 216160
812 978840 272844
813 975597 289265
814 126459 681842
815 988834 325496
816 988921 261880
817 272558 172165
818 774658 509648
819 759281 472312
820 972575 212412
821 559987 139897
822 766540 462470
823 894994 226135
824 478995 259695
825 85566 381147
826 50724 109633
827 269223 235038
828 1005071 235877
829 114048 393067
830 481567 229283
831 860062 132332
832 129033 650929
833 931107 255946
834 78579 113316
835 519824 256137
836 675946 346562
837 962367 310431
838 766003 501792
839 144393 403303
840 571874 271127
841 965024 174562
842 717377 433690
843 88262 694862
844 130919 411915
845 49738 370735
846 639291 363938
847 303109 302190
848 267140 250033
849 916843 182694
850 178210 400304
851 98422 400988
852 254031 226960
853 477454 270655
854 110161 126961
855 955515 277040
856 909244 253943
857 65030 190136
858 747832 476510
859 253345 246295
860 556794 180807
861 1026768 304816
862 95624 673090
863 67387 661848
864 132780 653630
865 295186 185922
866 694268 338970
867 972471 336018
868 659123 341513
869 140183 579247
870 736694 476969
871 292024 207400
872 718053 339689
873 89793 704722
874 465448 208403
875 948971 267031
876 731693 443598
877 665688 322947
878 133245 404797
879 133285 645257
880 503910 230837
881 41386 632523
882 734136 502431
883 105810 405636
884 102190 717696
885 74902 666409
886 138703 381640
887 930652 213142
888 995344 207531
889 972738 248740
890 59135 390363
891 737328 295314
892 511656 263947
893 998600 255595
894 51643 671270
895 48707 681878
896 772599 440991
897 967738 221395
898 967455 320882
899 515730 249837
900 268394 230114
