NAME : portcgen-600-601
COMMENT : portcgen N=600, seed=601
TYPE : TSP
DIMENSION : 600
EDGE_WEIGHT_TYPE : EUC_2D
NODE_COORD_SECTION
1 905160 1072944
2 117362 852872
3 110955 792629
4 834932 964569
5 309706 202930
6 298617 96940
7 929219 998825
8 913142 929836
9 230657 271623
10 220169 289161
11 164465 690810
12 93469 775533
13 531440 328477
14 273412 343147
15 863571 975786
16 595917 341867
17 127224 812732
18 548717 326171
19 220951 304033
20 538255 349228
21 875949 998817
22 201234 788031
23 346262 203262
24 245449 272635
25 323728 223245
26 270327 138623
27 257071 374112
28 213456 825819
29 238774 318847
30 239080 215234
31 214256 270794
32 545807 276224
33 144879 854425
34 203525 356574
35 182924 261124
36 126774 829964
37 181658 294382
38 915719 992541
39 119366 830168
40 300706 283307
41 861500 980518
42 934267 1064252
43 312352 149721
44 119718 831629
45 322223 117012
46 225428 224879
47 285227 236546
48 796202 1043753
49 353514 228247
50 118821 825856
51 261338 880288
52 890592 984741
53 214708 189855
54 327894 147081
55 509288 238197
56 530638 322269
57 590451 231865
58 289648 242097
59 330796 200498
60 544890 274095
61 250645 111302
62 887937 989172
63 839904 955480
64 541235 295203
65 324345 134934
66 301392 160883
67 885052 936020
68 91865 803998
69 852621 1041588
70 311548 167164
71 366058 106753
72 852471 1007765
73 327836 225482
74 292633 312169
75 321030 91293
76 327093 136689
77 932653 1040278
78 847305 1015474
79 880108 1043544
80 912016 1021813
81 626428 279589
82 97552 890595
83 280835 347536
84 807381 992351
85 598973 267037
86 132713 811150
87 332759 189960
88 273884 244711
89 226907 336694
90 246873 309339
91 362049 177954
92 933898 1010975
93 310945 262484
94 955908 983210
95 221050 354082
96 68698 787002
97 362741 170943
98 119371 855048
99 222456 217619
100 623811 290195
101 142105 945790
102 796999 965924
103 269678 207162
104 301041 386726
105 311837 140141
106 263143 303034
107 108315 786569
108 282109 176255
109 289632 400015
110 291793 294060
111 614470 293754
112 317498 262018
113 631623 221689
114 291610 347588
115 65661 890746
116 303183 333682
117 919143 976165
118 203007 440316
119 774190 988889
120 879677 975876
121 612343 340839
122 860652 969970
123 293556 259650
124 950668 1038001
125 322762 117468
126 362548 183198
127 501386 283104
128 101152 763718
129 287615 233550
130 563817 340615
131 814976 997939
132 268220 241198
133 548806 226127
134 277803 121084
135 516611 314855
136 915102 1007501
137 104159 860641
138 279067 122800
139 168475 824734
140 226584 218097
141 902597 942073
142 911321 1018978
143 862332 957621
144 571003 319376
145 258317 384461
146 211297 284153
147 242858 281016
148 225884 304967
149 937650 1044637
150 295140 171334
151 272974 183671
152 567970 263208
153 133533 828317
154 565176 314481
155 305996 176702
156 532018 272384
157 316442 136102
158 298900 154122
159 335706 171505
160 507511 299510
161 159097 821402
162 236040 362569
163 286177 289651
164 325931 148052
165 216910 235690
166 160261 811844
167 375663 239344
168 158308 277233
169 576979 300250
170 215067 829696
171 364651 163278
172 143684 754014
173 299486 311773
174 884552 938274
175 272599 326972
176 857291 1016132
177 285381 277691
178 188479 360196
179 301708 351237
180 342172 167013
181 241602 230111
182 249279 335595
183 302639 281444
184 927971 1040494
185 545998 327353
186 879913 1038385
187 278402 335049
188 558785 254072
189 574036 264840
190 518403 318329
191 122651 892816
192 327236 181798
193 230360 312646
194 897669 955944
195 527348 261958
196 905451 960368
197 536929 232733
198 873543 1013598
199 240312 313646
200 127485 829266
201 236943 826717
202 85159 807409
203 244957 204479
204 148693 752328
205 523806 256921
206 580546 295060
207 291493 206928
208 947368 991537
209 310248 272494
210 290431 312594
211 206694 309772
212 155364 811450
213 921708 998727
214 305182 238547
215 167676 243540
216 490955 342846
217 175699 291256
218 187858 262453
219 506661 252661
220 275791 345607
221 525920 295220
222 151137 742003
223 233042 291886
224 216069 322240
225 879297 964537
226 185454 277416
227 265576 422069
228 110121 865795
229 242155 263384
230 354387 110991
231 498065 292905
232 574583 274325
233 258526 235681
234 257368 298861
235 248511 245389
236 881536 927371
237 223784 308779
238 304555 250324
239 285281 102620
240 262429 300305
241 242956 223837
242 292395 284276
243 330639 127443
244 564476 292962
245 870048 1027683
246 95403 813862
247 228624 243885
248 419002 141372
249 350440 147604
250 939565 1037167
251 138574 789926
252 245830 254357
253 198114 810644
254 291225 373832
255 258314 376307
256 296606 240744
257 157998 781676
258 307408 204250
259 859059 947208
260 558827 249244
261 275626 185716
262 532667 259263
263 335126 225031
264 123990 795679
265 565931 336611
266 197957 238103
267 273268 281181
268 145557 283615
269 829485 1027277
270 551906 272248
271 535530 301210
272 312797 316842
273 516020 211543
274 899569 965416
275 93443 831085
276 206357 289223
277 202847 221311
278 97508 852300
279 252017 368228
280 810991 960184
281 201596 303724
282 243019 338740
283 626060 212547
284 833531 948433
285 182876 328301
286 347771 152968
287 261048 137765
288 278190 299379
289 587029 372735
290 916722 1037431
291 342220 184004
292 169362 794750
293 171315 809617
294 602184 321346
295 368869 388554
296 360527 185708
297 284865 282155
298 147193 870289
299 501301 235412
300 504860 284762
301 536686 205181
302 251269 242064
303 237306 314195
304 577374 268856
305 267792 413312
306 342944 138697
307 907126 992571
308 606615 258411
309 278466 338111
310 497146 269091
311 267448 358705
312 567858 289583
313 263193 373066
314 602761 299850
315 592992 279806
316 928415 949968
317 258804 329858
318 185239 251267
319 317214 313537
320 371452 185766
321 214915 271745
322 528324 324363
323 85864 818489
324 242001 299167
325 300415 157475
326 216143 184937
327 527107 335614
328 49770 840129
329 224187 249729
330 858933 998904
331 251224 367657
332 533202 263680
333 626629 288627
334 268205 353871
335 904580 1070213
336 331514 208008
337 94407 786956
338 145534 402125
339 90394 827850
340 219383 283829
341 606110 288187
342 911895 978940
343 127798 819002
344 341206 193009
345 236263 290358
346 276104 318590
347 105982 800569
348 870726 1086705
349 592747 304485
350 876686 1018514
351 199491 287459
352 281815 230879
353 291011 289927
354 870589 1009476
355 205529 304420
356 287920 267002
357 852854 985468
358 580007 312988
359 191143 266874
360 270013 318175
361 235801 328463
362 266142 323679
363 1017429 1006576
364 125425 832012
365 186167 172893
366 462722 265828
367 316109 174949
368 272962 250057
369 110600 824985
370 949049 1033351
371 197992 343752
372 364807 159724
373 873799 966062
374 532217 249624
375 146870 788470
376 208338 343822
377 835471 1009297
378 567565 326740
379 969854 916595
380 299529 85814
381 313880 169222
382 575076 274639
383 322087 205476
384 846151 1041736
385 147452 820710
386 256938 217918
387 758610 1045818
388 322899 173033
389 261675 259189
390 574450 351121
391 315251 151361
392 201803 242092
393 119691 798020
394 231706 217741
395 366854 268975
396 205330 817715
397 869714 965184
398 334037 110452
399 156904 235791
400 106255 836186
401 520240 398762
402 127952 776864
403 325513 187196
404 883591 1077344
405 348812 165280
406 862669 964073
407 325236 205170
408 276126 215242
409 269209 252206
410 180530 829922
411 517281 246188
412 248322 333920
413 285728 321311
414 540680 298743
415 926831 1025655
416 171223 866492
417 893919 941787
418 924458 1002087
419 297474 203659
420 306574 238200
421 659980 246686
422 302744 196768
423 294809 251690
424 300764 143748
425 199823 350952
426 243766 202646
427 874396 891269
428 865515 1002385
429 209118 194356
430 132044 799385
431 904895 972712
432 385996 158527
433 132685 802220
434 566084 202825
435 880874 1076545
436 650377 312862
437 562943 210994
438 142542 809714
439 181951 758596
440 654863 272435
441 222318 364399
442 270568 278830
443 123725 801709
444 878167 1048740
445 238045 290879
446 911926 928316
447 101921 917509
448 908066 1022607
449 522406 257991
450 211805 377432
451 61796 789795
452 311514 202239
453 566987 257513
454 164503 820650
455 104587 762946
456 279889 208410
457 237773 364087
458 868174 1055106
459 886553 1034891
460 832572 1036243
461 238787 327478
462 266723 216273
463 143080 807593
464 37664 837850
465 604722 197626
466 255641 264633
467 313711 247405
468 199767 777021
469 140300 834426
470 866299 969808
471 153919 828744
472 228211 268642
473 203078 328027
474 943876 1015687
475 567446 326361
476 180424 244831
477 211001 172636
478 600726 303032
479 250025 257638
480 300162 358655
481 362150 183387
482 264552 331733
483 157362 791599
484 128087 746246
485 263538 323797
486 961189 976965
487 938092 1029747
488 245067 319966
489 116307 789890
490 572723 261101
491 81206 840218
492 336617 204531
493 646799 294679
494 237884 330019
495 313835 258902
496 893140 1034593
497 962007 986753
498 332634 334739
499 851446 978750
500 125329 850761
501 578538 278293
502 904578 1063034
503 111234 825010
504 203387 205291
505 537241 226261
506 892230 1005641
507 358282 201996
508 356039 210180
509 852121 1044193
510 255679 124511
511 207839 334615
512 662494 301536
513 86992 775949
514 245303 111113
515 155260 782675
516 838035 1007518
517 67780 832393
518 292629 204601
519 225513 344630
520 551769 260799
521 508695 298294
522 198073 261457
523 278891 292584
524 211028 354035
525 110057 766116
526 250219 251937
527 269983 264117
528 174327 282047
529 249978 287336
530 198785 283339
531 170535 303533
532 526148 332824
533 923091 917885
534 924946 954595
535 889123 1000937
536 315440 184457
537 810053 900121
538 950188 1036386
539 110294 890378
540 313110 151568
541 928087 994673
542 309578 161050
543 540937 327508
544 840894 1012722
545 263557 411698
546 296028 192128
547 525360 310499
548 321799 301853
549 265417 181885
550 547493 199621
551 191735 274062
552 283918 300759
553 133682 781984
554 61310 846855
555 121702 851582
556 350141 145543
557 368543 142721
558 266659 242981
559 127501 812507
560 902913 941469
561 149477 769049
562 175478 349311
563 615577 260123
564 312526 180553
565 296562 277371
566 291630 340176
567 909328 1053113
568 565541 326619
569 871214 1051313
570 114891 827348
571 847407 1000224
572 187448 851159
573 156758 786218
574 102657 751738
575 781405 960165
576 555408 261962
577 830419 918059
578 317314 87193
579 354138 145047
580 284085 158806
581 548650 249376
582 522087 266844
583 260819 369963
584 247346 222447
585 300992 120029
586 144104 867618
587 238661 213157
588 943515 1007960
589 482773 278780
590 252900 283976
591 354459 158405
592 274179 253841
593 854786 970759
594 239174 352134
595 289359 239937
596 887161 1060836
597 90502 827667
598 348496 149910
599 158814 804583
600 111447 839531
