NAME : portcgen-400-404
COMMENT : portcgen N=400, seed=404
TYPE : TSP
DIMENSION : 400
EDGE_WEIGHT_TYPE : EUC_2D
NODE_COORD_SECTION
1 530155 459260
2 207067 552484
3 412524 486956
4 536299 371645
5 151000 765607
6 54912 720222
7 137780 827350
8 241170 546687
9 125105 129985
10 187282 132555
11 175492 504697
12 152728 600834
13 7735 806653
14 218604 208895
15 168560 550234
16 219056 182893
17 242185 512150
18 191697 565631
19 128402 118567
20 68699 729453
21 507318 403837
22 96982 137516
23 -563 830137
24 442895 437750
25 245353 525532
26 162386 192263
27 467615 432266
28 140231 588256
29 64868 70510
30 141121 64097
31 146190 528879
32 542835 413930
33 154625 430702
34 174537 173532
35 80604 850157
36 221795 229935
37 228405 135246
38 192281 186957
39 22392 742906
40 164627 493710
41 134683 154604
42 104006 794573
43 214060 549008
44 593700 437481
45 594813 380439
46 156759 546408
47 113733 151809
48 529066 344407
49 44533 715715
50 44092 163336
51 136395 188819
52 502290 440223
53 486906 425730
54 532258 369967
55 240986 544630
56 232605 631399
57 183319 574790
58 430140 405333
59 482006 421478
60 500113 492339
61 490561 441025
62 523356 455368
63 120364 170374
64 -1777 809258
65 544271 419199
66 59687 795928
67 497687 490634
68 224809 667249
69 390537 409353
70 -41722 825003
71 447071 437475
72 212143 182265
73 238240 208898
74 278735 554330
75 179383 192893
76 117387 586781
77 81323 171230
78 535550 429035
79 206932 519956
80 205384 501737
81 117335 801268
82 -7191 734337
83 79238 860018
84 192451 538591
85 117391 121105
86 131886 245518
87 492428 412941
88 220027 170275
89 121765 155852
90 113739 561675
91 214630 528400
92 463318 408003
93 45802 863985
94 147828 229852
95 104184 125530
96 515882 446325
97 107013 210019
98 184744 599283
99 37352 774637
100 157833 68679
101 517715 463601
102 127645 744567
103 536550 436897
104 157305 590025
105 78677 820993
106 205559 179603
107 155704 753935
108 67153 803652
109 185656 603986
110 436401 365917
111 185919 173165
112 40657 679368
113 99865 194058
114 241143 588997
115 484390 444141
116 126192 270923
117 426935 426938
118 153839 205100
119 58736 920361
120 162702 578909
121 183436 487373
122 174405 135057
123 17321 750103
124 196849 575847
125 541889 380397
126 267818 600931
127 148514 152401
128 94712 706954
129 203709 536899
130 267557 592978
131 241375 550812
132 190116 516758
133 313058 530742
134 215535 620651
135 20790 762357
136 105124 445565
137 86494 849496
138 518710 446227
139 -38838 769074
140 52694 165701
141 436321 308153
142 32697 870930
143 132072 769822
144 150467 224206
145 441744 404247
146 70995 714651
147 173942 201511
148 520895 467295
149 232920 537791
150 655009 424519
151 338955 516381
152 291222 540157
153 565581 515920
154 190512 554966
155 470804 482930
156 144499 156408
157 492400 305456
158 118776 85576
159 47594 699486
160 509472 360288
161 148183 686920
162 254063 212134
163 175456 555650
164 31060 840514
165 531533 410468
166 423013 489154
167 575497 421690
168 30051 796843
169 418491 470877
170 534389 405765
171 228733 562764
172 148910 163473
173 150931 192826
174 242106 633016
175 517624 450495
176 186687 154226
177 504073 448547
178 24294 892256
179 199395 524174
180 127295 121002
181 215750 560090
182 506842 366353
183 175102 558105
184 236620 274737
185 222334 576206
186 193958 197895
187 20712 849506
188 62810 169836
189 523833 392867
190 533794 518022
191 -5034 737233
192 557454 353613
193 131073 288834
194 545415 403805
195 182741 168364
196 110108 713139
197 174663 180379
198 533890 431796
199 302231 584055
200 150180 786503
201 222418 540915
202 474011 485278
203 162327 159334
204 224289 632838
205 139542 216075
206 47468 789638
207 74479 757490
208 513370 449056
209 569778 409195
210 81416 253303
211 571543 395855
212 11162 791715
213 514224 389912
214 130275 102398
215 441470 456921
216 421802 525692
217 494808 384727
218 136975 786747
219 113383 756718
220 121259 866206
221 148702 270981
222 555738 437242
223 489488 452253
224 191594 569612
225 94546 126916
226 118982 191864
227 18186 778055
228 512007 453138
229 535988 452708
230 300166 552623
231 120906 188025
232 142343 793558
233 164243 202531
234 552700 504039
235 87767 770699
236 119157 810327
237 135125 199900
238 544015 412742
239 97855 716141
240 444345 395515
241 138983 202009
242 223114 531682
243 486746 406400
244 206203 135588
245 490024 370334
246 143387 240276
247 510812 427210
248 90982 758670
249 432706 444019
250 472817 442406
251 111165 792436
252 180970 514937
253 46718 823142
254 229809 581823
255 269325 554027
256 476392 417242
257 491516 387710
258 146303 545446
259 83839 175312
260 205868 201330
261 -12362 800527
262 465951 402766
263 205173 235493
264 61908 787906
265 411880 379981
266 101271 205157
267 257537 504322
268 72772 193587
269 26390 734034
270 572793 445562
271 80745 736166
272 51383 829215
273 136209 518823
274 188609 565026
275 609197 370110
276 78260 778373
277 107659 766079
278 491796 401787
279 -19806 784574
280 18290 723871
281 254669 569668
282 585356 423195
283 137085 669490
284 145427 151020
285 230230 523667
286 269549 579924
287 613572 428357
288 132409 188263
289 557291 417543
290 421816 484217
291 219849 499753
292 517417 474490
293 198238 108186
294 282926 554342
295 466989 487504
296 95363 790009
297 142510 638200
298 30633 814721
299 108096 242787
300 537525 459613
301 71473 727668
302 110244 835044
303 480624 431071
304 473846 404345
305 232443 533264
306 487534 349235
307 230304 136126
308 86388 737958
309 303753 581367
310 91973 224017
311 133138 119692
312 520550 481043
313 214210 231902
314 156631 629636
315 118193 229491
316 148837 207270
317 141370 234412
318 116761 156633
319 451540 358578
320 21463 168323
321 86823 195656
322 497453 408494
323 256474 490203
324 469609 413067
325 3141 723462
326 185121 82405
327 237312 554589
328 117394 287908
329 69506 832550
330 127027 125729
331 567283 516101
332 111870 232921
333 263182 572883
334 289375 591425
335 159507 203128
336 137194 249422
337 234589 569482
338 96381 209685
339 75941 797582
340 186069 586970
341 240077 623056
342 481425 291747
343 484664 441480
344 108459 147345
345 45995 672255
346 117847 147062
347 463079 445699
348 162494 146112
349 594863 275995
350 56550 804700
351 428008 469502
352 150211 143233
353 174554 215473
354 67924 780483
355 231606 82941
356 130475 136562
357 468374 377606
358 476639 441439
359 121114 166145
360 198312 506643
361 181005 614184
362 146623 572134
363 16940 800793
364 225407 510088
365 183808 210619
366 441826 470486
367 -4882 843617
368 165883 173348
369 448790 357903
370 128627 753130
371 177407 770692
372 508371 498029
373 501721 441034
374 105648 769377
375 83606 816706
376 54703 748767
377 191267 555229
378 87044 775581
379 195767 547928
380 135306 188794
381 179057 158378
382 567606 403308
383 515743 381299
384 176588 563874
385 107991 546644
386 279118 493337
387 213829 726779
388 115388 625804
389 505196 450507
390 495723 367242
391 249273 561246
392 167290 92565
393 591262 413726
394 658009 418461
395 160407 479253
396 99708 194755
397 447107 376251
398 492407 384444
399 121208 657374
400 81375 183763
