NAME : portcgen-400-410
COMMENT : portcgen N=400, seed=410
TYPE : TSP
DIMENSION : 400
EDGE_WEIGHT_TYPE : EUC_2D
NODE_COORD_SECTION
1 737048 198752
2 570214 725989
3 983047 370710
4 796217 172269
5 725293 129678
6 378891 93149
7 968824 413880
8 562078 718713
9 733319 152152
10 332275 54820
11 245149 86347
12 491148 668899
13 364611 26972
14 284662 31480
15 893639 424736
16 258811 68429
17 779519 203651
18 713623 155962
19 607784 825526
20 344449 -34161
21 290565 -33710
22 598364 796705
23 293914 1362
24 335924 -8001
25 1013970 416283
26 586873 720249
27 975505 571463
28 538858 792890
29 944131 392851
30 902823 474364
31 919842 382862
32 293697 -27860
33 584091 794266
34 338716 47418
35 268790 119080
36 747436 121762
37 568063 720983
38 310520 69390
39 534343 679945
40 526788 773553
41 328099 -14527
42 360428 37929
43 758703 127373
44 893946 392300
45 643834 755191
46 596516 746809
47 682248 175425
48 783220 97283
49 440088 770284
50 756724 132358
51 570583 800190
52 951170 422242
53 762807 133955
54 591862 736046
55 991032 356434
56 780360 184925
57 692735 76055
58 699286 111454
59 430427 762532
60 282358 27148
61 326262 -20665
62 716444 108974
63 581431 794571
64 614888 118704
65 320670 47089
66 674154 140702
67 469659 728972
68 284226 103928
69 364157 59689
70 746266 242777
71 346738 33085
72 703808 166144
73 561055 674434
74 765000 82296
75 321551 67121
76 908861 321659
77 799894 135726
78 783646 91656
79 991574 389690
80 572299 809491
81 757175 51246
82 788043 58849
83 277788 22824
84 1029287 406618
85 760001 164724
86 707221 99785
87 323854 -35739
88 560054 717250
89 344938 25610
90 957655 544261
91 855430 387998
92 735265 178083
93 819565 136684
94 941267 474297
95 383949 -19413
96 351194 37162
97 715515 248806
98 699740 166811
99 887548 427182
100 295979 58575
101 673368 93060
102 394318 31532
103 323290 38208
104 297095 -48622
105 605120 165627
106 327403 3432
107 529355 707977
108 983517 370995
109 520993 801488
110 869204 418923
111 604071 800861
112 887430 456555
113 735858 136292
114 504110 684829
115 938576 387336
116 513448 725187
117 1020409 445988
118 488349 772965
119 941484 342647
120 580591 766286
121 757938 185037
122 519571 751877
123 743197 100872
124 313772 40871
125 995091 345401
126 976854 460959
127 436574 640386
128 983447 378776
129 533045 629902
130 266636 -12540
131 867044 438558
132 746413 69545
133 974994 463822
134 948775 418392
135 516992 795915
136 927878 376534
137 339968 16827
138 507946 697973
139 697627 156437
140 325560 68384
141 675968 53099
142 564193 682794
143 943179 395889
144 982308 444694
145 940353 356598
146 344583 34608
147 668535 40176
148 571796 793275
149 954156 427598
150 592978 674986
151 682305 124119
152 506458 824558
153 763469 184261
154 299007 122170
155 535986 680498
156 314558 16385
157 205475 48895
158 590906 696576
159 544127 778873
160 512311 736728
161 724950 67060
162 327764 40080
163 372359 -8881
164 592227 756776
165 256239 7715
166 884857 424798
167 553038 729242
168 287807 22120
169 579276 773661
170 746760 124458
171 839659 526873
172 705088 105226
173 537384 711312
174 624316 730343
175 642275 154526
176 749670 233841
177 261784 93412
178 513712 851478
179 965594 424249
180 588699 819318
181 492416 723073
182 890779 388857
183 575044 837389
184 768670 168253
185 581573 796225
186 175741 7641
187 290770 131809
188 318385 -22877
189 596643 771873
190 365765 70933
191 948274 384412
192 300024 39443
193 336586 47332
194 960518 430273
195 584654 742619
196 197282 -66152
197 817136 338593
198 652241 74512
199 727680 74442
200 363646 70199
201 612269 798485
202 266534 91428
203 680515 215132
204 247264 49936
205 685161 151458
206 627574 783084
207 408922 63932
208 914727 445498
209 612203 745805
210 968926 373138
211 610216 665911
212 711571 143511
213 742892 183855
214 512344 706638
215 824297 132385
216 582169 747803
217 928145 385472
218 715983 83795
219 613593 714748
220 455105 741993
221 958110 495268
222 713299 44677
223 931336 312342
224 972524 405680
225 705234 192436
226 539021 772958
227 894679 352329
228 370900 131724
229 470377 732554
230 596768 744736
231 282808 72535
232 410735 62036
233 706546 95970
234 939186 405672
235 641541 740266
236 711135 88146
237 592396 772673
238 721225 113240
239 632836 117601
240 757277 156108
241 370170 -20281
242 600081 815089
243 1004722 301841
244 335494 36525
245 300811 -27444
246 969266 323458
247 506200 732039
248 1008760 419518
249 738315 146171
250 400701 145583
251 313605 -3564
252 555445 836042
253 264922 77701
254 531435 789487
255 502858 747193
256 910965 426535
257 257257 64388
258 311215 47041
259 794708 163662
260 503297 687713
261 747563 108300
262 307855 9063
263 369281 203480
264 334621 27921
265 243671 34490
266 479313 746986
267 671117 159428
268 518685 676071
269 512632 777891
270 927861 421798
271 315645 60994
272 533772 773938
273 984210 458651
274 937456 357243
275 679638 136172
276 975342 444899
277 283269 46434
278 764755 148261
279 484615 681863
280 982093 445605
281 772041 72491
282 811539 54830
283 630441 102505
284 395785 90057
285 327993 -15074
286 581286 773702
287 552889 703320
288 1004081 460245
289 932682 338343
290 479028 849188
291 942365 410308
292 904990 361877
293 984015 368778
294 803307 199851
295 506517 761731
296 979966 477279
297 838681 409209
298 263191 89864
299 559923 724713
300 534938 787585
301 989393 305264
302 925002 379639
303 720785 126739
304 639548 123041
305 511727 643064
306 863651 432026
307 785355 228387
308 399621 -43138
309 512208 707799
310 564206 729429
311 724446 196677
312 496085 682130
313 735451 101091
314 773599 184339
315 242090 25981
316 768996 83713
317 508355 793113
318 609567 787550
319 378599 -68479
320 610534 782354
321 617123 140507
322 667229 94019
323 611045 776236
324 345550 10480
325 665314 99596
326 358086 -7996
327 558620 762741
328 542595 709635
329 268475 82280
330 279427 -47952
331 281499 9931
332 714786 40495
333 731264 169982
334 1077231 401614
335 709055 132057
336 755694 172198
337 310209 51503
338 814280 100074
339 946534 396495
340 310689 8230
341 794001 156825
342 562127 815148
343 792527 119536
344 315511 54440
345 352445 54316
346 301688 132497
347 507171 725578
348 582694 688013
349 339695 110048
350 405157 162875
351 866044 402483
352 556818 790322
353 581930 745866
354 246467 22208
355 765321 95314
356 375632 32362
357 882670 299402
358 851444 434517
359 574905 702352
360 551277 680954
361 553635 707080
362 276519 20771
363 203803 51185
364 971787 486278
365 572425 752106
366 290094 16161
367 544720 780426
368 364602 25752
369 261321 8362
370 614715 818673
371 973306 318768
372 590935 714045
373 298326 49437
374 295138 47775
375 852760 365669
376 904215 357464
377 676794 149023
378 513006 756781
379 508195 757646
380 743353 127513
381 726139 128658
382 946183 461751
383 310447 18328
384 553249 701945
385 361021 -13689
386 243849 -12074
387 986574 452711
388 223087 32347
389 746172 156324
390 557607 821966
391 202958 23668
392 610769 801025
393 921469 433046
394 596136 722948
395 538127 729694
396 955644 417464
397 281291 -20249
398 722121 56661
399 528553 670812
400 311454 -31314
