NAME : portcgen-300-308
COMMENT : portcgen N=300, seed=308
TYPE : TSP
DIMENSION : 300
EDGE_WEIGHT_TYPE : EUC_2D
NODE_COORD_SECTION
1 753558 982491
2 828419 618439
3 774353 975386
4 578596 328219
5 876133 532587
6 798980 981811
7 586242 315565
8 879269 475011
9 887063 518143
10 451723 435259
11 412380 320527
12 476418 371261
13 776387 1030218
14 746413 918386
15 783286 494494
16 784192 1026058
17 492318 244817
18 878445 899543
19 799891 613636
20 719674 1092304
21 374233 446908
22 744707 557984
23 474374 399386
24 540829 372745
25 487611 287709
26 855019 401961
27 803570 606615
28 504422 336055
29 813790 448593
30 869135 939293
31 756235 1067530
32 911416 517352
33 457061 352334
34 965520 507346
35 489910 263110
36 766753 948703
37 475187 405132
38 447233 368001
39 807773 955483
40 448111 288361
41 758166 1013088
42 919805 382542
43 800847 506768
44 800117 1102396
45 750773 1024193
46 784598 984572
47 696017 1049546
48 901843 506112
49 852853 630793
50 824944 508207
51 888533 958477
52 730053 988080
53 530872 290208
54 805773 980523
55 963276 607408
56 756038 959776
57 495684 268633
58 853567 463224
59 828226 566820
60 814964 491016
61 656202 1017853
62 828968 429155
63 515028 354118
64 414275 404523
65 921422 488399
66 441129 265184
67 430043 329299
68 830138 1019232
69 522684 335898
70 784405 974089
71 476658 280523
72 833900 1063100
73 869294 553720
74 834337 1015530
75 459784 254297
76 876182 1021505
77 827791 551875
78 832698 958200
79 838922 995310
80 361661 274964
81 783818 1020648
82 933946 530211
83 788268 570887
84 467945 344919
85 531541 428967
86 679389 994804
87 833438 906624
88 521025 349419
89 861840 540298
90 933844 465990
91 434104 401428
92 504197 430974
93 844223 885739
94 648711 1048528
95 502503 303382
96 791018 922111
97 758667 915489
98 513985 295983
99 425411 387427
100 820375 476886
101 582098 372411
102 442170 258884
103 875463 440158
104 443749 329647
105 834555 519093
106 870620 505703
107 830944 492834
108 919737 625623
109 827408 980937
110 932734 528262
111 781559 432463
112 387761 403297
113 918994 994822
114 506187 347296
115 530205 283228
116 441765 303771
117 546513 378530
118 462051 298756
119 497735 327082
120 781582 480198
121 888862 530539
122 438803 283456
123 825153 937153
124 837994 992267
125 455910 387504
126 494498 354878
127 954588 603713
128 987859 456696
129 950120 605688
130 827769 431483
131 868479 920737
132 431233 308139
133 559708 314736
134 787890 959905
135 456268 355901
136 465454 324755
137 836398 916676
138 564926 315688
139 506644 319714
140 931600 522169
141 362901 353491
142 548818 402824
143 901080 637390
144 494213 304718
145 448704 407746
146 887526 522538
147 751988 970229
148 457140 360945
149 424703 265515
150 453296 233076
151 777353 547111
152 472517 372267
153 850186 555400
154 870632 447600
155 740181 465492
156 717436 1046808
157 577070 315829
158 755270 1020545
159 802350 1094586
160 820270 911396
161 811661 945361
162 836704 455724
163 899778 495445
164 898552 512382
165 761413 1002677
166 838282 945417
167 831670 477216
168 819299 484014
169 851757 460699
170 466510 388570
171 518914 375488
172 558643 277234
173 400900 295842
174 805866 947782
175 494762 282222
176 501647 322104
177 864370 556136
178 913076 568231
179 506369 319272
180 742975 1083031
181 875522 418190
182 807421 1128653
183 786189 364508
184 832895 549895
185 859836 992991
186 763515 1008783
187 885473 543759
188 508946 345628
189 791699 1089996
190 782024 531509
191 796236 508383
192 838316 1048638
193 743985 1013210
194 865679 509791
195 498012 278040
196 764272 919120
197 925146 448406
198 725580 959432
199 814469 555771
200 837705 581425
201 927422 398702
202 563596 412035
203 426773 286057
204 853948 470786
205 812733 1080440
206 833811 424634
207 938509 539160
208 451586 404696
209 761654 986324
210 1029392 605817
211 458837 311808
212 797092 980722
213 503719 305968
214 885235 408070
215 764022 1090583
216 857130 1024299
217 871610 492614
218 418269 381052
219 600499 255788
220 880068 500981
221 553749 380687
222 826794 985997
223 822430 987436
224 796347 891541
225 522703 377718
226 508713 397055
227 495940 431600
228 914410 498502
229 404740 228733
230 912100 471572
231 508053 442759
232 525876 300058
233 477733 426614
234 839085 562755
235 759798 961832
236 779651 550361
237 917580 463502
238 794601 900929
239 925898 984141
240 675503 1054791
241 521740 275301
242 881688 480145
243 493668 288570
244 498800 340094
245 878706 523174
246 885295 392462
247 737573 1011313
248 475030 321560
249 882037 429758
250 871098 1008088
251 848729 669519
252 548341 264461
253 865708 455607
254 679606 1063274
255 842647 522504
256 898410 503075
257 889087 495863
258 816285 460928
259 856272 615855
260 925738 889024
261 759901 518087
262 828869 470189
263 520313 417703
264 779695 962443
265 886228 903863
266 471902 396844
267 862460 559593
268 822688 968728
269 433552 267063
270 842154 1051414
271 834405 457313
272 472291 471576
273 807449 989413
274 761748 542284
275 865799 999527
276 722223 975926
277 727249 1035775
278 475630 373363
279 471074 322476
280 878540 595275
281 860145 1038883
282 819337 445154
283 546708 305826
284 759255 1067951
285 852536 519990
286 749671 504770
287 492169 269679
288 832183 1019157
289 791180 919644
290 518366 348449
291 891621 1029022
292 901500 450868
293 779957 570296
294 318871 248280
295 542393 250697
296 539710 437493
297 814316 556290
298 814690 930180
299 836179 474787
300 520983 322085
