NAME : portcgen-500-509
COMMENT : portcgen N=500, seed=509
TYPE : TSP
DIMENSION : 500
EDGE_WEIGHT_TYPE : EUC_2D
NODE_COORD_SECTION
1 35402 376974
2 121243 416031
3 74686 430940
4 816584 27882
5 840369 80349
6 370024 466164
7 661955 862660
8 663999 1011748
9 404891 371814
10 885139 21006
11 113249 450355
12 338550 477996
13 402902 464150
14 846034 57804
15 45155 396254
16 371971 341377
17 371599 283030
18 341354 383397
19 403278 475531
20 879535 15868
21 787032 91528
22 230547 493522
23 936736 -6716
24 304529 414636
25 775766 919840
26 748593 921983
27 676501 883924
28 401156 423375
29 729946 957643
30 758050 985920
31 271235 450493
32 696809 902897
33 -7551 402152
34 281530 390866
35 89506 360865
36 345565 404786
37 766729 1054768
38 385633 464570
39 318699 405372
40 348528 274316
41 896041 44357
42 711239 980001
43 126865 392059
44 390149 382160
45 59621 355839
46 316895 299548
47 859205 77425
48 353115 292015
49 301361 209083
50 752048 849721
51 783026 1009771
52 868988 32203
53 704769 940627
54 433953 325475
55 56764 488098
56 415438 477475
57 443135 252400
58 781915 1081883
59 796350 956211
60 884259 47541
61 356326 431965
62 385690 270324
63 286987 474123
64 179790 351032
65 368637 488583
66 831218 967218
67 795216 46071
68 82569 407403
69 400812 321816
70 132416 406738
71 790589 4529
72 806646 872273
73 902084 33085
74 388960 258833
75 329569 394935
76 783884 945873
77 717076 945516
78 320811 474271
79 144186 422820
80 372109 286656
81 302764 480180
82 70848 360793
83 477181 290266
84 342095 403130
85 38260 409655
86 752081 939719
87 868817 84606
88 384209 424079
89 379340 394797
90 252237 270568
91 49446 313760
92 126234 422382
93 71711 441137
94 316028 315606
95 174856 347410
96 711802 842925
97 808472 938097
98 699374 994265
99 311800 449719
100 36292 362630
101 712650 959781
102 294884 277759
103 110344 398416
104 804964 18836
105 65137 376388
106 351209 401592
107 419438 210689
108 286677 309418
109 427821 464847
110 301621 288212
111 97493 360779
112 830257 9795
113 303927 328551
114 76811 409465
115 421449 360328
116 329456 437438
117 111413 364014
118 175796 383233
119 301969 267388
120 835941 52030
121 366084 357351
122 68846 418812
123 297300 362104
124 79242 377302
125 745133 947846
126 163943 382552
127 81716 426212
128 166635 411483
129 385426 447083
130 334093 248895
131 401510 326386
132 354072 491977
133 58866 381681
134 332418 461462
135 129764 367863
136 285115 216716
137 348636 243091
138 875349 90016
139 754869 915151
140 400370 486572
141 337860 397382
142 328687 249444
143 94571 418029
144 713651 989936
145 861959 24025
146 270321 449459
147 803248 878099
148 268233 366733
149 373535 322016
150 424819 402200
151 114774 389276
152 112570 409484
153 71173 354381
154 748972 871555
155 353653 223554
156 765598 46419
157 850643 32658
158 692101 1001748
159 728009 997085
160 387080 421974
161 110612 431135
162 72116 355701
163 845786 77696
164 103577 505085
165 356871 439829
166 436278 294539
167 735189 125860
168 707920 937960
169 800123 926371
170 253047 547309
171 289735 336958
172 15288 463803
173 8758 540234
174 842241 54582
175 356276 413356
176 116547 386478
177 303203 228929
178 787771 994494
179 43632 400148
180 65384 393236
181 345687 414705
182 384721 270947
183 815678 -19132
184 802571 42469
185 343538 331322
186 333692 473681
187 375916 347453
188 85489 384239
189 421546 284952
190 44084 389004
191 856784 49652
192 744121 1001315
193 363250 513779
194 416093 250426
195 782820 958087
196 394831 396128
197 297115 399601
198 318197 470710
199 113930 403255
200 396217 279288
201 395291 509967
202 457101 294047
203 8289 337803
204 358043 433535
205 357818 341569
206 908534 50842
207 161789 490319
208 846002 111580
209 65504 387926
210 781505 851753
211 372448 317455
212 813968 -31322
213 802691 930936
214 841571 75683
215 774225 922783
216 58608 390760
217 378105 446658
218 803802 14046
219 830156 50558
220 809538 91908
221 449075 470502
222 752637 952963
223 775954 37833
224 727769 933691
225 410544 441750
226 304594 310222
227 747984 928081
228 708208 912098
229 428975 340437
230 325918 507164
231 387737 445479
232 67447 343512
233 856508 39158
234 852949 10010
235 792817 912708
236 384758 408309
237 759373 917815
238 75749 454790
239 430869 473123
240 49042 389751
241 58182 328802
242 128129 416713
243 64143 369770
244 754631 859569
245 866578 66015
246 65094 373387
247 796578 936616
248 805124 16567
249 306606 498285
250 758112 942456
251 358236 251238
252 722987 931006
253 104500 451228
254 287773 472634
255 336704 258314
256 868176 19589
257 872787 -6288
258 827483 111076
259 182194 440110
260 831772 83616
261 909275 61917
262 798204 968899
263 840652 25634
264 838223 919281
265 425687 313114
266 895158 150059
267 787852 1002198
268 788712 889558
269 43884 474000
270 746779 931845
271 373665 442199
272 780157 1022104
273 805942 23459
274 63942 377168
275 826154 31537
276 786224 -5931
277 97677 355571
278 25565 413502
279 363390 225753
280 785768 29361
281 363219 388792
282 764830 957832
283 -12515 432179
284 62578 383849
285 336704 224948
286 345407 444893
287 449291 279323
288 775162 993094
289 865008 35188
290 437717 299674
291 361982 300173
292 342064 300954
293 298710 434455
294 106953 485612
295 369452 389466
296 342121 306199
297 52257 346205
298 904587 66525
299 702167 999924
300 43811 432207
301 702475 1019782
302 774902 938479
303 818699 921634
304 858691 42714
305 327201 529338
306 33175 346962
307 343345 278099
308 338326 255249
309 392272 418182
310 202367 394826
311 296065 235136
312 803346 -1345
313 759405 926548
314 27846 264712
315 384121 220477
316 835578 57799
317 796440 87615
318 877100 120556
319 715487 856748
320 787463 1040889
321 720222 918378
322 706656 1003602
323 376401 387725
324 736989 993317
325 795257 918980
326 754237 974331
327 55470 415338
328 754559 45813
329 264376 253194
330 98870 383360
331 320332 505732
332 354168 240109
333 120538 360047
334 110461 368220
335 100003 406920
336 57916 396974
337 343635 484307
338 81082 409802
339 787279 54594
340 804821 5632
341 901774 116770
342 714607 912416
343 309619 310773
344 69379 419532
345 730081 909461
346 878757 69744
347 469736 210357
348 934397 88161
349 74456 397368
350 781990 922961
351 328418 479778
352 386501 300527
353 334090 362635
354 361391 465347
355 90517 335210
356 679612 969573
357 406304 241433
358 111641 525553
359 97725 413352
360 860245 1909
361 728422 969518
362 382106 263035
363 734682 1008258
364 819463 931455
365 755649 992562
366 715323 984256
367 415489 464125
368 288635 434898
369 921046 25995
370 797610 36378
371 885552 21437
372 375719 495645
373 927669 44636
374 379015 226760
375 328687 283862
376 356570 287659
377 428417 329847
378 31728 393547
379 350129 484805
380 267094 464030
381 465005 368238
382 907078 -52503
383 761571 -5389
384 60593 327328
385 349214 295675
386 900526 57378
387 821980 40866
388 877092 2471
389 90590 368520
390 782440 1015465
391 809491 41551
392 362913 319855
393 676397 1008817
394 315674 327061
395 370443 372719
396 28382 419933
397 370379 406809
398 32206 417386
399 301707 449281
400 35842 398291
401 914694 -5168
402 32862 347212
403 67057 330345
404 87128 438429
405 841220 28471
406 895024 71533
407 392762 448734
408 836299 96810
409 375490 315340
410 288990 402207
411 361001 410442
412 864207 58645
413 719782 994824
414 64442 504171
415 3422 387846
416 142958 437698
417 385514 436440
418 321261 439182
419 807089 968589
420 321007 244935
421 727653 1007861
422 180623 481733
423 881001 55255
424 764640 34087
425 320570 394063
426 262342 260167
427 112139 457109
428 798403 34973
429 -1999 368869
430 115287 342920
431 346815 247024
432 334634 414818
433 806866 34670
434 745145 1004866
435 811174 111855
436 85143 331596
437 923687 20139
438 285542 456311
439 686998 948159
440 728039 911482
441 926827 97401
442 28035 407228
443 710216 923785
444 344070 521933
445 340241 397272
446 371994 402905
447 383182 465918
448 304608 458535
449 865087 52660
450 720676 964217
451 341754 337315
452 963794 71458
453 797065 35097
454 794031 105433
455 894021 -1417
456 709966 939390
457 301213 449732
458 883822 78208
459 824624 -68284
460 129056 467176
461 756786 952025
462 903368 14837
463 324411 454659
464 43982 247828
465 111817 361531
466 346098 310096
467 836778 60225
468 806526 58633
469 789192 53786
470 126246 375093
471 199606 458864
472 681906 958379
473 389433 295085
474 175015 424928
475 402579 359339
476 290922 269559
477 73092 342733
478 316965 352028
479 414641 301893
480 127768 346464
481 151075 337703
482 297531 473943
483 706516 912273
484 332088 362543
485 906443 39607
486 385747 406960
487 295953 415042
488 368636 325300
489 717919 961911
490 768445 1041923
491 428815 395660
492 397690 217396
493 299374 287206
494 697043 900779
495 366504 306486
496 33254 461389
497 681981 992216
498 340217 276622
499 90019 364166
500 402682 329574
