NAME : portcgen-300-309
COMMENT : portcgen N=300, seed=309
TYPE : TSP
DIMENSION : 300
EDGE_WEIGHT_TYPE : EUC_2D
NODE_COORD_SECTION
1 340426 255727
2 318998 304506
3 286134 332673
4 322660 299628
5 849206 162393
6 336377 311366
7 285840 313347
8 251105 275709
9 139006 363783
10 314589 265026
11 896401 298474
12 386357 245869
13 968556 367458
14 298895 269625
15 293983 351925
16 295177 219297
17 950720 382740
18 942842 292899
19 872644 274001
20 307439 243566
21 334377 194101
22 224737 382732
23 282680 315104
24 226881 429394
25 795750 250917
26 325415 289449
27 280439 258797
28 171925 393725
29 995255 295192
30 297714 319348
31 270209 328165
32 264022 453752
33 177478 418567
34 860033 292462
35 286526 317549
36 959181 355978
37 881840 290373
38 296913 337718
39 881587 193027
40 826054 314829
41 277018 246756
42 835147 440738
43 188797 393056
44 273815 252340
45 248264 196436
46 306068 259964
47 861453 347320
48 901182 190984
49 201622 374665
50 212934 328340
51 315907 309585
52 238393 289278
53 292956 418819
54 294295 110241
55 277704 423622
56 960527 280326
57 937190 360426
58 1006913 295330
59 177451 321180
60 199715 453609
61 199720 274250
62 197616 389478
63 194714 166598
64 910561 246207
65 219431 354642
66 292042 427840
67 282176 306583
68 206316 187548
69 336135 218637
70 945186 330099
71 221498 176062
72 260172 274790
73 217167 359251
74 904380 229665
75 305110 401093
76 79696 387635
77 326596 297299
78 135490 417630
79 291507 283288
80 940869 353533
81 220814 352274
82 219090 341179
83 963729 256722
84 224026 306527
85 741467 406133
86 321529 329994
87 260629 439447
88 878498 324146
89 252966 228419
90 333299 399714
91 280635 188590
92 859249 374599
93 392755 439924
94 226604 267176
95 356855 463654
96 325289 370424
97 266942 307212
98 315501 375387
99 983979 274425
100 804555 289835
101 903868 375342
102 901425 355408
103 242777 389747
104 953230 310864
105 186161 284860
106 965422 322801
107 301345 286170
108 938252 248976
109 167287 388583
110 895850 343391
111 874085 216274
112 343485 400004
113 802478 375201
114 267434 417547
115 853962 281447
116 936555 398715
117 1018493 319651
118 230071 303495
119 253719 283866
120 369296 274550
121 270458 274110
122 904766 356404
123 225485 261831
124 834020 361386
125 252964 437837
126 335025 237179
127 994058 229968
128 864209 340878
129 883602 455898
130 916849 389814
131 265030 328589
132 258947 312339
133 192979 421059
134 801022 296029
135 289593 284510
136 831695 248462
137 270241 244843
138 778343 243779
139 260518 341541
140 220402 430887
141 172098 325480
142 877383 275922
143 880201 296229
144 918526 355627
145 264289 264444
146 295896 254567
147 207868 285631
148 890627 243587
149 274992 282446
150 240712 298268
151 186504 308828
152 849267 216908
153 243726 362881
154 897907 293167
155 276048 260332
156 227784 444481
157 258249 197072
158 324144 249638
159 324348 331961
160 964578 339745
161 354674 164420
162 307743 430212
163 900073 356210
164 952770 329919
165 287390 356722
166 165811 306551
167 184095 253498
168 199960 355298
169 772367 326491
170 340962 368795
171 222216 212466
172 249244 242773
173 911411 353489
174 948424 195186
175 278612 206148
176 953008 282595
177 942956 321997
178 981601 378444
179 377671 338492
180 420869 180479
181 907016 282261
182 203845 441264
183 298202 352808
184 291410 268208
185 913022 231395
186 201340 439585
187 939503 332142
188 291392 383701
189 408544 297065
190 853481 290726
191 271611 262187
192 827161 376333
193 242309 266513
194 253916 285013
195 237903 295091
196 301746 349883
197 212900 301853
198 228545 385666
199 846416 312390
200 862806 381522
201 344349 320924
202 908448 319563
203 268414 228724
204 211010 313469
205 224682 208072
206 297746 85753
207 737625 336800
208 960024 337346
209 221024 417637
210 391355 164999
211 217971 287671
212 282025 346481
213 256133 304995
214 234656 396741
215 313280 242425
216 297593 193147
217 914735 385005
218 193613 351763
219 348592 229024
220 222684 419187
221 840286 233497
222 291250 290938
223 206518 295623
224 310756 233253
225 909177 388096
226 851150 398836
227 280054 355825
228 891921 224019
229 262162 409179
230 876494 302879
231 262191 340052
232 313326 367278
233 867684 145216
234 288036 199738
235 314485 271558
236 899435 345530
237 239911 170143
238 906321 281431
239 402041 339605
240 936234 391265
241 105638 300035
242 313889 200759
243 345163 306259
244 437934 260383
245 232735 241594
246 201931 253436
247 268269 403348
248 301617 410531
249 942893 441118
250 230034 389920
251 301159 250651
252 195084 407841
253 320402 208374
254 241073 271312
255 294874 186591
256 330323 273508
257 208706 416700
258 819819 329203
259 953881 318438
260 877327 346380
261 256885 225348
262 936230 303645
263 824306 339771
264 342010 207455
265 193464 367716
266 171013 323572
267 368665 376273
268 296633 145480
269 209043 259255
270 285928 383686
271 925997 386840
272 369681 240490
273 317302 232832
274 940614 212730
275 192683 324566
276 264605 458431
277 191676 279751
278 334627 205642
279 261665 467415
280 150999 254504
281 221771 286579
282 299494 278982
283 894920 324509
284 267972 303736
285 828485 262159
286 344196 319075
287 279639 281715
288 340828 224336
289 190193 212469
290 134962 429735
291 270660 309775
292 339475 463908
293 227187 309659
294 151672 174455
295 307989 202748
296 903705 261051
297 302563 247672
298 296923 435637
299 261008 389183
300 368760 373371
