NAME : portcgen-1100-1101
COMMENT : portcgen N=1100, seed=1101
TYPE : TSP
DIMENSION : 1100
EDGE_WEIGHT_TYPE : EUC_2D
NODE_COORD_SECTION
1 54040 290357
2 972842 627886
3 1021703 637343
4 548794 460574
5 903344 575509
6 161907 715032
7 58485 338912
8 162606 433260
9 313514 540260
10 744052 521198
11 940041 155719
12 751264 486858
13 37604 313416
14 673951 494285
15 5831 286606
16 941680 607671
17 749 240467
18 348864 534329
19 79178 337698
20 726275 467840
21 252826 765531
22 805165 297079
23 145264 758804
24 520536 445854
25 959552 187615
26 157762 814919
27 828515 353471
28 500796 499117
29 485633 540457
30 920920 150009
31 937326 175926
32 997828 592898
33 297121 550759
34 470998 578293
35 199604 768593
36 810826 307073
37 147870 448974
38 179879 771238
39 42814 866581
40 176654 787765
41 977008 192515
42 230114 421685
43 973541 636545
44 747998 317664
45 815918 292135
46 62627 363078
47 165445 455103
48 350547 517303
49 979998 126041
50 214178 781819
51 403714 556241
52 506012 532847
53 33611 288820
54 948683 216967
55 229092 769410
56 937579 613948
57 977876 112342
58 319491 600642
59 330115 599097
60 943932 159093
61 174079 479351
62 256677 763204
63 981087 612153
64 432835 564083
65 896643 153027
66 845159 320060
67 75495 243073
68 99726 912266
69 858619 316630
70 148136 754899
71 938442 622317
72 960819 618025
73 515851 521883
74 966237 163094
75 735836 529906
76 499823 529882
77 551659 475618
78 978266 186494
79 70149 951557
80 98665 913508
81 199760 409930
82 332016 611823
83 201630 399804
84 976577 616965
85 563750 461292
86 20130 309360
87 833598 348473
88 871367 374030
89 474659 595193
90 535393 513016
91 428089 567545
92 769948 288036
93 971621 85236
94 730767 436111
95 27675 267032
96 901664 195761
97 993005 598217
98 551065 484088
99 977302 563183
100 55149 389185
101 309424 573123
102 61119 975011
103 181702 753882
104 19728 332555
105 767895 347074
106 594309 440761
107 978467 620608
108 834843 345793
109 479683 537692
110 206205 698561
111 57834 280328
112 806724 318094
113 907392 178643
114 996987 624838
115 445240 570065
116 46096 309487
117 422170 539455
118 740897 487154
119 354336 602630
120 11919 297444
121 979326 617750
122 517803 476073
123 551158 514029
124 202535 768880
125 17352 322692
126 120827 965409
127 254797 809227
128 194748 426924
129 955001 617409
130 979336 154920
131 511934 570784
132 793064 345855
133 107363 326753
134 970250 635836
135 26217 946944
136 172865 779982
137 732032 519746
138 749003 524097
139 971049 141361
140 573171 439812
141 395491 548390
142 393984 528573
143 748452 533620
144 962779 190146
145 333191 553470
146 315351 574515
147 173841 767895
148 914848 159195
149 499921 551492
150 803053 370369
151 164962 770358
152 7935 335227
153 704907 519485
154 42306 950784
155 575339 448202
156 987577 613517
157 120946 410628
158 501053 556022
159 108480 414501
160 104157 419261
161 447436 559476
162 344698 527794
163 749505 540808
164 551550 522612
165 174229 400143
166 927976 632338
167 521052 455745
168 828349 299721
169 682200 570834
170 50628 312691
171 543706 497938
172 188750 763957
173 513753 582671
174 302296 562957
175 963831 580631
176 998451 125710
177 172338 814742
178 911843 174144
179 974119 213158
180 162429 756266
181 852608 354497
182 967038 166040
183 76793 944427
184 349901 508184
185 173500 749806
186 354530 602105
187 75046 933284
188 34350 318785
189 747121 514903
190 977690 591394
191 184951 806140
192 693971 465155
193 465473 572034
194 969368 176976
195 444864 577967
196 849495 287849
197 160568 406636
198 993618 635279
199 232795 814368
200 137169 311216
201 721153 511042
202 919810 184505
203 173524 708099
204 791187 339685
205 830851 293666
206 560647 465582
207 348140 513509
208 61297 306968
209 171160 788802
210 773480 278884
211 854063 307336
212 848591 240507
213 108200 921769
214 541264 446820
215 498306 578776
216 935704 613201
217 151772 777016
218 924592 148841
219 791558 269795
220 311577 567050
221 767859 334198
222 81858 956871
223 14925 916209
224 178636 447638
225 535520 508949
226 36386 301492
227 191027 318589
228 998791 610425
229 162729 768723
230 706499 534728
231 736221 490394
232 519532 458225
233 351660 622847
234 216629 774338
235 957796 581085
236 191489 775154
237 649004 495724
238 469504 594687
239 139561 349087
240 56647 915186
241 509633 584251
242 184006 755160
243 50376 300325
244 217761 779865
245 954392 620308
246 535792 517602
247 431419 545702
248 211240 355126
249 -4979 926112
250 759489 540941
251 487262 572819
252 849194 330035
253 979110 614348
254 971644 628970
255 955183 590680
256 1008952 593625
257 509198 502802
258 744500 514747
259 94301 435487
260 12663 327390
261 682864 542536
262 61498 272875
263 23718 247958
264 951351 596165
265 154932 428482
266 812378 265844
267 447373 638339
268 19038 959112
269 81507 315978
270 23972 310627
271 707390 500238
272 265911 404254
273 412493 582531
274 1001578 620327
275 25540 277136
276 6942 933461
277 512865 471765
278 451628 594078
279 484722 616407
280 65495 280570
281 95943 415829
282 204510 772184
283 688078 510243
284 458372 550424
285 727366 481611
286 861102 359267
287 831726 361099
288 394173 567655
289 774190 487134
290 343946 540848
291 70743 967001
292 22464 309529
293 789525 522189
294 515454 560840
295 708193 483026
296 554480 480909
297 846677 313180
298 435624 535746
299 571724 450000
300 281421 613740
301 137082 396513
302 993586 637791
303 924409 150807
304 79257 977861
305 302379 522243
306 536627 599024
307 758081 516145
308 54563 273530
309 247307 756250
310 122641 394134
311 451622 581011
312 476360 570574
313 486465 627842
314 -8466 947167
315 814315 288178
316 228654 809540
317 702607 483901
318 899187 184187
319 59773 917194
320 339211 555203
321 130893 290364
322 472211 551241
323 198446 739222
324 687964 498713
325 328497 549429
326 870651 314479
327 537218 461093
328 701401 508254
329 480330 642402
330 930975 132158
331 939328 624765
332 960761 144629
333 39389 911282
334 724583 532901
335 320989 548268
336 65931 940925
337 364010 578547
338 106204 902238
339 482520 583771
340 1018815 189255
341 983658 626752
342 947699 197568
343 952945 621135
344 161311 755530
345 826344 264413
346 158766 454436
347 142698 396224
348 -3838 324333
349 1001958 579799
350 509470 455768
351 339919 504589
352 164719 424685
353 503461 571201
354 762243 508826
355 221478 793415
356 568308 475554
357 908012 221203
358 721282 506664
359 525362 538377
360 973265 586078
361 793933 336755
362 464194 583239
363 982614 602438
364 -42769 942853
365 279593 517776
366 949604 579013
367 91438 923765
368 210872 752178
369 128171 432647
370 103005 318282
371 117078 893555
372 532647 509618
373 711785 482004
374 150782 422326
375 521215 531486
376 1010355 541367
377 840564 319463
378 133818 769014
379 133729 411534
380 923102 667866
381 741342 475642
382 213441 455474
383 67292 239319
384 59050 940280
385 93856 946880
386 759072 519074
387 150483 950666
388 696908 527898
389 572763 462299
390 961920 625799
391 486147 608776
392 33463 984755
393 195100 725745
394 146505 437968
395 358476 592381
396 38594 317207
397 26086 908743
398 73099 308033
399 321539 538058
400 477175 463677
401 474863 512596
402 174116 780323
403 198464 418636
404 523774 453857
405 350692 534118
406 968226 171417
407 940698 668080
408 -2812 316066
409 350848 584511
410 2969 326016
411 257398 783184
412 773177 474525
413 150348 750311
414 156150 429055
415 148164 794694
416 510927 531296
417 71342 945524
418 422084 553632
419 791023 310531
420 1022521 611856
421 444167 556889
422 168072 690338
423 523648 494869
424 855574 355542
425 150495 422213
426 919653 585524
427 516673 463139
428 203220 771439
429 219156 773751
430 35441 289672
431 40369 933222
432 34721 270254
433 202101 775694
434 530964 449336
435 728960 481431
436 352410 572131
437 950665 665052
438 280757 582646
439 740106 515300
440 970815 169954
441 468162 575124
442 73265 273714
443 968747 627633
444 665309 529526
445 536387 469625
446 490717 443758
447 693538 569945
448 325568 558179
449 207156 799956
450 88053 914323
451 483674 474874
452 41223 271229
453 41939 917678
454 198086 419639
455 959503 218319
456 54130 281809
457 470065 573751
458 739521 540769
459 554541 497577
460 422324 594137
461 481997 608847
462 326679 614401
463 965999 210386
464 351147 568613
465 348788 535893
466 522724 490714
467 178342 753936
468 684243 472240
469 844031 282997
470 673851 498721
471 956996 615555
472 962488 631926
473 581439 532746
474 981313 183787
475 663202 549516
476 478821 592654
477 555378 468828
478 968553 209898
479 88903 407716
480 983644 609917
481 57418 339984
482 43963 329044
483 778572 510416
484 936345 129920
485 512998 513846
486 985050 619367
487 966390 171437
488 387649 528570
489 979354 596462
490 28427 945426
491 771179 490591
492 352706 567942
493 316990 559215
494 34531 911097
495 137710 413991
496 304720 524235
497 675125 466519
498 157100 420492
499 1032902 589335
500 724811 490854
501 714412 489970
502 78855 929232
503 965843 219236
504 984681 583472
505 36841 310445
506 973793 207167
507 54075 932006
508 915194 224754
509 377354 565511
510 24287 948618
511 81231 315180
512 163122 435511
513 106987 304686
514 65650 340292
515 969890 623349
516 52341 918246
517 158347 400021
518 220234 802091
519 977146 132569
520 986359 604829
521 984839 222373
522 446005 562491
523 192427 414310
524 293831 547658
525 200241 760810
526 294699 587673
527 34708 886549
528 315913 571956
529 946169 172886
530 125189 453752
531 62969 913693
532 32338 288656
533 912718 618202
534 210690 810260
535 -1001 275573
536 903409 151807
537 933478 209014
538 534106 465194
539 93943 386930
540 185798 776113
541 216003 811951
542 78255 943285
543 318278 503940
544 33351 959292
545 497134 534732
546 444531 597792
547 301292 508370
548 533384 502876
549 569395 457896
550 213247 771746
551 794310 331741
552 787753 330416
553 812964 320417
554 1021295 631769
555 729710 509455
556 926075 631619
557 156091 415708
558 153934 419573
559 43336 913787
560 876505 322586
561 192396 449083
562 530976 470569
563 932963 588837
564 941722 197259
565 1010632 118608
566 1000862 215576
567 86973 905308
568 911319 620703
569 455840 575377
570 463016 559332
571 189373 440073
572 76906 898256
573 814333 297242
574 898837 197731
575 836404 313837
576 670240 531024
577 968709 598529
578 940416 127135
579 533362 437371
580 1005327 241992
581 103935 937308
582 710497 561810
583 458312 627954
584 696581 489405
585 544988 470294
586 728921 473647
587 479934 542354
588 160445 417646
589 713774 506886
590 1003801 622140
591 506737 602109
592 439890 544917
593 202767 796611
594 182423 797000
595 57142 356324
596 49177 323029
597 -2302 937753
598 36016 923977
599 985814 126327
600 465433 549322
601 352297 524225
602 372220 573167
603 503592 445916
604 13118 282851
605 74740 931273
606 971497 155298
607 334252 561716
608 738356 491713
609 44605 869728
610 722206 523019
611 23243 306884
612 968596 600353
613 349725 543923
614 998652 651359
615 464726 617388
616 1055566 604298
617 82291 929213
618 992797 613126
619 943735 165401
620 986933 172008
621 686178 489451
622 696821 545439
623 25657 912650
624 373679 551423
625 551131 494832
626 81025 937430
627 517034 454956
628 221807 756269
629 982253 214183
630 92674 1005380
631 954083 193031
632 231964 712177
633 419899 521555
634 798974 322554
635 26030 299851
636 89127 899945
637 515076 448461
638 948444 167567
639 287906 780720
640 338980 572022
641 71491 298670
642 533893 468161
643 430572 610874
644 100735 925328
645 504132 464491
646 63029 302935
647 462219 597272
648 89981 931220
649 801419 307227
650 302556 557120
651 97999 910038
652 327978 514066
653 850847 352129
654 903291 653339
655 733151 538626
656 15752 332072
657 537469 527592
658 722219 492059
659 499880 623162
660 941418 176968
661 199012 451685
662 394491 574707
663 401043 573874
664 345497 508079
665 822828 356586
666 961803 181218
667 240423 777282
668 865844 326078
669 328589 550740
670 692280 506327
671 80669 1004993
672 290894 537033
673 28522 921899
674 171124 364065
675 496904 539015
676 164146 783599
677 532018 498604
678 897286 297169
679 744122 524121
680 201721 783790
681 202663 764995
682 43095 1018982
683 498259 464045
684 176013 794355
685 848811 339614
686 796716 295089
687 840058 369139
688 736350 508602
689 94738 939821
690 356289 598446
691 147363 438826
692 425236 534786
693 154714 435484
694 788805 349805
695 944208 542444
696 728393 495906
697 768146 503292
698 504064 504525
699 908339 607752
700 561821 505330
701 173051 719468
702 506436 495289
703 814572 335819
704 167635 750330
705 997820 168734
706 831918 325829
707 437568 593135
708 132478 366160
709 939320 186880
710 935841 170333
711 934170 620348
712 765728 492266
713 385548 525436
714 935916 174412
715 933185 608056
716 375459 583680
717 332053 584360
718 68034 258009
719 215104 420879
720 454102 621674
721 309964 589146
722 85104 315018
723 782621 501537
724 39891 277242
725 950033 231848
726 349894 570374
727 24020 352092
728 181601 431263
729 158331 451097
730 44035 921737
731 853910 301664
732 975426 599172
733 989149 158103
734 785950 292394
735 722556 507405
736 203347 766036
737 803187 321972
738 563160 526950
739 676624 510086
740 925689 191996
741 222217 469583
742 178235 730756
743 43218 887343
744 773988 321548
745 799019 334916
746 1001268 176768
747 344908 563912
748 108858 846465
749 458205 576153
750 48751 281516
751 724439 525926
752 328154 583681
753 740665 470639
754 732349 494781
755 76578 317487
756 751658 465911
757 63968 879076
758 12713 947001
759 219254 421968
760 748715 547475
761 256234 811259
762 720957 471592
763 838447 334230
764 153969 781346
765 130009 464027
766 214692 378593
767 90743 336478
768 524057 518684
769 642569 526011
770 995415 192202
771 332987 532900
772 132246 428756
773 958786 628344
774 500559 607213
775 53502 281909
776 447311 561551
777 784052 327846
778 323060 555768
779 210765 782662
780 322249 515215
781 179841 804461
782 38720 280037
783 46015 333626
784 692218 490612
785 138887 759190
786 482164 452392
787 392852 573231
788 694948 534131
789 117778 945323
790 347063 578109
791 878703 299037
792 700578 546625
793 491247 490839
794 974435 221029
795 492825 448859
796 696792 491496
797 538226 497494
798 298547 538570
799 -294 322229
800 818518 311270
801 200535 779308
802 317136 538151
803 36580 326113
804 736367 493660
805 975569 229359
806 24350 909421
807 466574 592349
808 587571 430417
809 57469 286834
810 925042 580323
811 155872 413450
812 657540 437558
813 151689 449051
814 838833 335778
815 62752 956396
816 67591 283844
817 142251 727742
818 177701 410856
819 470491 561013
820 846427 322560
821 163986 415397
822 974286 600175
823 438813 519070
824 673325 535468
825 149010 431457
826 191066 798669
827 107341 948471
828 92260 971970
829 680290 457714
830 303239 592109
831 13206 893086
832 159282 751837
833 66224 877152
834 964576 597603
835 76211 945081
836 55468 883868
837 955509 200944
838 140777 391853
839 109380 952389
840 178846 409845
841 152870 761417
842 758856 519897
843 930492 619638
844 569842 503674
845 718077 480338
846 198508 792435
847 75189 969007
848 836801 317854
849 727423 494448
850 969479 218915
851 34629 949893
852 778884 322380
853 47936 303363
854 211998 763340
855 948604 652315
856 727589 462707
857 165047 442036
858 247773 427267
859 687945 470398
860 189721 799130
861 169415 784121
862 995668 618142
863 192119 708301
864 213740 728734
865 222156 829557
866 493902 581862
867 220637 405185
868 747193 516022
869 174595 385381
870 485765 522062
871 487626 581604
872 940327 255892
873 84975 336984
874 482632 597444
875 93044 275943
876 702771 560279
877 963741 163306
878 187341 765038
879 195332 745782
880 782675 357915
881 491030 509525
882 28169 339473
883 450752 556101
884 164478 801122
885 129755 763648
886 470448 555076
887 1007678 615698
888 206488 770412
889 463591 573308
890 87442 925608
891 86702 317491
892 521586 453982
893 21345 279404
894 677145 435520
895 982142 184313
896 504344 511681
897 39362 324042
898 281094 789539
899 676161 539660
900 175576 761337
901 64323 1004506
902 107654 441728
903 28706 963786
904 191769 439656
905 894173 613184
906 825858 318605
907 791718 350678
908 959768 213454
909 986890 212071
910 383645 562732
911 509215 554755
912 514588 567276
913 521819 519236
914 564849 458593
915 767418 493170
916 778882 320218
917 82108 251414
918 295208 545519
919 983057 180810
920 959409 139393
921 483672 548640
922 1034767 557152
923 214089 782535
924 115345 313267
925 434132 583929
926 40667 259518
927 466351 430495
928 380704 555158
929 173476 760947
930 837152 329140
931 46745 333740
932 835116 280744
933 192799 435563
934 374778 566633
935 50780 926904
936 137640 376201
937 106890 876030
938 90787 353267
939 447848 566543
940 61416 985407
941 840486 285832
942 199967 822433
943 162947 440847
944 1014840 632207
945 431749 571955
946 91364 966622
947 1054844 645271
948 331910 533051
949 953191 619594
950 82923 886808
951 141332 812890
952 220131 408252
953 53551 945070
954 480854 577243
955 39009 878577
956 961926 606779
957 482180 577816
958 74217 304545
959 134098 394496
960 518534 601836
961 515338 486776
962 547298 429011
963 44243 944012
964 55505 286710
965 958756 644490
966 58059 336580
967 918453 640190
968 474782 434039
969 933621 247497
970 474466 583024
971 984805 633129
972 1020829 590908
973 966233 598673
974 939638 645143
975 40471 928390
976 493421 612312
977 518963 580935
978 930012 166449
979 817894 329877
980 67113 928310
981 49891 293418
982 173675 431255
983 155709 443876
984 955484 206167
985 68213 957803
986 995902 615973
987 1016115 177354
988 781276 510742
989 966793 192688
990 125658 227194
991 50569 961526
992 22144 305767
993 964743 166802
994 984382 222226
995 860605 325068
996 711077 517078
997 510501 586160
998 374414 543536
999 153639 759820
1000 147729 369853
1001 929479 590087
1002 956431 617944
1003 937048 595950
1004 936769 175645
1005 203939 750190
1006 53086 886980
1007 60143 911765
1008 4302 329915
1009 141411 415307
1010 806825 337308
1011 54102 951231
1012 76200 903994
1013 541634 483229
1014 152915 440788
1015 69590 287105
1016 918232 163117
1017 556940 507762
1018 194476 805432
1019 787069 331406
1020 796335 283795
1021 60093 288500
1022 785314 288741
1023 79485 912992
1024 183242 450213
1025 320003 492987
1026 538683 495876
1027 505543 420732
1028 747997 534186
1029 952791 590331
1030 134105 430831
1031 195851 770849
1032 938842 599969
1033 544767 491459
1034 972254 648310
1035 449843 642837
1036 785295 535951
1037 174923 387279
1038 181727 789016
1039 35796 307974
1040 463986 613699
1041 702310 521172
1042 547187 494696
1043 130563 420487
1044 198297 385038
1045 42070 312255
1046 68395 945843
1047 99014 905465
1048 60331 358739
1049 45785 324469
1050 448145 622351
1051 595098 469606
1052 317651 569803
1053 164807 360837
1054 132876 438951
1055 727747 503237
1056 20213 363805
1057 943936 639309
1058 410362 542040
1059 125435 359294
1060 878042 218538
1061 781963 308173
1062 975366 233583
1063 99610 920099
1064 214343 438763
1065 152100 469830
1066 349902 548926
1067 319410 538050
1068 18601 281158
1069 102764 421578
1070 107958 280277
1071 751825 542120
1072 325453 581188
1073 91088 278416
1074 502770 475132
1075 856506 398601
1076 764332 317544
1077 944799 176128
1078 941313 183559
1079 80815 232602
1080 210944 723172
1081 53225 298970
1082 567330 415205
1083 156377 811250
1084 317540 539664
1085 75608 291906
1086 170541 410232
1087 817175 328290
1088 99584 890037
1089 29747 867527
1090 205729 783311
1091 66873 232915
1092 670324 486502
1093 1033472 602156
1094 96730 975080
1095 69224 952214
1096 475637 562535
1097 65067 918904
1098 937262 627761
1099 921413 200298
1100 160866 430906
