NAME : portcgen-400-403
COMMENT : portcgen N=400, seed=403
TYPE : TSP
DIMENSION : 400
EDGE_WEIGHT_TYPE : EUC_2D
NODE_COORD_SECTION
1 657196 495495
2 436457 953131
3 678511 529880
4 56833 889511
5 399478 914078
6 -23039 942108
7 70170 801939
8 36918 823505
9 655076 493112
10 333038 1090512
11 883164 647867
12 779614 693378
13 77413 817659
14 780745 535549
15 -45962 940184
16 71326 742127
17 417896 955147
18 73289 804350
19 795960 679728
20 384954 1012584
21 460578 1015479
22 725049 682120
23 55606 866825
24 708599 459810
25 902651 773105
26 458836 1035533
27 669369 450064
28 950234 727716
29 845356 691133
30 24491 875769
31 842668 626386
32 346143 911236
33 474663 1019209
34 803820 714061
35 679473 463817
36 722560 454374
37 452379 1005325
38 742628 415989
39 106052 899393
40 727167 536533
41 472442 945646
42 843389 701464
43 404525 1021109
44 720822 458875
45 861023 730339
46 768283 648264
47 781363 637442
48 688751 507551
49 683543 508313
50 699672 504405
51 681589 377399
52 42413 904465
53 795025 634795
54 459849 954822
55 718484 575345
56 815276 610270
57 303376 993653
58 36332 889177
59 801945 733152
60 292022 1016932
61 710361 626642
62 111230 841877
63 781540 780948
64 845967 554773
65 691833 463484
66 751685 482725
67 738012 521110
68 821109 712350
69 346300 1013569
70 707107 502243
71 85303 932772
72 819150 665247
73 634788 447899
74 43939 783021
75 811438 610152
76 4808 806082
77 808272 707623
78 811627 728001
79 840194 680977
80 10169 857444
81 727763 467377
82 723635 378469
83 772272 412429
84 863164 687824
85 -91751 909088
86 833252 656159
87 -37443 884753
88 853506 711439
89 664140 456768
90 455419 1028672
91 67654 836898
92 86641 842707
93 30992 860849
94 795264 724881
95 -43268 861523
96 825299 695607
97 749272 551926
98 372260 969886
99 -26066 859837
100 839158 729594
101 -48626 865780
102 670256 496274
103 417129 989264
104 79279 787710
105 815034 717851
106 20367 875449
107 656131 546690
108 846517 647912
109 431296 1083793
110 813586 485297
111 806312 670450
112 108051 898728
113 721364 458050
114 863948 616124
115 457727 1032597
116 800982 818567
117 374279 980416
118 846826 686147
119 691807 428365
120 664310 474016
121 749881 685704
122 458288 979894
123 -60305 954193
124 784249 705244
125 353545 1047357
126 411377 968344
127 116764 799429
128 820879 714474
129 439458 1066123
130 28846 935092
131 441290 955851
132 370340 1000791
133 -20144 954630
134 800677 673041
135 787180 667157
136 92902 898620
137 849241 661379
138 391855 947293
139 349772 956660
140 27565 952518
141 408569 972385
142 875671 735676
143 874275 684673
144 647541 498763
145 898706 772722
146 804063 632755
147 41533 925291
148 829264 665531
149 717819 488138
150 687375 458314
151 459024 1058661
152 399998 1003816
153 89929 750521
154 68363 863524
155 942692 660899
156 865628 596686
157 -43540 842022
158 402261 969819
159 803423 646799
160 625157 509763
161 747598 515789
162 433044 1104153
163 310167 975433
164 881634 697552
165 727299 562138
166 813470 646558
167 782504 721112
168 788835 657546
169 722870 536616
170 25828 806886
171 376410 924841
172 803952 793699
173 441118 1007651
174 603498 415530
175 691747 544279
176 662721 497489
177 759085 458506
178 817648 634313
179 399171 1035012
180 697418 484881
181 715743 480111
182 729627 560687
183 132540 834844
184 -20851 874697
185 401680 995608
186 35530 762850
187 768953 434833
188 842838 582555
189 98378 814676
190 803649 722149
191 640365 392189
192 717116 439739
193 357154 985112
194 72099 870493
195 442175 1000955
196 155476 833136
197 457803 949975
198 60643 922518
199 453025 963797
200 811880 647414
201 658811 482033
202 286228 1002027
203 692820 516629
204 664151 521173
205 70896 923287
206 862612 764093
207 936765 707181
208 814199 660084
209 746066 716370
210 839091 669746
211 -31073 903888
212 790224 712256
213 9582 967027
214 393947 907736
215 726052 463619
216 820603 657068
217 357063 936318
218 874756 625503
219 820745 423261
220 28740 940157
221 379515 1017198
222 746423 661082
223 704371 506933
224 845655 653378
225 -2312 862763
226 -48718 931697
227 786157 723295
228 -15630 789385
229 374897 964885
230 757210 672578
231 812844 631231
232 923218 663903
233 734437 458350
234 121567 869391
235 846946 636328
236 503543 1038377
237 423770 986217
238 735750 746408
239 392711 1021747
240 885325 647864
241 407813 1080195
242 116884 893892
243 395792 1010801
244 25505 854246
245 722658 725502
246 841206 730070
247 879560 723522
248 146969 919959
249 674927 423384
250 335918 1066104
251 765356 587533
252 690872 495245
253 676955 493281
254 447195 987974
255 10259 925458
256 771128 511580
257 852304 676934
258 472826 1008332
259 539667 1035974
260 362685 985030
261 844148 631642
262 682047 465056
263 677444 500153
264 720995 505335
265 465352 1050591
266 24378 905353
267 831388 642885
268 96523 759617
269 411332 1017488
270 297951 1045287
271 743256 452759
272 423551 1013736
273 807617 662613
274 478212 966049
275 10584 750220
276 388949 942619
277 747433 404817
278 78932 800058
279 322524 998498
280 453877 1073478
281 892515 754784
282 396191 978600
283 729017 406703
284 86577 898538
285 37002 915021
286 389310 941535
287 775175 685250
288 747632 438224
289 684512 465430
290 89561 861708
291 15112 856733
292 251446 996432
293 638655 481696
294 374869 1034744
295 469608 1074725
296 -24011 881374
297 456694 983531
298 154297 885175
299 36274 924474
300 843870 623974
301 397859 985026
302 48476 926515
303 735918 448401
304 476308 1041606
305 105246 891931
306 682057 439534
307 759536 417679
308 743291 513019
309 462446 938002
310 335975 1019939
311 629783 555091
312 346219 994027
313 754185 727689
314 36314 883083
315 874201 675906
316 -24345 870011
317 411823 1000772
318 52983 959993
319 27416 901222
320 903442 568546
321 792201 468372
322 908027 685371
323 914906 703854
324 844426 711175
325 746707 547351
326 -3637 846746
327 405580 1009944
328 45224 942332
329 38146 935757
330 738756 796633
331 428303 933713
332 845623 775371
333 709448 505207
334 28908 872928
335 357965 949504
336 407327 1024829
337 413157 952828
338 360842 988596
339 660417 415305
340 449804 1005709
341 414238 1000797
342 736618 483923
343 393628 970225
344 270897 1088795
345 79808 849591
346 114102 885681
347 626524 470325
348 342836 945439
349 103992 875656
350 -237 759712
351 43116 868680
352 825768 657340
353 856164 665584
354 847659 737611
355 697601 517366
356 753744 703248
357 638773 462048
358 22571 889861
359 433991 941271
360 889330 740629
361 740371 400257
362 901522 751538
363 57141 795184
364 365943 1064847
365 424374 936776
366 357315 967295
367 751659 451976
368 129753 818455
369 695436 416639
370 384011 883644
371 677257 446077
372 -16489 768626
373 699183 494127
374 801354 463934
375 709391 488501
376 744193 429531
377 297774 919259
378 459884 1006377
379 846705 704620
380 723419 464491
381 697199 452907
382 816227 628427
383 816424 684429
384 12055 807705
385 431634 963513
386 693583 382208
387 383489 1036144
388 686021 542323
389 645415 568516
390 721565 526670
391 684463 405527
392 680520 663305
393 99347 874810
394 602527 391523
395 17668 823056
396 357680 961811
397 363160 1077552
398 809435 696776
399 370123 1051825
400 324987 931552
