NAME : portcgen-300-304
COMMENT : portcgen N=300, seed=304
TYPE : TSP
DIMENSION : 300
EDGE_WEIGHT_TYPE : EUC_2D
NODE_COORD_SECTION
1 240192 -67034
2 282618 5243
3 242981 6252
4 201970 641482
5 343004 728811
6 275404 552927
7 311552 555606
8 257915 622700
9 403514 731320
10 279265 534497
11 328753 836915
12 373258 -7257
13 211620 591606
14 303521 471252
15 209499 626475
16 383512 -87521
17 328190 495172
18 248669 572541
19 271515 570520
20 420691 736487
21 246741 519687
22 322371 673492
23 327372 39273
24 279400 518612
25 396866 17852
26 216551 552278
27 266929 505336
28 341858 540443
29 207270 59106
30 277886 621398
31 251661 22086
32 237368 37855
33 234552 20431
34 412822 741480
35 524942 581843
36 323012 704844
37 223869 -35825
38 453834 644906
39 256011 585187
40 184737 472830
41 182903 528611
42 358379 21280
43 387595 35343
44 355768 135041
45 242610 641271
46 281456 49345
47 354221 113832
48 288337 691477
49 386888 597770
50 342987 678340
51 248470 498399
52 252099 507017
53 399500 676346
54 476786 711607
55 338212 66643
56 184551 656656
57 357734 -65923
58 269787 498088
59 383614 635437
60 440426 653801
61 441529 597835
62 236269 588553
63 466155 743929
64 380104 104602
65 321969 609975
66 432356 709206
67 210985 570708
68 333993 640145
69 343570 656307
70 269730 616359
71 267411 12160
72 223109 581970
73 223043 122515
74 441103 714164
75 269272 -19824
76 463802 693516
77 297464 34870
78 413510 692926
79 208834 575138
80 375011 739407
81 301751 151365
82 233022 612110
83 363362 515134
84 509556 703096
85 146624 48900
86 397168 171429
87 440610 855504
88 345918 592598
89 289883 538109
90 327410 -61215
91 238185 20979
92 370096 130224
93 298087 8648
94 489075 679922
95 345880 616635
96 261993 594923
97 331716 140467
98 306160 561637
99 361225 80602
100 251160 10468
101 306491 583906
102 361707 94133
103 219708 537702
104 241590 83187
105 290612 567583
106 425850 40430
107 267017 18406
108 440812 748722
109 399980 38057
110 205516 523006
111 159099 593612
112 184497 522353
113 158471 636801
114 372517 738557
115 359981 725715
116 368335 765771
117 482844 702246
118 237996 455255
119 211260 553856
120 257468 -55652
121 476070 729557
122 526733 695468
123 271904 537094
124 248168 602332
125 200629 572351
126 395717 607271
127 204693 440441
128 257568 87498
129 332364 540832
130 461767 677617
131 227949 590892
132 329554 -85409
133 243524 20163
134 334331 295056
135 221621 467304
136 244103 577051
137 340691 70219
138 302494 642539
139 267168 545177
140 405064 747488
141 347180 82274
142 331537 23269
143 321386 601404
144 345194 666733
145 266255 148007
146 227751 584447
147 311319 640788
148 348212 66339
149 180269 37258
150 425898 629092
151 272429 553889
152 360885 836941
153 291835 57807
154 421869 656834
155 372335 9647
156 335203 -77345
157 211175 548750
158 341167 709038
159 255394 598610
160 322983 539572
161 261778 75676
162 222946 575171
163 266271 615180
164 461114 603475
165 448861 647835
166 301458 -2551
167 394066 685382
168 337962 21241
169 305526 44272
170 272012 616456
171 484392 589006
172 288092 564853
173 501978 711299
174 167047 558156
175 388252 697956
176 510871 617311
177 326674 554988
178 241669 534651
179 433319 691612
180 322883 -27089
181 230966 48268
182 238907 66388
183 215792 711537
184 268078 -131251
185 521474 802775
186 158506 609947
187 245878 77083
188 193669 484035
189 197576 133009
190 372876 630205
191 360079 735929
192 274716 107791
193 305009 543167
194 272203 26560
195 296279 547604
196 268063 586112
197 265489 602643
198 431511 749776
199 473595 752126
200 334107 645623
201 344600 -3828
202 216884 646366
203 183678 646643
204 365998 733605
205 303001 691
206 332808 513195
207 287443 70811
208 439299 702827
209 383551 709407
210 201279 529918
211 383899 639978
212 372041 71685
213 274849 -35401
214 340195 26184
215 402181 691678
216 315391 8244
217 369934 581027
218 369193 706380
219 244694 560750
220 350825 123511
221 305368 593507
222 323185 102883
223 386134 665414
224 421695 665632
225 224131 571006
226 244941 557165
227 373980 128216
228 284294 538072
229 433077 757903
230 238013 563821
231 287175 704748
232 204082 534493
233 371862 682726
234 364787 561385
235 422872 44040
236 400374 678263
237 231757 615793
238 271253 59323
239 267177 44905
240 369393 628596
241 352969 860618
242 316538 643728
243 465851 667800
244 446894 674249
245 274961 83845
246 302050 516310
247 455564 727176
248 357461 96227
249 217072 516184
250 448699 727702
251 375198 788156
252 432912 647441
253 440616 667752
254 339369 683065
255 324689 -70419
256 317482 625446
257 314577 541750
258 110881 580219
259 199781 117188
260 355313 4093
261 308029 -35765
262 382096 642961
263 299245 598606
264 408351 713009
265 400373 55049
266 178951 -39427
267 359042 666272
268 324235 635355
269 246100 654070
270 407093 574036
271 381654 744101
272 581545 811938
273 317334 654614
274 286099 -68093
275 293239 676519
276 338177 -88176
277 274015 507096
278 373379 718732
279 381620 -403
280 410385 164310
281 265291 45915
282 393784 617078
283 310589 43245
284 311617 603389
285 343173 634194
286 425737 652617
287 233938 125105
288 369483 749853
289 280503 63972
290 197842 566145
291 219592 626700
292 459902 638338
293 433168 757189
294 270318 554395
295 267014 565176
296 218134 -29106
297 386462 -10783
298 205749 525198
299 341060 80961
300 277199 147081
