NAME : portcgen-900-910
COMMENT : portcgen N=900, seed=910
TYPE : TSP
DIMENSION : 900
EDGE_WEIGHT_TYPE : EUC_2D
NODE_COORD_SECTION
1 79809 462484
2 748833 395464
3 1006326 913957
4 355770 526074
5 356646 634693
6 721460 485559
7 480274 299592
8 481069 336056
9 642596 972977
10 965101 945572
11 526132 338516
12 508408 252059
13 487955 281396
14 785659 483626
15 707492 500994
16 27785 494273
17 430374 287807
18 178583 377470
19 -28615 207943
20 13452 563659
21 770871 454554
22 772219 419938
23 -20359 274088
24 680583 440415
25 392871 575910
26 22687 203324
27 763196 442342
28 435699 362485
29 483373 377237
30 79515 504453
31 511352 271568
32 -17434 152033
33 398960 557253
34 716969 401702
35 72089 569677
36 477320 229469
37 1006865 949646
38 135889 311916
39 691543 441542
40 648451 965826
41 766947 512559
42 706920 489390
43 713629 945197
44 460089 292456
45 77147 521537
46 673065 463081
47 942644 914180
48 171012 354619
49 741183 494067
50 655845 1041918
51 64267 563598
52 688948 997737
53 124978 471745
54 39769 537201
55 467431 409032
56 487886 222232
57 18820 513341
58 929275 955155
59 974130 887162
60 393350 562438
61 -5864 231515
62 288575 559110
63 649986 961421
64 453341 561472
65 346805 533290
66 10146 206205
67 388755 231460
68 26966 565947
69 790650 435791
70 7309 547190
71 985784 957838
72 118745 354070
73 648626 1029428
74 56031 188466
75 138402 319515
76 909657 938236
77 952080 919919
78 520778 352310
79 45367 545741
80 936576 872337
81 938378 917550
82 152083 285766
83 939817 861144
84 390171 585268
85 62655 520996
86 688438 950899
87 432990 354553
88 503330 356933
89 486561 342134
90 416926 374528
91 918436 965065
92 624454 951487
93 28481 209242
94 496743 272723
95 672486 1015728
96 30297 233581
97 137292 301838
98 494189 272794
99 679971 928401
100 684963 937174
101 271976 606496
102 3876 165893
103 946302 934745
104 471989 311900
105 677566 1006714
106 664149 1005235
107 68182 574327
108 73682 538252
109 462644 235226
110 500645 305938
111 513161 253147
112 394785 315158
113 721922 425685
114 465850 268150
115 693737 965951
116 50093 227514
117 779554 482810
118 409249 389107
119 112971 400508
120 704556 935189
121 752097 454048
122 -15419 219684
123 713506 453562
124 685957 930536
125 481259 239456
126 358292 523497
127 388452 555241
128 712273 968798
129 27546 479970
130 23189 198743
131 786996 392029
132 991276 935343
133 455104 251613
134 155831 292268
135 488939 256227
136 -16881 209356
137 458903 397716
138 994435 945809
139 347326 583906
140 368231 553730
141 5709 225584
142 634936 927007
143 666426 403929
144 -49421 219622
145 703751 417157
146 929583 901539
147 500299 408338
148 688820 1000876
149 157468 340131
150 442247 364075
151 463340 296999
152 -7945 165251
153 653177 967661
154 451172 232850
155 647743 968342
156 415190 256124
157 304876 585981
158 363496 599161
159 958908 937251
160 395236 558258
161 27485 212703
162 662161 915534
163 952417 855178
164 28880 246098
165 75737 517452
166 493400 322352
167 73051 523108
168 717254 501019
169 197761 330242
170 90653 543386
171 791175 411341
172 519616 222324
173 132573 312296
174 788082 475091
175 465732 247399
176 966953 936419
177 123626 362337
178 411064 565718
179 449596 384368
180 424977 320197
181 654659 992164
182 712306 466964
183 987341 937327
184 475150 361047
185 173245 348522
186 138557 397788
187 59818 535297
188 953882 915673
189 663254 501536
190 428922 351124
191 444105 335759
192 63166 504759
193 712605 988201
194 977743 900300
195 432324 519099
196 668262 1011787
197 590877 944754
198 705075 435361
199 45997 270096
200 711693 408382
201 176306 291309
202 688854 998157
203 370410 591347
204 94957 348758
205 30751 229037
206 929916 935253
207 653045 1024204
208 616424 967959
209 60888 251996
210 337497 585374
211 59476 210594
212 500065 244716
213 441385 311535
214 514690 267897
215 404568 574961
216 660824 1005209
217 176432 272056
218 722107 463685
219 384010 570076
220 344790 537193
221 26959 490442
222 391868 507100
223 426495 342389
224 -16888 205991
225 456690 381975
226 81316 491064
227 935522 974396
228 951321 944213
229 45488 511192
230 194058 332950
231 475803 275711
232 453926 259244
233 470108 348300
234 681911 404911
235 765375 458710
236 77061 297148
237 709346 485597
238 483628 358393
239 30017 203213
240 423796 219791
241 626658 930133
242 78690 508227
243 495034 346767
244 359236 540005
245 896298 946560
246 349334 588605
247 638862 994708
248 699992 992956
249 959044 911326
250 793242 426493
251 708779 957053
252 465516 244470
253 390278 611302
254 415908 509645
255 1002325 939421
256 420661 318399
257 480065 251409
258 385005 521634
259 144373 273576
260 67273 223395
261 75722 488480
262 465832 296708
263 1000097 919327
264 60261 457491
265 455065 532011
266 1022228 928810
267 482003 365359
268 174149 327910
269 454010 380244
270 715632 494183
271 756012 444798
272 73243 329080
273 85702 206826
274 124442 322836
275 976743 970676
276 519435 247323
277 551123 301017
278 478538 279450
279 65728 563103
280 758187 445734
281 128155 332134
282 66911 484702
283 973680 955204
284 434491 401041
285 945808 919546
286 152372 328532
287 447883 397969
288 112899 411395
289 737368 456218
290 448538 289585
291 473528 332915
292 481224 317954
293 746779 467800
294 525832 345079
295 369978 535477
296 50786 487206
297 977276 948484
298 685893 484056
299 384217 490058
300 97840 367901
301 402647 397501
302 194912 324138
303 16034 273287
304 395199 356557
305 51181 523514
306 454943 312085
307 78085 210498
308 125957 289779
309 129273 511114
310 356658 524819
311 468361 355275
312 445322 327154
313 148207 306862
314 20435 192239
315 83899 315063
316 947144 957161
317 186768 289903
318 963643 936639
319 645731 989542
320 730092 458456
321 123674 493646
322 101865 539534
323 149220 360752
324 730794 459078
325 1009861 907372
326 506829 377532
327 37767 514947
328 -29775 277403
329 680414 977723
330 11330 504112
331 46866 499085
332 470028 261555
333 780700 401551
334 938044 956963
335 142637 311120
336 372295 514007
337 349330 573465
338 56012 567022
339 193376 335636
340 704847 980201
341 510395 311707
342 933240 913345
343 764076 388711
344 6978 513789
345 339319 566408
346 441515 295382
347 27240 271079
348 77489 455352
349 770034 464371
350 366587 549545
351 47918 219805
352 47686 542336
353 33879 220645
354 472067 268837
355 753591 486114
356 447530 315843
357 -50439 277233
358 714170 989547
359 105914 350358
360 34753 238777
361 79648 548131
362 491304 240810
363 492550 263361
364 908563 918068
365 633292 1004957
366 57638 510495
367 498380 257188
368 155375 348882
369 165073 362648
370 690918 476203
371 502270 226190
372 91548 521132
373 351176 541972
374 163262 279044
375 426880 353130
376 -15098 248769
377 -29704 221574
378 743295 382998
379 68801 491279
380 200310 304261
381 500535 333584
382 657821 1011857
383 716958 978734
384 147376 320089
385 388338 533930
386 524018 282245
387 137580 348641
388 675391 965297
389 44387 206816
390 474329 322585
391 73645 245551
392 43596 201183
393 755864 434057
394 79005 508970
395 428601 345199
396 108687 532185
397 499693 341388
398 164553 309536
399 478557 373445
400 131888 337001
401 474635 360288
402 490866 319980
403 113818 327541
404 146735 323091
405 449254 350267
406 438753 557400
407 58263 236145
408 950127 936696
409 644176 994229
410 520789 343498
411 414901 325432
412 632598 1013680
413 416796 528456
414 31504 529273
415 446624 319367
416 963120 944128
417 405916 522722
418 662392 921281
419 750364 475159
420 436122 395505
421 26358 224313
422 957344 938338
423 159901 360828
424 478290 300120
425 761702 420354
426 30922 223071
427 739886 497675
428 706243 423443
429 958026 972275
430 10756 174998
431 75026 495922
432 20937 251411
433 170665 311627
434 686124 497771
435 752385 399065
436 59704 254219
437 726549 393020
438 964142 848118
439 113976 541889
440 616449 999663
441 373283 601819
442 175604 294771
443 24059 277131
444 929573 971286
445 179166 364205
446 686015 1006864
447 114549 295945
448 478075 335839
449 519152 310576
450 481085 365431
451 432578 406735
452 538395 377332
453 164299 301348
454 752618 478211
455 63435 512693
456 653411 951000
457 454351 291105
458 93705 337484
459 14900 171316
460 669028 928434
461 107974 285094
462 495965 276697
463 112964 551090
464 13119 178008
465 397666 275905
466 997326 940509
467 30873 247685
468 763394 465063
469 379904 309522
470 81111 512231
471 758558 951871
472 998171 969667
473 441882 374453
474 775005 500475
475 958170 900759
476 968847 910174
477 456798 612426
478 631349 945061
479 191883 333759
480 391835 569116
481 764268 481025
482 949613 946778
483 397003 573873
484 391889 575185
485 -36586 241944
486 672965 1009998
487 64090 509682
488 477798 407100
489 80771 479171
490 676849 1026607
491 64868 364974
492 367920 567593
493 157957 326608
494 666036 973090
495 361012 537571
496 123334 311217
497 155828 342150
498 734918 429641
499 655841 936284
500 107116 498754
501 973622 888677
502 514670 272503
503 800475 459534
504 116765 340715
505 131530 254589
506 473681 227656
507 -9243 211782
508 508370 366000
509 992091 979306
510 464171 346256
511 755595 474288
512 468163 345834
513 461302 292190
514 45508 495364
515 448277 248655
516 1006688 941208
517 476253 247837
518 780745 456058
519 716638 443203
520 441952 327326
521 412860 360497
522 454692 254381
523 -1377 519747
524 492009 249126
525 29982 246357
526 756308 420597
527 64185 492328
528 662398 973612
529 672612 939326
530 74872 506447
531 46585 545221
532 715987 448869
533 412317 251464
534 503278 357339
535 428885 232333
536 363006 576180
537 470063 206615
538 7490 258367
539 411311 521852
540 717991 988403
541 638069 934099
542 795155 483414
543 629036 954011
544 629303 972945
545 -36637 201852
546 129124 333747
547 633780 971869
548 494056 304865
549 145471 347692
550 79401 545597
551 683670 941475
552 807643 472782
553 498384 423191
554 141011 264558
555 2187 217773
556 392296 578620
557 960045 960521
558 8998 199500
559 903753 961537
560 481255 311507
561 155314 374198
562 122110 348208
563 156162 348684
564 776783 409955
565 140897 249345
566 944424 930650
567 328554 596087
568 395100 563685
569 332048 546468
570 723501 438677
571 513750 309473
572 949373 933168
573 455962 407325
574 494159 231342
575 476533 334416
576 986964 933399
577 322411 545640
578 703983 972996
579 -21343 198406
580 22766 455287
581 687184 455832
582 944201 950412
583 500135 262270
584 626210 968641
585 969802 948720
586 919597 928325
587 722486 980223
588 646256 957762
589 751973 561233
590 343081 537161
591 89363 364546
592 443045 259435
593 159505 328495
594 177354 305262
595 212378 366357
596 518983 270082
597 638393 956472
598 325960 557822
599 689856 989457
600 369069 513393
601 954564 943697
602 746749 989967
603 492397 292132
604 654269 1056178
605 307469 598138
606 170563 322977
607 1010336 916166
608 133098 355708
609 519416 242140
610 545083 282274
611 780528 502301
612 943440 879976
613 520211 322546
614 766895 380760
615 350871 576407
616 659395 956791
617 134916 298340
618 433918 335733
619 537814 257021
620 927902 971813
621 34607 516430
622 1014786 932949
623 724656 971001
624 761724 411131
625 78572 453019
626 666656 997566
627 -18090 257593
628 26053 456997
629 473399 278384
630 718996 539475
631 635870 944869
632 687181 963134
633 424466 390293
634 129955 321751
635 475089 387243
636 44041 482192
637 359559 550505
638 69771 444252
639 965353 939690
640 425316 566729
641 736229 412456
642 381547 554214
643 120033 517915
644 417302 503074
645 374991 554179
646 360651 568289
647 465231 347220
648 110152 320699
649 967365 895287
650 466646 302085
651 653688 1020825
652 117067 361360
653 565348 353719
654 350021 558102
655 189180 359323
656 143125 371902
657 431148 274599
658 149879 356339
659 36406 484547
660 17360 535278
661 634628 1029126
662 745480 476614
663 693507 442640
664 694973 414545
665 683050 958991
666 981669 956368
667 432029 346159
668 641796 997363
669 59120 483367
670 133720 409013
671 657929 985107
672 647718 977178
673 770155 434220
674 421285 560046
675 1004302 959994
676 656012 978384
677 28443 224027
678 579866 947973
679 132323 387746
680 647638 934385
681 466497 318695
682 157304 372825
683 64635 482279
684 434271 394041
685 504677 385574
686 62126 512117
687 11839 229090
688 689711 462521
689 701921 455574
690 610898 959933
691 115763 300168
692 17401 251980
693 955086 913570
694 912321 944613
695 116503 346557
696 30884 241692
697 470838 398069
698 425020 200184
699 345045 593813
700 322216 535853
701 945862 896934
702 -7486 182453
703 202310 335883
704 957489 1012478
705 147158 305378
706 156188 352274
707 115846 523965
708 51644 235040
709 724587 442703
710 947819 875586
711 772106 451223
712 422722 369384
713 709639 968942
714 493347 256213
715 57633 512621
716 711712 466531
717 129771 375105
718 521439 248917
719 440442 514709
720 42097 480271
721 653319 942016
722 50318 228933
723 763413 509608
724 81219 571538
725 445930 377395
726 34339 219368
727 483871 308967
728 479150 330795
729 178588 288059
730 493679 269308
731 409708 530280
732 359221 510519
733 433156 275317
734 152252 397108
735 12127 493292
736 700801 977006
737 963191 1002759
738 384054 604932
739 941640 900722
740 72335 250215
741 178648 365430
742 416779 598755
743 457244 262019
744 357796 564206
745 37099 195146
746 1046930 905376
747 489940 245438
748 40935 219045
749 -39493 189590
750 130115 256736
751 765487 452385
752 682701 945982
753 386082 551401
754 104288 506605
755 341725 586928
756 90343 308454
757 149374 517051
758 506036 239987
759 770076 463874
760 716104 445743
761 126006 364717
762 123973 385883
763 61093 526488
764 490134 325204
765 366763 551260
766 221497 355709
767 730688 447266
768 908943 934679
769 50661 512790
770 418343 553321
771 407213 236746
772 57431 264776
773 687808 437516
774 693578 962990
775 630603 937039
776 675134 461502
777 91478 449582
778 644945 976920
779 166175 342513
780 957306 863659
781 713670 492659
782 959217 919743
783 103228 499056
784 155240 348975
785 -407 144197
786 700523 496542
787 496136 330595
788 411814 549307
789 42471 500652
790 73533 523466
791 136227 434694
792 86098 325320
793 700806 435406
794 446519 284960
795 33863 495642
796 419874 368846
797 5278 528495
798 442702 338367
799 365653 572557
800 877059 987447
801 677757 961142
802 11130 542029
803 113324 325825
804 783491 433997
805 962346 952595
806 188199 377922
807 432686 499002
808 77147 519201
809 1000532 948027
810 358670 585616
811 107401 559355
812 31183 241202
813 434736 374136
814 808328 435944
815 62685 488668
816 390847 585990
817 25782 228684
818 50920 240761
819 435258 337033
820 710536 440257
821 707777 974739
822 425627 521675
823 631200 943527
824 513133 295480
825 950580 1007664
826 34818 233193
827 55435 578985
828 757689 510617
829 54337 519218
830 979830 975171
831 986387 940360
832 438140 328393
833 731640 457532
834 128371 303235
835 481339 396785
836 418927 345889
837 704615 414308
838 805228 466974
839 472779 316155
840 391869 258114
841 538369 387642
842 497566 301795
843 461199 342203
844 -1831 204486
845 447857 506083
846 62321 469253
847 651893 934142
848 731020 959899
849 451658 359398
850 928851 955713
851 418320 342502
852 49071 208991
853 70839 560378
854 459953 232279
855 665797 953273
856 110952 520156
857 415708 374030
858 702664 956175
859 478853 316596
860 545835 264256
861 57910 587626
862 -25417 169148
863 662297 933702
864 715829 489007
865 92918 486201
866 429672 333663
867 534964 384964
868 960976 954492
869 37713 563527
870 441877 259861
871 683946 477578
872 355429 508017
873 663859 977511
874 45965 549852
875 421791 328176
876 84269 520123
877 108971 283074
878 949715 894077
879 21786 481514
880 393674 617614
881 414688 588740
882 494151 320737
883 449333 267987
884 404151 582289
885 501732 358230
886 963949 914331
887 380222 565429
888 148543 354788
889 970843 934523
890 -21895 218951
891 107049 300457
892 25621 590327
893 416676 378216
894 21723 521175
895 184760 344240
896 765165 508075
897 135360 327077
898 630275 1049691
899 373850 604663
900 48084 184665
