NAME : portcgen-1100-1109
COMMENT : portcgen N=1100, seed=1109
TYPE : TSP
DIMENSION : 1100
EDGE_WEIGHT_TYPE : EUC_2D
NODE_COORD_SECTION
1 126357 221146
2 100767 232169
3 108617 178860
4 224266 502036
5 56792 225064
6 496595 349185
7 510213 340327
8 76641 227334
9 278431 740717
10 313125 78663
11 287518 511117
12 161731 535635
13 713789 247074
14 774042 179463
15 195455 484775
16 740670 255041
17 284864 120702
18 536200 274365
19 214761 172862
20 249371 734538
21 247839 140101
22 166027 13116
23 330003 762799
24 572643 431556
25 602789 460028
26 752500 224854
27 351705 716201
28 566529 463583
29 732553 197861
30 327178 750782
31 314242 112736
32 342694 698295
33 362736 708399
34 24309 197763
35 243110 177126
36 681991 246706
37 793440 198640
38 221893 183565
39 265158 726802
40 117694 39941
41 67382 348535
42 142906 -40877
43 223231 495551
44 97751 -21809
45 114383 207971
46 541376 362109
47 141529 220803
48 730167 193462
49 321072 703365
50 615721 505446
51 456990 422397
52 99723 194392
53 494147 407897
54 539918 353241
55 722939 226997
56 293221 675004
57 286020 693271
58 331317 727067
59 126717 364671
60 263895 482630
61 602438 469363
62 92681 215007
63 129183 30267
64 88687 -17943
65 488382 354254
66 365502 753009
67 65787 359552
68 235461 145632
69 52456 348440
70 446936 378814
71 423857 751508
72 95874 379541
73 687141 292489
74 501565 319490
75 135237 7595
76 219563 535108
77 291101 779277
78 595554 515418
79 92966 -16339
80 311131 707926
81 283584 698860
82 180640 47285
83 282587 187313
84 311795 699077
85 177679 530410
86 108715 363172
87 107062 189658
88 263666 718303
89 153954 167097
90 259141 727374
91 293224 776403
92 42183 313445
93 286078 768898
94 220968 718340
95 282290 168838
96 283159 166545
97 340308 745399
98 80142 297222
99 273617 126768
100 236603 760957
101 77933 233003
102 102496 234391
103 129904 -394
104 105837 190629
105 257028 159597
106 316200 713843
107 307385 659719
108 102397 315495
109 188691 30911
110 86805 391100
111 322192 732016
112 614746 487524
113 81693 337285
114 32634 350076
115 260120 100934
116 380202 770702
117 49468 405117
118 297528 707406
119 731989 185466
120 84863 203382
121 770115 194946
122 258010 125657
123 338052 717690
124 520987 377193
125 510793 426359
126 290637 735378
127 135547 38386
128 248102 551904
129 261749 482836
130 296792 786872
131 486954 376404
132 158641 189841
133 301739 772696
134 53411 400449
135 631883 536171
136 280126 769363
137 139317 -2332
138 260080 731652
139 35578 266885
140 83132 339955
141 295344 739555
142 346600 732785
143 101605 396197
144 744479 268755
145 128086 38824
146 755313 214135
147 218598 690374
148 100567 223150
149 287236 712800
150 340462 708301
151 251325 795142
152 339348 84001
153 117786 230636
154 94451 260692
155 129087 6348
156 190933 15529
157 351397 779064
158 245890 504268
159 63636 340430
160 494363 399489
161 582160 478398
162 604529 539209
163 134622 -32571
164 791402 206577
165 480887 382695
166 616212 496233
167 152884 10696
168 113471 409242
169 309444 735023
170 558018 362800
171 394260 713727
172 215528 508685
173 228379 99659
174 301404 711060
175 739941 222704
176 620852 499232
177 238190 756737
178 359384 811808
179 772451 205391
180 238619 126569
181 585741 467941
182 59464 404963
183 568837 448912
184 159138 528829
185 279608 692218
186 557195 370932
187 260565 457782
188 303699 197938
189 129143 53434
190 760066 203249
191 180049 515476
192 735641 187469
193 248503 714535
194 129038 31274
195 520277 343946
196 520237 378641
197 797093 212160
198 230945 163633
199 464911 405436
200 748406 232909
201 415633 406380
202 228830 457372
203 221471 545828
204 272364 729846
205 257106 129905
206 735653 204750
207 525647 520547
208 355174 717139
209 254487 139586
210 264264 210677
211 118343 904
212 53323 26678
213 309408 782972
214 54894 343454
215 495475 493300
216 471394 341970
217 743716 235771
218 85244 16214
219 282098 673480
220 288065 713280
221 61444 414179
222 105881 385579
223 432671 334705
224 336196 725598
225 497395 397976
226 326073 697475
227 65999 307313
228 717758 194742
229 271984 781750
230 538042 406000
231 357674 705287
232 320685 753789
233 475887 374559
234 128575 68260
235 139550 203951
236 233536 133481
237 597573 494264
238 457545 392190
239 151888 12123
240 188221 520308
241 608487 464805
242 92379 189576
243 212037 748748
244 94241 15964
245 58699 195392
246 512524 432997
247 200567 493856
248 120642 5665
249 121955 206668
250 43950 342241
251 488043 389928
252 151352 6730
253 294898 811933
254 218593 492418
255 539874 504277
256 107729 353791
257 298791 757397
258 584962 519781
259 765169 198511
260 55851 373561
261 566304 517614
262 183897 16342
263 156943 5811
264 681078 250390
265 258128 790757
266 328488 748594
267 445006 404154
268 483032 346240
269 350447 668392
270 258102 780116
271 716379 188671
272 264168 788005
273 431012 327229
274 267980 174955
275 276830 535878
276 510207 355661
277 256570 749680
278 119844 376837
279 283860 157616
280 84387 208692
281 344079 747609
282 474855 352785
283 231446 720955
284 41061 348000
285 574479 456779
286 569449 508021
287 535065 391031
288 91596 247872
289 416755 349375
290 735229 231790
291 782865 198730
292 138787 -61020
293 580077 529670
294 353766 726817
295 201245 476185
296 108986 177861
297 132002 523331
298 557147 472903
299 268832 116987
300 85271 235050
301 58086 -9229
302 300875 736515
303 293916 135906
304 753366 180816
305 284626 823098
306 217389 524343
307 571252 506059
308 319404 698998
309 317713 699650
310 80663 224552
311 724514 207558
312 292211 706041
313 716742 228330
314 210628 466233
315 272823 744657
316 101773 287375
317 751512 242888
318 332588 771707
319 588504 498260
320 58695 350740
321 295322 726979
322 141047 -25745
323 43978 354230
324 465834 359440
325 531888 364366
326 213155 477992
327 609060 520584
328 600340 491653
329 268662 734278
330 211168 543057
331 364569 712240
332 259046 776047
333 475828 394188
334 247993 119209
335 716405 257140
336 488144 397587
337 150574 496086
338 332824 737115
339 284762 663324
340 105919 266787
341 568165 524748
342 263282 131097
343 117843 231690
344 159434 49672
345 337077 738096
346 103572 386350
347 286281 796585
348 590267 488380
349 198555 135810
350 39292 351024
351 573956 494169
352 300402 499366
353 291636 762897
354 285335 764795
355 271849 138089
356 188940 519857
357 709563 268776
358 388013 732687
359 193704 54481
360 321164 756151
361 124510 233844
362 582636 524689
363 39099 345624
364 89927 422831
365 752647 199696
366 226548 501778
367 725878 189898
368 197934 448144
369 394616 712533
370 223086 532093
371 342888 740280
372 255572 192532
373 168759 77137
374 97513 407362
375 356606 690203
376 66351 197584
377 749124 148949
378 272818 737535
379 142108 9313
380 228599 465670
381 134874 25985
382 646053 497873
383 130634 233900
384 290564 804507
385 112569 40406
386 362428 720400
387 198754 778757
388 228692 168987
389 257235 766628
390 332160 747304
391 86132 409537
392 110281 269911
393 785900 205907
394 265968 157882
395 554361 471667
396 282890 713846
397 243202 204760
398 450477 343844
399 150826 21246
400 434841 413478
401 275622 167189
402 301171 762766
403 218169 498358
404 310161 775331
405 462132 358687
406 324950 726405
407 165262 28861
408 153841 519485
409 225897 174822
410 706604 241631
411 286805 133888
412 118457 218565
413 66542 400651
414 310786 137095
415 291950 731495
416 241599 659410
417 172179 2547
418 587162 507840
419 497134 367622
420 302233 80144
421 99246 358078
422 245243 532672
423 484827 388845
424 117715 204336
425 134401 58592
426 468309 367100
427 718195 200099
428 748992 209925
429 521173 376532
430 475778 413479
431 611401 468215
432 280037 673581
433 321200 753600
434 283915 682697
435 265366 502754
436 256425 735091
437 431844 716308
438 177111 495119
439 160584 9071
440 161198 343486
441 813153 222365
442 276466 723648
443 730753 238727
444 230702 487043
445 335689 716460
446 61717 342497
447 285483 537463
448 751395 233032
449 179889 44219
450 469868 386270
451 477033 406428
452 237853 514755
453 268240 738704
454 97600 248311
455 479543 352787
456 149390 30256
457 730920 229989
458 457807 339154
459 605013 489494
460 228408 523918
461 264014 676017
462 200516 477288
463 151764 37795
464 163026 465705
465 570881 497305
466 97794 8988
467 640386 476997
468 618676 518135
469 82387 447736
470 357037 707255
471 762378 198012
472 282626 733527
473 359753 786156
474 763293 228473
475 552609 509624
476 682665 222227
477 306963 74709
478 558631 459418
479 529182 333638
480 78735 40786
481 229346 463249
482 308670 161302
483 761240 186253
484 79660 394630
485 90170 8568
486 366646 731565
487 309718 781660
488 456139 369529
489 71306 231801
490 419943 373192
491 583927 523691
492 597149 513951
493 244292 169634
494 191521 494532
495 246872 125226
496 109592 264912
497 313448 669241
498 100601 219636
499 280936 106171
500 385078 767928
501 573520 487632
502 485189 425173
503 273373 130831
504 146046 21009
505 277518 708989
506 363305 735147
507 443531 391365
508 274724 768535
509 279698 711809
510 50722 362981
511 553567 472924
512 244377 773015
513 222987 413998
514 762756 247253
515 345362 636514
516 230024 778716
517 474801 386626
518 756083 201975
519 622959 516284
520 383078 760519
521 480636 399314
522 582446 536560
523 324343 704616
524 580704 462366
525 348462 764968
526 115856 325482
527 213997 763119
528 60450 383254
529 300625 693397
530 276912 660743
531 231651 472228
532 264135 133127
533 122370 338526
534 353836 711878
535 113302 370779
536 309127 701172
537 266177 744606
538 417206 424479
539 608593 543967
540 625562 547931
541 164459 39873
542 587787 431392
543 122093 56297
544 247138 157342
545 735163 234453
546 335663 737367
547 55387 235312
548 504839 352838
549 513795 348379
550 616235 528407
551 240693 738098
552 158205 16996
553 148970 70077
554 242560 154054
555 446070 408720
556 119878 206529
557 328076 767345
558 488735 423616
559 595545 486819
560 335168 744366
561 304397 716449
562 297598 738022
563 568993 502889
564 220985 4545
565 358917 763298
566 215167 143079
567 80964 193616
568 152327 -12696
569 736285 189127
570 347196 745015
571 121676 398253
572 191986 481965
573 285263 759645
574 329136 735611
575 265281 77622
576 737660 205479
577 493272 336022
578 600871 524401
579 217550 492066
580 341706 762007
581 137311 349237
582 172994 -28058
583 306853 746817
584 62541 214329
585 262375 744567
586 279263 748304
587 348728 716543
588 202032 82692
589 172230 4249
590 756940 205747
591 227350 93625
592 121647 50399
593 112314 394792
594 588278 474751
595 243572 799082
596 157079 47601
597 120520 47867
598 87992 175160
599 247910 715567
600 197812 484053
601 650163 454762
602 285114 736537
603 61170 387807
604 303425 181050
605 576270 489053
606 274323 484195
607 227046 762354
608 497149 393016
609 585767 440052
610 237455 497218
611 226202 459800
612 106658 25780
613 541531 488824
614 359951 718073
615 89115 400524
616 282195 133009
617 257804 173102
618 211320 522424
619 261319 135016
620 303437 773202
621 294280 682945
622 433058 358907
623 20385 391415
624 233270 797597
625 119820 222759
626 561769 494136
627 531471 362439
628 320962 757812
629 316051 771555
630 617851 513658
631 245613 771032
632 482792 345531
633 264238 97675
634 90388 362218
635 296737 689218
636 568677 520005
637 283793 726929
638 142067 211034
639 279630 696119
640 223482 169135
641 224087 492088
642 118233 395739
643 329371 747519
644 355664 760496
645 492805 330223
646 223972 145965
647 470078 363096
648 120148 352304
649 346157 713099
650 736242 187683
651 512610 353941
652 823715 182963
653 335991 738746
654 818035 199528
655 258950 107406
656 240822 166676
657 281914 787550
658 191500 460790
659 298484 171625
660 97854 348517
661 97142 56442
662 602483 505481
663 100973 230893
664 235677 750533
665 273056 698021
666 701484 218385
667 122798 50310
668 227814 464366
669 761924 184973
670 294023 694435
671 320830 738730
672 47127 250310
673 763693 216771
674 495987 317297
675 749684 250477
676 240955 464628
677 135475 2937
678 259552 710771
679 315748 84194
680 480443 394701
681 72772 165360
682 280041 148834
683 305828 133348
684 219316 522013
685 180003 521812
686 101776 37910
687 62583 279951
688 244581 734665
689 265596 117961
690 553069 391805
691 730039 171638
692 111767 309608
693 478862 372212
694 730407 269234
695 96516 280730
696 68063 161787
697 125671 475289
698 512155 498833
699 744175 204024
700 426805 363345
701 81698 248309
702 163826 37306
703 232056 718602
704 197664 126987
705 312155 711768
706 596016 500572
707 95892 222236
708 789789 259284
709 507488 412606
710 772358 199878
711 297443 63406
712 207602 485070
713 475023 371061
714 156107 40560
715 329110 721558
716 329874 776926
717 335640 722959
718 494159 433142
719 37511 426703
720 108777 19176
721 777733 234788
722 28682 288403
723 201643 455013
724 220840 486367
725 272571 718878
726 625665 473078
727 501186 377433
728 489821 317107
729 245163 488177
730 301582 744866
731 477602 327130
732 696696 206039
733 81581 344708
734 263213 744404
735 286690 751924
736 115862 -1407
737 134656 13190
738 88719 176198
739 284429 553553
740 285689 720012
741 309603 125057
742 66958 383126
743 301045 719652
744 524701 508759
745 207296 510145
746 71279 396058
747 287990 722101
748 741301 210657
749 122488 69668
750 400700 711554
751 255864 137458
752 495659 366835
753 432539 347406
754 140769 -20788
755 164994 -17261
756 94168 224425
757 246308 715329
758 266932 805108
759 812553 197248
760 99284 363099
761 272641 704241
762 210431 482969
763 585048 465748
764 352750 741304
765 235960 503974
766 226811 516321
767 85056 28128
768 230221 501757
769 73647 346921
770 642436 507026
771 279532 686704
772 126587 50630
773 202617 545301
774 340158 738021
775 243537 464018
776 274171 735082
777 220007 153639
778 202919 540674
779 312159 680271
780 519544 430612
781 264819 479668
782 280537 161928
783 41346 365140
784 109660 74589
785 224490 526520
786 602680 490389
787 589584 526672
788 88367 201215
789 298483 170106
790 736136 223952
791 270527 697416
792 312111 735187
793 183966 477428
794 304784 658090
795 597404 512447
796 240903 725011
797 316870 782855
798 302119 693162
799 359852 710870
800 471094 398891
801 149783 64447
802 741618 175242
803 248783 174247
804 156052 3022
805 238210 126182
806 254813 664377
807 208631 489011
808 505129 352271
809 231447 757460
810 279334 146882
811 237049 98111
812 451478 368902
813 254249 517698
814 558157 497108
815 600907 521935
816 77694 335117
817 758730 174518
818 179078 73476
819 487056 352594
820 156342 5476
821 263501 127789
822 358671 786980
823 549423 536442
824 98827 238169
825 316864 790668
826 271772 734685
827 397426 722061
828 69424 372970
829 86346 199724
830 616566 500598
831 301519 701086
832 246881 725645
833 254432 735292
834 708131 167093
835 73744 175121
836 312489 745211
837 230395 791060
838 255125 753893
839 252980 715445
840 465150 338985
841 94976 245313
842 500507 341848
843 262550 732696
844 265454 152790
845 301763 685609
846 370711 734808
847 748996 226642
848 262679 168193
849 87187 201737
850 238870 146812
851 261407 194079
852 484261 321719
853 107356 224837
854 459647 340115
855 500334 372452
856 119269 16231
857 224044 498682
858 695042 210708
859 761804 201659
860 819714 218188
861 765829 245600
862 669497 486228
863 73451 164993
864 730090 216088
865 307630 731082
866 96628 387156
867 663935 519571
868 171253 54345
869 317807 724955
870 271672 759632
871 260882 109937
872 305485 780410
873 293675 651126
874 78697 379601
875 185715 105764
876 609978 509806
877 251460 149068
878 218685 475771
879 259174 74135
880 327476 701222
881 430958 366155
882 204829 516015
883 279807 778436
884 59805 379167
885 694506 186941
886 504908 336918
887 333919 729356
888 349653 755526
889 339974 695569
890 89208 22222
891 583686 458675
892 628180 532784
893 517962 336141
894 139695 -19028
895 373500 820182
896 240112 483833
897 274448 111432
898 602866 529978
899 564174 490865
900 345392 738901
901 106923 228065
902 137641 194353
903 268919 836669
904 57591 196164
905 626669 458365
906 196117 424289
907 763592 184964
908 308956 122287
909 308990 133041
910 98827 200367
911 160269 269783
912 338356 725744
913 533242 433909
914 67794 223234
915 134557 172582
916 316791 776473
917 88221 251855
918 272522 696986
919 285378 135178
920 104628 203793
921 287522 698235
922 754657 257950
923 513384 380582
924 127920 -10556
925 40158 222796
926 464948 387975
927 275816 130843
928 477109 393231
929 305284 130694
930 75753 225018
931 704689 215195
932 295911 636130
933 237794 150319
934 158133 31103
935 209264 516743
936 328695 843436
937 568399 499000
938 87401 231273
939 598973 518210
940 738085 176049
941 759183 185935
942 198779 449916
943 136888 34357
944 742878 192009
945 89515 189364
946 210126 128068
947 53167 187639
948 290676 767243
949 304779 188983
950 110353 156923
951 763336 265432
952 67066 222084
953 170261 508303
954 39958 385983
955 264751 743455
956 226710 453157
957 95255 347414
958 609735 489853
959 333426 723064
960 158361 477885
961 237105 757947
962 554604 499987
963 149446 17995
964 310739 698498
965 228715 745636
966 351590 723618
967 535083 427444
968 431082 340129
969 269534 160960
970 303789 766545
971 314726 702362
972 235389 114136
973 320097 806429
974 746772 219903
975 261483 112974
976 79250 387559
977 310214 777142
978 67719 224011
979 214832 504813
980 248542 77243
981 470356 288111
982 751864 199289
983 629068 535362
984 607818 520239
985 260451 157298
986 391572 706630
987 310508 723856
988 522603 368394
989 135556 368288
990 467655 377943
991 203707 529088
992 235574 149495
993 64332 23454
994 467036 434531
995 569446 513501
996 83466 249627
997 780443 252845
998 167432 45700
999 145293 36756
1000 738381 226273
1001 266278 162539
1002 270860 140385
1003 305280 702335
1004 750976 244947
1005 439062 408517
1006 265565 718225
1007 70048 418135
1008 107019 31309
1009 286152 686829
1010 162859 91342
1011 269465 829948
1012 138098 28365
1013 520657 521280
1014 177792 574811
1015 599975 472774
1016 42421 288723
1017 97136 396717
1018 210464 448114
1019 96225 237953
1020 209338 476860
1021 69119 208380
1022 517529 471603
1023 344722 741369
1024 24797 366284
1025 280947 91571
1026 171394 442481
1027 516063 560136
1028 488179 352861
1029 576605 500694
1030 171842 527165
1031 708032 230654
1032 324111 700005
1033 248266 165449
1034 318381 736575
1035 572894 473202
1036 296897 737944
1037 274808 127939
1038 594093 537161
1039 86498 387956
1040 569217 494724
1041 318991 737650
1042 336513 704621
1043 586964 535174
1044 288073 746421
1045 104967 238939
1046 286406 723012
1047 106037 359985
1048 95963 229736
1049 58780 382665
1050 305637 771672
1051 176791 65280
1052 322148 778461
1053 157122 15221
1054 249119 523280
1055 450341 353934
1056 209331 151132
1057 586387 520893
1058 188194 498437
1059 302961 175689
1060 103521 375764
1061 81687 314679
1062 324981 732118
1063 764364 212207
1064 102502 220865
1065 311665 721998
1066 299614 745999
1067 91802 394795
1068 479052 424724
1069 304689 708757
1070 249889 767346
1071 161233 -2250
1072 476416 387288
1073 210255 523997
1074 341271 757235
1075 643629 515391
1076 544063 450758
1077 614732 497741
1078 761004 197896
1079 127139 242922
1080 736643 266856
1081 333248 728520
1082 484341 324700
1083 503808 366541
1084 331779 717295
1085 504961 331559
1086 86032 198096
1087 327204 771640
1088 228070 521075
1089 230375 494205
1090 52544 374266
1091 127357 218196
1092 96967 86967
1093 282084 686933
1094 349906 700657
1095 582116 476517
1096 285871 161005
1097 279962 691151
1098 212916 133389
1099 31324 376068
1100 92437 188991
