NAME : portcgen-700-706
COMMENT : portcgen N=700, seed=706
TYPE : TSP
DIMENSION : 700
EDGE_WEIGHT_TYPE : EUC_2D
NODE_COORD_SECTION
1 994707 995261
2 706091 802006
3 850375 856520
4 727245 852346
5 510197 339647
6 8176 570360
7 515348 260489
8 50878 767056
9 840257 781378
10 163319 826036
11 583267 227501
12 89907 867381
13 1016238 955299
14 754570 808960
15 993924 952411
16 475088 281716
17 23342 555809
18 742950 839672
19 913816 962687
20 777286 795721
21 520185 240130
22 670898 858085
23 589852 302411
24 808392 852245
25 843390 851530
26 678987 863068
27 1003154 932667
28 512133 318378
29 944846 931712
30 39454 484325
31 698092 832139
32 1047506 965525
33 820225 832259
34 686973 813580
35 473512 366448
36 68659 536672
37 1053404 962259
38 678694 956362
39 818564 849145
40 718056 824698
41 40724 567904
42 702076 775600
43 118182 925367
44 478024 244725
45 822549 819240
46 975379 900468
47 682961 850648
48 702478 805151
49 724170 796859
50 23975 560631
51 522553 279169
52 485808 216286
53 88426 877205
54 996691 952884
55 695144 847512
56 656269 797994
57 142995 869295
58 769315 820859
59 760479 840626
60 178297 842708
61 798289 790844
62 739222 853815
63 113878 868429
64 790428 850172
65 652635 865351
66 516976 283175
67 -49358 548790
68 790993 886998
69 73197 900907
70 20564 556868
71 1035508 1010062
72 704566 845274
73 790452 791206
74 945124 939516
75 650731 823439
76 1061238 944935
77 105260 843892
78 744765 830177
79 588333 303758
80 137209 848711
81 84272 560664
82 785850 878945
83 587390 226390
84 108725 601255
85 495773 252018
86 757761 787248
87 829541 811675
88 769238 818539
89 1030321 931362
90 664686 845935
91 492694 295182
92 148617 869197
93 758738 864800
94 98095 872410
95 1015659 944405
96 705859 870473
97 84586 900300
98 106594 806131
99 730105 845400
100 984677 898498
101 90572 789787
102 687159 886827
103 758182 859258
104 122883 841956
105 1068998 939852
106 741410 860960
107 44781 537410
108 497920 289712
109 707645 836920
110 73639 541928
111 969268 935675
112 172272 896452
113 800884 845107
114 57905 514453
115 991761 925856
116 514969 325231
117 -33934 515054
118 525870 331157
119 133057 811557
120 751922 869712
121 1028631 924388
122 1059331 878250
123 182209 873357
124 170928 902369
125 146002 843420
126 527591 280673
127 83209 871847
128 732756 843751
129 110753 843714
130 828824 769065
131 652570 842413
132 1051655 942832
133 511744 307419
134 718780 777331
135 739731 774530
136 745106 801045
137 810970 800701
138 513122 311991
139 698424 825265
140 -28859 560967
141 1003070 990268
142 689479 846058
143 737297 791891
144 795368 913800
145 697998 893727
146 452066 203156
147 777254 776636
148 96597 828680
149 702900 880048
150 643281 798451
151 1001378 942042
152 166743 853152
153 561588 294421
154 1013621 936380
155 1077047 962843
156 115394 789333
157 48371 578087
158 667911 764827
159 957340 910741
160 112381 600923
161 1084650 960438
162 1051041 1032878
163 719784 781934
164 109661 829286
165 658466 822292
166 862533 823625
167 827721 883888
168 734361 791186
169 1018341 948623
170 758798 822860
171 956414 932683
172 640445 854971
173 729596 802327
174 593492 301747
175 88757 861550
176 120113 886864
177 121069 788151
178 158743 848268
179 834511 831929
180 501269 289451
181 748202 797785
182 1015016 901487
183 716691 809253
184 757566 827442
185 800557 837075
186 1067855 960563
187 816397 839116
188 552887 221004
189 185049 921752
190 103241 887893
191 549987 293773
192 703115 809762
193 742990 798044
194 3046 571262
195 778193 820218
196 1017046 924804
197 576234 283389
198 120666 841666
199 758992 814048
200 65792 525306
201 513385 312947
202 1046805 935008
203 648025 788523
204 537333 302506
205 713336 839921
206 126286 802103
207 484778 197283
208 525382 290421
209 23250 486246
210 850691 789457
211 836702 852723
212 517677 320346
213 781781 821066
214 704712 892862
215 815932 802230
216 98950 861159
217 14645 592371
218 663796 795992
219 92699 864590
220 492151 243785
221 765387 758989
222 791272 783556
223 568980 332561
224 544926 338476
225 516440 263353
226 455581 269661
227 86807 534350
228 61838 557531
229 971138 867394
230 876702 787251
231 515683 211915
232 868462 828693
233 23774 442859
234 732409 774787
235 988038 912411
236 832127 924471
237 819359 819986
238 971600 902015
239 716852 778905
240 65804 880415
241 541934 322045
242 587682 860788
243 739417 809040
244 784266 854546
245 1025043 980049
246 999183 973931
247 175275 891651
248 1031115 961717
249 785250 834728
250 677389 764024
251 1002827 931603
252 755623 853337
253 49597 549790
254 946261 953735
255 698318 830955
256 684281 804676
257 525351 340226
258 478658 282748
259 850873 757557
260 492415 276565
261 795493 894366
262 192471 858785
263 1074806 969715
264 69488 885249
265 675254 861495
266 1014545 952160
267 177623 919871
268 4270 570712
269 690659 874728
270 711918 818354
271 798855 749900
272 11638 532659
273 102966 538060
274 763505 833861
275 32982 535073
276 91816 898029
277 691452 889806
278 762171 834979
279 740356 826056
280 969446 938376
281 -68075 549034
282 666697 850749
283 585305 317121
284 120027 899467
285 824358 871477
286 657222 864509
287 698154 779603
288 718871 825451
289 42102 554676
290 775356 782833
291 56425 887729
292 805684 832357
293 -10130 494150
294 722728 892972
295 474247 269850
296 71174 561833
297 821310 821459
298 787642 801602
299 836728 843810
300 1032379 991268
301 811200 772094
302 806830 833421
303 125143 880500
304 21266 549925
305 574290 294839
306 721551 886790
307 1029189 929745
308 502107 227290
309 146409 826832
310 179570 828610
311 693775 853350
312 865692 798520
313 941048 938363
314 631116 802876
315 119588 893228
316 849903 863432
317 1039836 918406
318 489373 247425
319 788461 838785
320 762646 874685
321 146718 784949
322 864544 856433
323 776625 856635
324 765710 842546
325 763515 825358
326 762510 812616
327 647710 792687
328 780195 871003
329 840092 800019
330 1028811 930305
331 747348 841121
332 742715 862852
333 673719 816606
334 119857 893265
335 581089 284965
336 784493 839260
337 577663 367642
338 142533 833265
339 800537 816485
340 543988 255860
341 750001 852308
342 1046219 933891
343 739476 850691
344 966247 977494
345 97694 893462
346 678754 798377
347 148891 858917
348 530305 352025
349 145912 838101
350 781580 790034
351 621413 849767
352 650984 883863
353 12186 554156
354 538915 310237
355 803707 825648
356 744917 812342
357 703811 815111
358 664703 875480
359 733552 859926
360 971538 907808
361 1005912 937106
362 76978 558400
363 710989 872230
364 676616 876115
365 106386 862262
366 757469 796930
367 38675 568849
368 556175 278913
369 597589 314021
370 896460 866236
371 66092 856891
372 49474 521585
373 -26635 554346
374 957501 921537
375 74180 511248
376 944823 867218
377 819515 882617
378 524245 280932
379 1026355 1007259
380 190 500471
381 545262 317046
382 532621 228881
383 756774 881518
384 1059645 947096
385 65840 517228
386 715630 772870
387 800450 854343
388 751241 811901
389 831769 847985
390 744420 852878
391 648079 836938
392 921388 877848
393 175407 877943
394 48281 569393
395 734180 761372
396 684804 845519
397 6043 504749
398 94236 841544
399 794142 762278
400 521342 282947
401 681303 870344
402 796827 844777
403 800291 848233
404 64800 548413
405 792221 806734
406 577583 205349
407 805760 941393
408 980046 914041
409 547263 326833
410 504770 350147
411 551656 275833
412 75673 819910
413 21145 603541
414 53121 500335
415 790034 788786
416 823021 821018
417 495631 304630
418 747947 864248
419 779954 793693
420 995547 932230
421 767536 842822
422 850730 794189
423 800605 848330
424 1029946 920247
425 775459 860584
426 566233 308525
427 731161 907192
428 773382 830483
429 793867 788709
430 774326 800412
431 494522 270010
432 514777 308183
433 156064 855586
434 476389 291113
435 153363 856635
436 158764 934894
437 75169 581129
438 679105 747392
439 751832 829408
440 830613 866082
441 723131 802419
442 562338 251433
443 117084 915041
444 497341 273516
445 170941 855930
446 517057 302685
447 654962 820314
448 525987 319502
449 739673 786673
450 481527 360488
451 105740 921986
452 45544 499862
453 673357 829800
454 95125 552328
455 696064 917821
456 818358 773973
457 760790 802195
458 685278 775872
459 866082 795906
460 104789 862997
461 676121 872419
462 769704 829305
463 821409 844142
464 819152 819456
465 78586 539897
466 575355 258696
467 546832 335849
468 700089 816116
469 555844 295715
470 70433 875180
471 1010067 888486
472 713701 765745
473 725543 872491
474 768837 851921
475 724646 827194
476 48417 534862
477 663036 850588
478 769411 870287
479 92603 551933
480 741841 772801
481 761539 800939
482 782659 881817
483 168617 819662
484 795241 799121
485 505180 272704
486 84771 618851
487 27422 583131
488 988216 917298
489 59976 533886
490 49557 596465
491 1023189 932433
492 573396 311637
493 770072 808836
494 121517 916460
495 134506 800602
496 201771 884172
497 809279 812020
498 91802 542283
499 988087 916672
500 822356 809253
501 -14754 581001
502 682648 835818
503 137157 856632
504 196686 840598
505 727744 895497
506 485752 236217
507 1021548 939942
508 774919 833508
509 756729 859332
510 34201 527412
511 207497 835993
512 528096 253665
513 992301 907583
514 559754 347121
515 706173 844949
516 49702 893835
517 91869 579228
518 63995 548015
519 115011 919087
520 992924 966955
521 28575 613034
522 825606 881472
523 703098 745801
524 103596 928914
525 650108 859021
526 821181 825660
527 65641 551071
528 745615 823077
529 693231 854909
530 648967 877070
531 657239 858491
532 701486 809063
533 156544 888770
534 584502 352962
535 1013648 942558
536 -1083 570892
537 586085 273776
538 1030283 889459
539 699131 845611
540 582544 276003
541 1108705 931645
542 815066 822263
543 478507 279485
544 86635 554441
545 763364 788706
546 581481 282862
547 757420 812124
548 1061509 944866
549 837731 923849
550 855775 834692
551 712724 819422
552 141014 896348
553 799661 839033
554 74322 859588
555 813872 802450
556 47345 589840
557 952181 979487
558 788156 844466
559 21080 505548
560 840030 851013
561 55134 613681
562 775146 831083
563 1017467 937427
564 644490 793938
565 831355 804761
566 964648 931454
567 513796 306512
568 546066 255615
569 1045391 955200
570 3115 487809
571 88440 544591
572 965714 929110
573 823027 865355
574 36407 514565
575 695096 895420
576 628673 832739
577 20671 525811
578 8414 512241
579 686520 832454
580 184173 887107
581 986029 959634
582 809672 847957
583 972457 896594
584 147491 873293
585 30002 520812
586 964513 972849
587 537186 288564
588 762949 770995
589 126903 891443
590 544218 238456
591 96633 863899
592 534344 294827
593 658014 800940
594 59544 870457
595 578238 364859
596 118146 899184
597 731341 767956
598 132869 870850
599 713212 807620
600 484354 278492
601 810695 817751
602 -37132 533920
603 126342 899148
604 -4710 587541
605 518794 295602
606 96010 915272
607 960548 964813
608 784885 828225
609 763243 881218
610 1064604 1003490
611 108077 848636
612 906925 803022
613 578842 298961
614 102852 468879
615 692378 852831
616 797070 843629
617 735150 859330
618 808764 790949
619 29744 557695
620 630927 332351
621 1002506 920405
622 826789 875167
623 560849 312220
624 574754 319954
625 802792 758326
626 776691 835324
627 1044352 998884
628 4983 537082
629 789487 866314
630 1022798 930854
631 654371 786667
632 108415 856143
633 766988 803069
634 29037 564254
635 502860 277026
636 1005411 949739
637 794859 849520
638 768386 776679
639 868465 925106
640 728022 842860
641 59234 472199
642 489630 298788
643 69537 519492
644 1031466 925662
645 659743 883584
646 -9458 576552
647 794013 822796
648 109976 830343
649 117349 906576
650 740257 833675
651 696776 785145
652 1012080 898960
653 707141 844827
654 660102 275186
655 12482 546270
656 760559 789273
657 28123 463344
658 148643 896713
659 815191 773129
660 120511 878922
661 47835 523380
662 706717 813183
663 745896 898573
664 809150 836843
665 45191 490085
666 546507 272570
667 499028 244871
668 924462 909039
669 745513 853164
670 525014 227293
671 570317 357676
672 674128 840073
673 86281 863271
674 1005369 981878
675 40732 541472
676 745029 873239
677 95477 845915
678 959958 1014980
679 1056586 970154
680 529584 325729
681 13946 576785
682 158032 857277
683 673698 820512
684 54425 533157
685 86951 566814
686 117014 874833
687 786300 765636
688 956181 935821
689 8323 565578
690 51856 556461
691 552465 243355
692 65796 872224
693 78011 878577
694 779696 850750
695 468475 265940
696 20186 553440
697 527285 324744
698 809222 862295
699 1003432 971583
700 659038 858640
