NAME : portcgen-1500-1505
COMMENT : portcgen N=1500, seed=1505
TYPE : TSP
DIMENSION : 1500
EDGE_WEIGHT_TYPE : EUC_2D
NODE_COORD_SECTION
1 193696 34210
2 174532 17062
3 693120 157995
4 873909 634250
5 570460 33430
6 73468 126003
7 689128 139969
8 393034 865322
9 83619 102185
10 842973 699292
11 744557 93808
12 608347 38250
13 438261 560562
14 920688 651983
15 444323 558932
16 929891 37926
17 903331 118924
18 105962 103437
19 642815 -13936
20 598633 176150
21 803343 644101
22 234457 812648
23 578715 618796
24 419619 871707
25 892644 29429
26 621705 627099
27 26509 114552
28 710144 89957
29 114454 122991
30 158973 -26971
31 674269 167107
32 878332 481318
33 326841 848609
34 898782 86485
35 312282 830318
36 675409 155384
37 651839 143861
38 305300 868324
39 140993 31713
40 442785 539912
41 689907 156799
42 907713 645919
43 722683 131674
44 867345 652257
45 884941 464049
46 832625 46026
47 577086 27450
48 605638 17457
49 614555 11651
50 818291 624418
51 605424 20314
52 926855 459032
53 61091 156377
54 893821 457180
55 231635 802493
56 837301 -2743
57 595879 189809
58 230062 786846
59 489433 513194
60 584704 604748
61 125197 43883
62 489768 536166
63 460653 502709
64 887041 443729
65 73105 93541
66 451508 575951
67 902729 59773
68 559341 55242
69 896737 596173
70 916854 49741
71 262133 811375
72 299294 919527
73 674783 113246
74 343655 886812
75 584160 207791
76 908806 48438
77 646705 160883
78 209895 840503
79 862255 74964
80 479532 531597
81 890873 3023
82 533373 239588
83 637168 151056
84 853962 607981
85 563856 210346
86 580275 32193
87 922403 49298
88 578217 14145
89 653273 109569
90 513224 534551
91 579677 635083
92 572055 195945
93 335913 872034
94 891508 58349
95 161221 11256
96 269600 846031
97 221206 39492
98 383540 833980
99 873572 7044
100 161647 21710
101 66778 57515
102 864427 11621
103 725527 185892
104 270134 761084
105 627352 182283
106 578392 635016
107 691686 97347
108 260128 876419
109 583423 57654
110 589522 208875
111 907821 480151
112 666961 162054
113 873432 660291
114 874573 476763
115 703217 88734
116 289707 854704
117 947251 47812
118 845024 647435
119 208799 34270
120 909055 57217
121 486055 514833
122 900362 458762
123 651864 648308
124 295946 815878
125 651549 28158
126 611095 25190
127 733290 93535
128 220655 802240
129 65822 66413
130 565134 32944
131 164610 81487
132 509938 549201
133 653306 16448
134 850668 -13338
135 152527 59845
136 856358 664190
137 581049 240901
138 624691 601929
139 230481 754876
140 147672 33170
141 919977 464754
142 918442 40814
143 871023 707931
144 714180 111916
145 95589 85025
146 915865 51513
147 538245 617331
148 583480 176676
149 577532 211098
150 866742 43980
151 193863 49492
152 481295 578445
153 109923 116245
154 879791 486387
155 862202 646084
156 906098 488896
157 856136 59157
158 212286 811508
159 165034 69330
160 908538 59539
161 563828 177288
162 149634 71021
163 886165 55749
164 286360 881120
165 286199 870137
166 722450 109120
167 553016 250576
168 191318 21657
169 615986 10077
170 557395 659154
171 699589 118602
172 956352 44899
173 469190 522867
174 878606 633721
175 863369 -12107
176 898707 -10909
177 848711 647901
178 607084 -29856
179 94708 85787
180 852004 636145
181 643171 621418
182 481687 551836
183 821455 503655
184 578783 221870
185 701401 200744
186 485419 583244
187 924988 80312
188 184565 71943
189 921587 32877
190 473379 590521
191 668174 143234
192 576355 251905
193 923605 12956
194 297007 873389
195 920508 552440
196 879398 623579
197 246221 818470
198 702682 44432
199 716035 100270
200 909347 38070
201 247032 797557
202 867606 491394
203 519342 236148
204 92918 104367
205 888448 456074
206 631901 3973
207 731065 123977
208 609137 607845
209 569698 225072
210 67499 89792
211 120036 87636
212 706984 100277
213 583183 17192
214 450527 574648
215 228812 810797
216 548369 170541
217 412208 587906
218 429351 542656
219 833649 652602
220 566426 7180
221 573094 48363
222 901503 55157
223 287146 839196
224 888491 25649
225 628786 41630
226 692703 156315
227 879267 478606
228 683559 180189
229 572628 -4932
230 116139 80062
231 244118 882253
232 697155 148566
233 271677 882492
234 888218 1986
235 571277 615037
236 839692 678361
237 662151 192413
238 605875 599121
239 918237 51659
240 460621 573747
241 667225 112702
242 747914 54115
243 846910 669454
244 838054 41053
245 73561 164148
246 393578 841921
247 942244 64152
248 713300 144408
249 292093 843329
250 236553 841840
251 588964 149870
252 913480 -6485
253 926940 55771
254 930204 65232
255 154910 20139
256 672583 184605
257 878776 646265
258 246260 749505
259 591394 49789
260 910509 511520
261 651382 205896
262 948476 82791
263 380933 856249
264 869030 510382
265 878476 460587
266 929550 58953
267 560030 42307
268 295021 843737
269 564824 641614
270 711530 102861
271 693600 116361
272 439318 548274
273 255492 777225
274 457801 572240
275 269412 783373
276 432147 559094
277 875534 685040
278 106497 75464
279 891857 400346
280 216616 8520
281 323560 858597
282 886398 468373
283 690317 79138
284 248338 778462
285 484744 549395
286 467010 553520
287 872600 677413
288 218530 737218
289 582126 587375
290 899816 41942
291 835323 657085
292 891917 64733
293 271078 803049
294 686884 104202
295 537631 650525
296 71617 116652
297 877412 536035
298 536561 505820
299 903661 82477
300 221160 800905
301 600894 626237
302 552507 673944
303 686667 88456
304 894146 477487
305 668865 150593
306 580393 48616
307 257807 785790
308 657821 129115
309 924908 27516
310 291990 888758
311 661902 179724
312 502265 553460
313 595029 216291
314 885844 654192
315 736399 180966
316 676476 178582
317 867976 596822
318 203764 57934
319 740913 129657
320 158291 29180
321 855530 652394
322 329299 809669
323 259261 827901
324 595614 30343
325 584716 143278
326 630658 627073
327 223079 764908
328 552586 619352
329 94338 17044
330 246188 841383
331 292123 846477
332 269695 806610
333 899443 75486
334 866712 666754
335 364327 811201
336 822480 654571
337 356835 827283
338 227694 789010
339 746193 67028
340 568054 632467
341 690800 126275
342 846528 676909
343 505499 577259
344 647011 171621
345 603147 216242
346 126142 18828
347 643520 146969
348 379664 813661
349 587921 180775
350 728275 132701
351 874436 61993
352 499310 523349
353 446174 564179
354 647150 147603
355 825072 614809
356 303055 890712
357 222323 747605
358 893729 470053
359 904943 47417
360 459414 567089
361 895817 64943
362 919144 33700
363 882533 503086
364 57322 92954
365 885295 -4146
366 265763 881371
367 602730 49635
368 237005 850093
369 736584 111051
370 285049 936787
371 338450 896583
372 62475 134342
373 704771 129261
374 850886 473905
375 879514 45898
376 74219 128983
377 158462 43276
378 268493 764125
379 656804 111501
380 140284 -13337
381 269063 765712
382 607416 40163
383 586963 171171
384 115158 28544
385 916684 56277
386 71977 93222
387 682551 144973
388 429051 566097
389 294477 867553
390 882162 649369
391 654277 225404
392 586734 626844
393 918028 79699
394 855643 487361
395 358047 892327
396 713244 103251
397 201935 51918
398 874325 499689
399 546191 12001
400 386102 802411
401 686573 138634
402 600870 666109
403 718355 83604
404 281336 777091
405 194055 39461
406 830918 495950
407 374000 828177
408 153230 -3902
409 912789 38495
410 591134 605922
411 173187 38548
412 602635 238298
413 366221 859296
414 568113 146295
415 356805 829231
416 903479 476543
417 436186 517292
418 820447 642476
419 852113 46507
420 825147 639422
421 162360 54659
422 579191 198246
423 872432 640137
424 724365 186364
425 678380 157963
426 251229 751942
427 146325 49885
428 876037 450400
429 705529 74690
430 196288 784129
431 650965 188200
432 192117 806955
433 732205 79383
434 566446 199567
435 290666 895075
436 740040 126878
437 259296 838962
438 385665 827636
439 896725 24234
440 681869 77966
441 225555 781577
442 161878 21681
443 879718 12047
444 497994 555744
445 586179 29874
446 880829 515552
447 692850 119462
448 571675 597338
449 582032 247360
450 596725 624024
451 471851 519988
452 913755 48026
453 323816 866041
454 869196 523578
455 552233 199671
456 603210 583680
457 247175 791667
458 571865 30689
459 716522 102591
460 348348 816686
461 650460 150041
462 58344 102167
463 488355 506768
464 235228 900556
465 253267 783890
466 467953 631348
467 888338 22442
468 235039 764571
469 268736 717619
470 724809 88107
471 636270 -6862
472 301736 824727
473 167864 11661
474 387824 860058
475 587608 -42907
476 297676 848927
477 590487 249101
478 175596 64596
479 409270 837363
480 565024 656168
481 934394 45616
482 673216 84408
483 722495 106284
484 122060 74018
485 679276 107042
486 59724 118554
487 904107 57463
488 945468 525086
489 354444 834480
490 930463 17377
491 133832 67305
492 679182 179155
493 306567 871499
494 387437 857426
495 691634 179289
496 687694 151531
497 922603 57131
498 504667 589900
499 906230 502055
500 42035 105474
501 552138 208752
502 400104 862347
503 909182 28528
504 891583 615752
505 928114 55053
506 615380 187478
507 881098 462952
508 826779 54635
509 876256 61714
510 608067 21156
511 343063 886299
512 679244 105102
513 675767 113596
514 484917 550686
515 895568 74559
516 551312 619833
517 904016 56318
518 839300 719036
519 855280 646849
520 537892 207590
521 372767 836051
522 865310 450449
523 856679 461927
524 341145 794345
525 847303 442218
526 169568 29377
527 723116 112723
528 553742 180830
529 466784 541303
530 245568 869996
531 244657 763726
532 902586 530993
533 207744 805861
534 833480 624682
535 282939 848755
536 654287 196934
537 632357 602597
538 533242 169192
539 262085 741742
540 816321 648371
541 574462 619912
542 872509 36114
543 903117 55246
544 227480 849538
545 244661 835757
546 902479 85138
547 557465 599702
548 497596 480021
549 644170 119292
550 865711 23453
551 780329 67503
552 650535 165798
553 916530 13982
554 692014 91476
555 576520 211955
556 911852 30374
557 589259 76602
558 849899 665282
559 571124 19913
560 209777 808560
561 118030 61204
562 246706 -18394
563 564233 679902
564 168695 30944
565 606024 -5098
566 824371 653737
567 183338 814342
568 600217 638300
569 134375 112381
570 910132 40471
571 706831 76638
572 341780 830437
573 561340 591158
574 668198 117599
575 864226 621449
576 705829 121297
577 590429 45883
578 86934 100307
579 306463 754518
580 895235 64176
581 334587 879038
582 571237 1963
583 589438 595972
584 229104 795329
585 581196 596611
586 116337 126921
587 147048 64523
588 466667 606832
589 880110 17537
590 68155 123659
591 347528 861649
592 567466 223063
593 579928 35492
594 45818 126477
595 214924 44749
596 586883 37660
597 892639 44085
598 149645 44862
599 31516 78548
600 48515 105328
601 686080 60846
602 130660 57133
603 301145 860848
604 872723 681971
605 109986 89153
606 922769 493267
607 489270 529802
608 313361 899867
609 380621 804663
610 218810 756047
611 171350 57508
612 258739 870352
613 375928 837603
614 435663 557639
615 886906 57457
616 250906 860449
617 921887 43841
618 93277 142259
619 358244 846179
620 58319 77219
621 272746 856433
622 950756 68076
623 850955 21521
624 282587 946193
625 867020 470772
626 338359 843322
627 293331 802248
628 853402 515448
629 666244 160934
630 555618 216230
631 880259 -7267
632 558749 227824
633 826641 639717
634 157234 68296
635 609378 617790
636 666204 163689
637 701806 111989
638 915284 460652
639 243155 796395
640 580137 150052
641 478384 542102
642 903544 635112
643 42798 109521
644 345101 836242
645 707635 73791
646 663839 106054
647 336821 814078
648 88892 34605
649 580639 237241
650 668930 174921
651 585812 190349
652 886181 2533
653 874190 78034
654 621768 631148
655 593297 17195
656 649074 139381
657 838271 661899
658 863827 496413
659 876027 32362
660 919959 479476
661 686599 112457
662 503440 609141
663 559981 199310
664 564427 194152
665 922412 48823
666 336976 841904
667 699473 183807
668 827397 671196
669 918555 34229
670 406983 905128
671 882697 11477
672 150554 14290
673 256062 806692
674 588632 8839
675 926088 24850
676 610967 634976
677 86824 89407
678 267281 915318
679 612576 638416
680 223662 763076
681 648322 158179
682 239035 756821
683 595982 620948
684 735159 135209
685 913891 481770
686 859033 60335
687 869010 -2548
688 661107 172580
689 145782 56762
690 670352 146725
691 836510 94773
692 658418 169179
693 610503 210
694 540114 190536
695 619850 195348
696 200603 826404
697 881926 8160
698 580167 2655
699 111926 104943
700 460987 562972
701 868233 631650
702 299901 858103
703 251599 855682
704 901798 19172
705 537042 541845
706 866426 625477
707 283841 817582
708 456164 523032
709 554831 5353
710 653191 156964
711 181787 39625
712 888714 76283
713 669847 160001
714 559092 619061
715 914197 12245
716 910022 56342
717 921659 469310
718 696538 111507
719 569390 618266
720 592646 30816
721 556069 218707
722 457017 574370
723 612105 220016
724 684248 135477
725 719379 51760
726 172117 53895
727 879204 34387
728 567321 575352
729 147469 68394
730 493760 566843
731 199348 42284
732 882199 43356
733 602968 44392
734 346939 873584
735 467956 546414
736 71183 61842
737 355691 804069
738 542411 195190
739 301684 866089
740 868437 654386
741 540311 614641
742 611443 44256
743 963382 33512
744 241906 785375
745 893431 475448
746 333147 871626
747 565577 602329
748 540760 247145
749 566647 -5665
750 84932 105094
751 614215 23469
752 723940 96778
753 391753 864809
754 555624 45579
755 539357 686281
756 375782 873126
757 900409 29291
758 252936 748975
759 849953 671508
760 383511 839014
761 567160 230871
762 203809 810263
763 861456 623782
764 900506 462249
765 833001 644456
766 115121 109531
767 839679 603744
768 330647 889880
769 579328 -28180
770 382662 868736
771 910883 63040
772 75084 102889
773 61730 135056
774 465715 518559
775 470197 578278
776 130508 93619
777 555658 619845
778 586752 200053
779 389436 875766
780 548474 612652
781 119270 97484
782 876855 25253
783 277587 909225
784 260620 762194
785 888452 66800
786 186422 52854
787 661634 145909
788 654768 146586
789 934503 78552
790 901374 65415
791 634692 154774
792 239219 760670
793 100610 63222
794 908648 57755
795 474082 529484
796 65935 146603
797 885844 450673
798 831075 484966
799 558937 639214
800 574291 616771
801 708348 89259
802 928883 27619
803 363506 836687
804 273305 854397
805 111345 76636
806 510328 540155
807 609886 2239
808 292065 875621
809 292030 890533
810 465647 587853
811 604505 184559
812 91135 114071
813 693888 58623
814 241531 783359
815 893146 463186
816 462648 533014
817 121638 48574
818 684906 125677
819 552323 622732
820 198572 25304
821 857614 658397
822 659299 165745
823 576235 191189
824 896733 58438
825 728107 96101
826 587533 -15288
827 592256 61224
828 888029 58217
829 884679 48257
830 710724 165207
831 601098 50737
832 681606 166804
833 619466 157027
834 905672 498492
835 178328 16787
836 619186 124840
837 845919 466592
838 198140 66972
839 611320 35383
840 936702 47739
841 917293 438277
842 838373 651102
843 672752 158356
844 144476 33193
845 593353 223098
846 575251 25640
847 835037 642544
848 232653 739376
849 650564 123819
850 719909 126324
851 688467 190879
852 911408 658016
853 642321 205871
854 103579 33172
855 833488 23056
856 595739 624345
857 177305 16825
858 481562 552390
859 737501 75536
860 155758 67516
861 147424 21740
862 867422 22800
863 845673 619563
864 510287 557410
865 532401 568842
866 347713 827466
867 627148 29752
868 566310 614403
869 852452 644247
870 832889 634412
871 884203 682061
872 622076 151771
873 348939 864568
874 880241 14557
875 691507 106867
876 93429 74973
877 658768 167278
878 885558 14052
879 387391 807578
880 523580 269979
881 697455 137296
882 848003 655046
883 596647 49710
884 594994 607363
885 586671 601291
886 293670 842161
887 353452 886509
888 118943 126754
889 210807 767031
890 825061 -13968
891 640031 630745
892 78212 56600
893 586552 632434
894 89666 70178
895 613134 618142
896 878360 9044
897 226463 34977
898 878319 48067
899 377200 826890
900 363141 807672
901 371324 836614
902 925997 476993
903 604548 166601
904 708151 81306
905 922233 27804
906 264245 855186
907 589973 173702
908 733554 76824
909 568478 168710
910 376237 877407
911 587277 605755
912 756285 125384
913 563766 606232
914 359661 876218
915 667625 123391
916 487854 519385
917 734470 109984
918 681367 172501
919 440671 537848
920 858879 677707
921 270471 883784
922 826531 635701
923 714773 81198
924 131536 19348
925 900864 23012
926 588955 624610
927 866575 32565
928 187890 46885
929 595137 668284
930 921683 -9061
931 681436 87510
932 922620 71081
933 594318 634101
934 51166 103524
935 895157 604367
936 379685 849960
937 904887 47609
938 313793 925773
939 324823 897415
940 342611 879847
941 252606 738271
942 819959 472094
943 598649 225205
944 866844 616453
945 642055 594324
946 106264 113462
947 713882 56241
948 585763 137680
949 352155 844378
950 867183 467499
951 689104 142109
952 167615 53291
953 899221 39243
954 846098 517348
955 337863 876504
956 573352 657092
957 401677 784637
958 926623 60989
959 370100 845371
960 627686 31497
961 575854 196101
962 584317 637214
963 613972 584659
964 899039 622274
965 269190 881197
966 385024 873807
967 134231 43853
968 865749 15023
969 628157 624856
970 584239 54959
971 582659 192971
972 379157 827776
973 139097 9387
974 351305 837832
975 545213 156829
976 872799 666577
977 116098 46101
978 356027 840539
979 874392 81488
980 658743 169782
981 191711 31047
982 874699 627827
983 701020 115983
984 575689 161680
985 442735 542623
986 874871 476745
987 368770 848050
988 62616 116048
989 866345 481728
990 550616 635512
991 894878 494935
992 135726 98600
993 26291 105988
994 887446 -20729
995 916230 58600
996 366023 835419
997 541925 235823
998 595017 181265
999 861516 40824
1000 238058 905761
1001 893766 614237
1002 686412 111195
1003 888509 491640
1004 273920 790198
1005 915281 446250
1006 594380 625077
1007 611495 27223
1008 896422 504037
1009 170105 55279
1010 146987 60236
1011 930966 31199
1012 418684 516211
1013 92056 115807
1014 587404 22866
1015 957606 34656
1016 431242 536857
1017 930798 35199
1018 378615 800382
1019 898532 22726
1020 498856 550795
1021 63248 54426
1022 704301 137707
1023 61602 119937
1024 598234 645937
1025 536680 191747
1026 56821 94363
1027 384134 819290
1028 590431 34139
1029 639480 139281
1030 343866 870214
1031 683551 124054
1032 658068 166344
1033 674848 97886
1034 593398 623878
1035 885202 447357
1036 299718 855249
1037 613221 184807
1038 639379 170992
1039 243209 821072
1040 933429 30280
1041 642118 165652
1042 601130 193300
1043 847006 449460
1044 641315 107076
1045 205326 774597
1046 514109 217920
1047 685290 142420
1048 50772 127229
1049 888080 517613
1050 549614 210641
1051 152752 22435
1052 557706 223441
1053 633237 111756
1054 884517 47750
1055 934544 86493
1056 620674 -13505
1057 712058 140384
1058 669347 133243
1059 548052 607247
1060 155932 40748
1061 758111 118305
1062 487493 540919
1063 249019 801271
1064 256135 852532
1065 569109 637060
1066 541336 165696
1067 195085 30501
1068 137650 53937
1069 692072 197508
1070 598780 -10489
1071 574276 176614
1072 949697 25067
1073 389610 886347
1074 62557 81528
1075 138713 27585
1076 566130 40629
1077 222857 893085
1078 359967 844857
1079 154910 32861
1080 341182 898291
1081 548879 612802
1082 500882 36687
1083 866907 592743
1084 888763 57276
1085 856558 492947
1086 604595 14159
1087 739818 73157
1088 980836 18823
1089 153460 45312
1090 246487 834045
1091 470116 585781
1092 576840 602751
1093 662014 121547
1094 698808 114532
1095 610380 629472
1096 924466 56464
1097 154364 40364
1098 898262 504349
1099 255103 875767
1100 847197 683404
1101 369010 868841
1102 867889 644920
1103 841230 80442
1104 888186 484408
1105 48963 39662
1106 584302 72781
1107 572422 167118
1108 295993 839956
1109 894374 505254
1110 715011 118204
1111 422501 543806
1112 184505 52789
1113 170018 71339
1114 145161 55360
1115 872178 69513
1116 914529 19932
1117 601736 76200
1118 601883 631185
1119 582942 633790
1120 246564 772032
1121 280800 765063
1122 309998 873867
1123 106150 75439
1124 810940 8280
1125 591535 78159
1126 864196 682902
1127 60856 58211
1128 271316 800651
1129 818419 658119
1130 852073 678931
1131 79333 116422
1132 75670 95758
1133 598786 605300
1134 703962 139245
1135 525002 599516
1136 944330 38565
1137 836965 500849
1138 70635 100783
1139 838334 650901
1140 349757 864864
1141 78651 105615
1142 710639 87825
1143 575027 48281
1144 698141 181492
1145 538867 615207
1146 78176 100187
1147 737748 122190
1148 593800 630400
1149 874274 488935
1150 919857 472319
1151 868989 11250
1152 904942 37131
1153 242726 834174
1154 327580 849507
1155 892946 32443
1156 687459 117930
1157 610884 87939
1158 79064 135196
1159 686577 190696
1160 621432 33820
1161 653505 149650
1162 376104 831873
1163 857590 689759
1164 692205 163873
1165 627296 16675
1166 586847 23977
1167 929351 10052
1168 492289 582888
1169 460672 531734
1170 674419 125955
1171 521829 637212
1172 738947 105467
1173 643660 123044
1174 257608 810261
1175 917864 23330
1176 75507 124455
1177 580137 609087
1178 863972 481020
1179 888982 -6060
1180 605896 61118
1181 905136 523337
1182 571090 11114
1183 868887 658377
1184 638925 669052
1185 256606 765979
1186 27499 112218
1187 661113 143039
1188 873347 489214
1189 891283 29716
1190 436812 563288
1191 469155 514329
1192 575981 68496
1193 153921 67639
1194 896006 74256
1195 939718 26638
1196 832089 32633
1197 35139 132743
1198 465927 528127
1199 889508 475446
1200 562112 183298
1201 879566 -13493
1202 543483 235386
1203 505227 537927
1204 909440 81115
1205 361340 886132
1206 70150 79153
1207 872929 78898
1208 443671 537364
1209 295648 845192
1210 312923 878811
1211 690740 167338
1212 577464 43114
1213 344785 827718
1214 597613 182519
1215 161407 32439
1216 205067 774191
1217 926756 -11589
1218 211955 79200
1219 829787 673327
1220 950158 92537
1221 420423 536371
1222 177776 14761
1223 912472 54073
1224 547014 219022
1225 869731 92288
1226 437612 542663
1227 283300 876393
1228 871493 66956
1229 703334 143894
1230 893548 83461
1231 885719 650018
1232 70349 99647
1233 898467 494433
1234 611758 187641
1235 180951 43189
1236 179943 56845
1237 537485 632698
1238 565142 184817
1239 360948 832003
1240 654600 159127
1241 579556 178749
1242 325010 888065
1243 409155 844801
1244 396395 826421
1245 137420 50729
1246 377713 872035
1247 362257 807806
1248 898409 35480
1249 868817 40628
1250 923526 29244
1251 716945 99823
1252 721040 101883
1253 147852 45168
1254 733376 99970
1255 900539 504397
1256 897620 59327
1257 572917 205455
1258 656486 130070
1259 661407 108670
1260 307752 851031
1261 635482 21565
1262 172702 74312
1263 183720 33810
1264 444410 522378
1265 101048 133955
1266 173206 761934
1267 271828 799533
1268 652882 172514
1269 594320 55010
1270 72119 116680
1271 501147 612952
1272 672061 106399
1273 815131 650818
1274 869953 90946
1275 226499 737236
1276 839023 604112
1277 687728 158862
1278 937036 18770
1279 92774 94122
1280 928312 31287
1281 269542 853859
1282 856410 651826
1283 388055 812575
1284 147479 39597
1285 378966 805631
1286 810876 649640
1287 642911 145233
1288 330475 870207
1289 610055 610980
1290 580775 -21083
1291 373103 823559
1292 615939 228354
1293 614351 594870
1294 592112 223760
1295 920631 97487
1296 864164 30
1297 235040 813943
1298 357726 871596
1299 611372 152859
1300 554602 232632
1301 153234 3871
1302 546047 198455
1303 290678 844312
1304 874231 41997
1305 555125 635924
1306 689754 162680
1307 317116 858461
1308 650736 88814
1309 406626 840291
1310 903393 420594
1311 865509 622708
1312 710887 89775
1313 828098 643166
1314 820870 470889
1315 307399 876350
1316 172469 43614
1317 522277 642447
1318 935719 467198
1319 255852 764298
1320 705745 112627
1321 475455 505552
1322 52162 107287
1323 578213 619931
1324 849514 661223
1325 632336 678096
1326 228945 769476
1327 568152 167858
1328 546247 232965
1329 93831 119845
1330 708826 134785
1331 178098 56007
1332 927871 15309
1333 707782 114403
1334 45006 103549
1335 655767 153336
1336 885528 44583
1337 602478 24784
1338 211017 41476
1339 681891 171861
1340 882007 33192
1341 681045 133632
1342 299085 817536
1343 301361 872172
1344 906552 663283
1345 276744 845182
1346 349829 839264
1347 711351 92204
1348 719552 100699
1349 614194 231160
1350 732894 112475
1351 221293 781138
1352 473472 568938
1353 479231 547823
1354 900812 40445
1355 312865 868661
1356 177360 21217
1357 351615 856782
1358 584956 603176
1359 484557 535000
1360 142097 54795
1361 229954 819018
1362 512968 564230
1363 865418 652058
1364 839111 439431
1365 79009 53531
1366 519440 490231
1367 381471 868576
1368 232591 760677
1369 102265 102690
1370 228575 769594
1371 586178 65472
1372 356192 827077
1373 909525 505884
1374 106360 102986
1375 890540 421419
1376 158183 35905
1377 236407 739622
1378 284111 854244
1379 81393 103621
1380 693600 200688
1381 872976 469497
1382 891106 499095
1383 194165 49624
1384 464320 573501
1385 913795 56879
1386 261775 785801
1387 617988 182488
1388 885485 705170
1389 211452 776005
1390 904726 50965
1391 212838 790652
1392 596290 239143
1393 872088 663580
1394 586636 619173
1395 660521 91817
1396 566509 23754
1397 164403 37467
1398 595463 214358
1399 654910 142734
1400 750521 123618
1401 253341 745066
1402 623502 654400
1403 726453 86043
1404 101983 91734
1405 937147 34042
1406 242174 753943
1407 535234 198917
1408 476856 530485
1409 683887 169897
1410 614722 18084
1411 559600 629507
1412 450644 551057
1413 608355 32926
1414 243852 816767
1415 644321 164957
1416 226904 814837
1417 899686 477532
1418 900321 689122
1419 566644 178562
1420 605186 60075
1421 172967 30565
1422 733946 118556
1423 102469 48940
1424 372022 866035
1425 864838 643272
1426 475184 570042
1427 634359 586075
1428 273043 884612
1429 170554 44101
1430 908054 21875
1431 746694 116885
1432 307263 805073
1433 577219 670542
1434 540532 177975
1435 872354 68050
1436 287363 814198
1437 335423 892048
1438 685379 166782
1439 833971 640562
1440 482108 526988
1441 561498 35997
1442 538064 216063
1443 265796 800358
1444 560037 654987
1445 65665 75937
1446 269857 819818
1447 72304 108440
1448 334087 891563
1449 888373 7790
1450 602383 607159
1451 790672 113091
1452 564167 209520
1453 575298 645371
1454 614593 129808
1455 605747 18532
1456 288617 856934
1457 515761 540650
1458 30326 125747
1459 267675 797285
1460 861313 649416
1461 203299 29319
1462 447015 584321
1463 572797 635448
1464 133025 25839
1465 840161 688474
1466 52980 145871
1467 721570 111878
1468 572694 206260
1469 57314 139820
1470 859547 653092
1471 148165 14003
1472 284748 837972
1473 598702 636683
1474 72910 65566
1475 187711 103488
1476 669410 165463
1477 572170 230294
1478 598847 659856
1479 552752 55903
1480 490598 582351
1481 499569 536223
1482 108611 72919
1483 884793 105407
1484 906721 75788
1485 372184 834665
1486 915360 68914
1487 269384 808976
1488 896746 434457
1489 252303 804572
1490 682649 75441
1491 561685 -57439
1492 610987 -22599
1493 670990 121374
1494 857923 645112
1495 558778 218791
1496 904375 71433
1497 216787 822671
1498 855040 642904
1499 281997 855675
1500 822727 669065
