NAME : portcgen-600-606
COMMENT : portcgen N=600, seed=606
TYPE : TSP
DIMENSION : 600
EDGE_WEIGHT_TYPE : EUC_2D
NODE_COORD_SECTION
1 11264 59023
2 -38065 132470
3 749905 808138
4 6649 50728
5 895467 321257
6 799006 452474
7 799618 498571
8 560318 959893
9 829883 272059
10 789964 510400
11 42078 110585
12 459155 143633
13 593324 1027696
14 789055 459291
15 735279 809777
16 -48470 125125
17 577868 915404
18 480844 150284
19 816988 403150
20 796554 316122
21 40383 152951
22 26249 120026
23 802752 296871
24 756167 294477
25 -13188 138503
26 827028 437270
27 473446 111424
28 376119 105683
29 -4572 78599
30 789257 828212
31 813031 773861
32 801061 423381
33 -11530 153931
34 838852 742969
35 537890 137597
36 538693 137462
37 -34179 102325
38 431713 67692
39 770783 414748
40 819623 283417
41 517682 982910
42 819594 786184
43 813087 789710
44 488370 147497
45 -9366 96928
46 451906 59455
47 558273 1001349
48 511774 121690
49 3054 124108
50 39057 72961
51 841431 474068
52 472900 185231
53 445701 89308
54 766459 406526
55 805819 379862
56 547193 1000730
57 759289 451348
58 509369 932623
59 783988 501000
60 835037 844874
61 827251 749192
62 579443 971368
63 875212 816706
64 566237 915916
65 572481 929376
66 454415 166168
67 528078 100834
68 6159 156667
69 853000 371374
70 -45238 160360
71 -85430 116678
72 816604 338481
73 1523 81261
74 883064 481750
75 593451 1056334
76 466070 153337
77 562178 944655
78 822524 469913
79 -5769 88889
80 549286 983355
81 415689 112595
82 884726 336503
83 815779 773192
84 768471 804777
85 520421 117983
86 545119 1003006
87 748417 486483
88 782690 804215
89 772326 838915
90 611391 1012960
91 820320 455314
92 521929 128462
93 609680 964762
94 801242 850100
95 -17483 114846
96 58222 102221
97 710937 808610
98 760116 743277
99 754917 872230
100 631759 1010652
101 571777 943723
102 620352 1002312
103 17502 117782
104 755246 774975
105 680743 1011521
106 755170 404430
107 837487 812372
108 468380 178887
109 577081 961349
110 721981 817696
111 638335 1026990
112 845146 346319
113 600920 970899
114 675879 424332
115 566653 148195
116 782979 279026
117 854202 447734
118 769422 285989
119 782846 322192
120 511128 142053
121 846343 345197
122 452077 123732
123 843270 322624
124 777593 863498
125 483596 109779
126 823159 371689
127 5546 135045
128 601353 972826
129 634556 977794
130 770546 345081
131 453054 124779
132 838289 457064
133 17887 -32761
134 710454 801703
135 599548 957527
136 778278 799158
137 -19020 109087
138 808464 832783
139 824867 322899
140 570580 907281
141 800447 286463
142 533989 159701
143 -5839 134123
144 636795 958736
145 873706 352475
146 762498 507178
147 815645 506110
148 -37320 89952
149 626815 988027
150 800503 856187
151 786507 823112
152 544197 963062
153 -3248 88029
154 518075 976026
155 797080 425926
156 769339 790243
157 473035 105231
158 820842 285675
159 487759 216682
160 836442 366463
161 834247 283709
162 575746 953200
163 836924 510892
164 519072 133520
165 874160 516271
166 471777 118482
167 815775 429284
168 743542 406941
169 760691 750135
170 781590 728530
171 495876 973812
172 499479 114441
173 446332 121289
174 805998 546096
175 813898 810045
176 497818 127993
177 718790 426071
178 825767 501718
179 847112 228755
180 772304 407041
181 491460 154995
182 448826 118249
183 596220 1083386
184 486441 111200
185 378052 141462
186 790865 353160
187 561764 1005612
188 873901 532373
189 800414 468683
190 -51366 59205
191 -26394 158398
192 792044 418348
193 837026 299199
194 813830 443817
195 616729 902807
196 805584 255436
197 808376 925028
198 540625 983142
199 70744 118961
200 756145 443437
201 831302 313375
202 566627 982663
203 798918 794390
204 599391 1007773
205 779796 346444
206 486386 146629
207 461953 158203
208 764712 771982
209 581216 967197
210 818397 841547
211 781653 310598
212 472910 22934
213 840714 365594
214 824014 454810
215 868775 358546
216 754428 349349
217 420456 151185
218 559447 993358
219 844236 225503
220 749157 303170
221 436151 101318
222 792567 707997
223 52617 110035
224 484183 129205
225 605428 971224
226 -52811 67598
227 866078 378161
228 494212 115646
229 -7380 134641
230 581189 970401
231 11613 118491
232 784831 268386
233 583238 958618
234 775906 331078
235 754325 826571
236 774117 725889
237 745614 863890
238 413968 101141
239 525229 989804
240 755633 438028
241 598020 929308
242 551568 889564
243 500081 1067180
244 801269 320710
245 807747 773841
246 584295 939704
247 -2278 47327
248 791380 293204
249 739244 473295
250 460077 133939
251 -19603 83433
252 828209 458994
253 901145 316023
254 880562 302793
255 778 122801
256 498101 948880
257 560401 66153
258 822610 343774
259 59817 121076
260 24021 142350
261 48524 139100
262 790041 733980
263 519711 111697
264 647684 961420
265 770330 816731
266 595379 961161
267 615794 979925
268 542962 905281
269 746336 397953
270 16528 121132
271 437115 190613
272 789257 433296
273 862326 341840
274 526184 870709
275 791365 303532
276 784697 881843
277 826497 383925
278 891175 334517
279 65471 84304
280 20898 127903
281 -54377 133023
282 439313 201679
283 770254 445025
284 473388 156339
285 840324 265073
286 820983 340266
287 853613 338794
288 857228 355976
289 777180 793429
290 552799 984763
291 544444 1042295
292 805978 526251
293 35800 104283
294 759678 755279
295 35578 73304
296 442452 209075
297 766268 756430
298 588888 979319
299 798806 370434
300 844686 833627
301 534284 1016441
302 572798 983324
303 799720 306272
304 540158 1004770
305 855038 334360
306 764528 836551
307 421507 171722
308 786223 739297
309 805631 796137
310 831193 735390
311 14164 145790
312 859191 529848
313 844562 503104
314 837267 777531
315 779880 469031
316 773651 842681
317 594607 1064281
318 796273 783052
319 29558 63985
320 418959 135104
321 565354 952997
322 802690 751319
323 871201 338499
324 72930 179121
325 -35193 99941
326 789298 833951
327 728739 826621
328 844833 536787
329 903998 384803
330 828427 848649
331 -13133 111534
332 458690 98983
333 877701 288022
334 797233 795157
335 803425 752531
336 758240 782623
337 528635 899364
338 822916 427906
339 738426 871169
340 945681 391631
341 842646 431678
342 817928 452994
343 467371 162086
344 68180 -9568
345 428765 138197
346 539199 1035136
347 832564 765255
348 -30125 68134
349 867184 500982
350 734000 516876
351 485210 169105
352 438988 154493
353 11886 44936
354 625409 982788
355 816041 493144
356 794478 795042
357 541811 1016394
358 609666 955240
359 773055 446432
360 836941 453143
361 -74666 93181
362 -37483 131186
363 825355 493433
364 607751 966047
365 776798 765773
366 83684 66816
367 829788 440960
368 44719 86601
369 529176 1064392
370 805232 452360
371 802771 828391
372 803333 291048
373 558160 973740
374 481496 107964
375 457622 98694
376 400205 142579
377 805280 801851
378 -985 106900
379 874885 377214
380 598699 942583
381 876193 397651
382 837758 819465
383 745127 792872
384 831821 333763
385 42134 127271
386 769196 309525
387 863044 777957
388 53302 86989
389 521099 73140
390 933382 337349
391 538069 960622
392 848060 479443
393 539830 1001614
394 787991 468588
395 411304 72236
396 608102 956271
397 798088 460824
398 -17309 76993
399 219 106316
400 830419 341612
401 829917 768082
402 805752 429331
403 -16306 93850
404 626361 953695
405 822859 445714
406 876499 296899
407 820315 751133
408 7922 99936
409 804509 811042
410 793898 802691
411 793103 450502
412 834337 313358
413 722934 454417
414 843414 322750
415 800568 795496
416 872267 326852
417 809863 466065
418 605849 1009519
419 532847 919223
420 61736 20469
421 835405 863344
422 -20758 68638
423 810835 833542
424 769071 423964
425 533726 1001686
426 -5631 180352
427 743664 449402
428 -23604 100612
429 853662 359217
430 -24911 108714
431 744210 814725
432 827101 248164
433 581483 910173
434 492692 1022595
435 520504 945293
436 54064 76708
437 884797 269927
438 -32007 106315
439 543 137356
440 821067 349912
441 424805 153782
442 885685 361880
443 1679 125036
444 813618 292414
445 868899 328627
446 465173 141522
447 798596 736746
448 849358 508092
449 581419 899279
450 462708 139983
451 436815 218939
452 814899 769870
453 61599 111807
454 793788 760655
455 34022 60684
456 854981 327590
457 806766 812350
458 838748 284559
459 833770 254929
460 566204 939909
461 609620 1009737
462 -86859 101789
463 823543 339483
464 810792 794304
465 466556 81803
466 791414 335377
467 601547 956308
468 721806 817188
469 832240 473630
470 536468 144053
471 618941 1018989
472 822830 842040
473 923092 498096
474 611808 978111
475 848207 824079
476 797185 503088
477 551910 895733
478 780579 762610
479 432276 145865
480 863248 466020
481 561895 987082
482 858303 440438
483 818397 352522
484 802575 258729
485 813377 385886
486 857187 298004
487 -36856 99211
488 23056 104769
489 765571 822098
490 600262 909887
491 443953 127778
492 577783 131714
493 796011 738737
494 22727 190713
495 818324 756572
496 -12727 107557
497 811423 495494
498 841986 440218
499 -11926 53588
500 799885 484751
501 823045 403409
502 837505 499829
503 771997 420844
504 523380 88412
505 540050 911315
506 874949 312800
507 809654 567151
508 642696 990977
509 -74974 33942
510 830436 421743
511 54287 61766
512 494937 942754
513 466559 153220
514 -44436 68611
515 839926 304129
516 447488 141593
517 803539 428938
518 571596 1004669
519 102277 82046
520 476275 139998
521 18228 51870
522 802918 509598
523 469640 137578
524 588430 1015694
525 43588 142767
526 866754 307119
527 504703 966276
528 570070 956523
529 811477 824693
530 619064 1029441
531 770064 326460
532 857636 823427
533 792200 470515
534 118868 111578
535 831444 247332
536 443868 132849
537 581103 969523
538 463685 121755
539 834064 312977
540 783508 817587
541 834402 287434
542 -64186 165742
543 550691 103632
544 751148 411583
545 9200 55733
546 593491 968809
547 507893 150612
548 -14941 7458
549 576138 890161
550 801250 275733
551 837835 733388
552 800466 327028
553 800649 438486
554 535766 112166
555 821353 339931
556 786430 466471
557 805377 732403
558 450287 69837
559 885584 428025
560 537306 146165
561 26350 86434
562 484414 89752
563 907101 348611
564 535023 97770
565 425553 143180
566 858973 434865
567 539394 139416
568 -29587 49397
569 790384 383842
570 14921 77932
571 418809 142728
572 787153 751082
573 811557 292851
574 497238 908187
575 736059 795718
576 512867 143222
577 495497 1028356
578 775179 886347
579 567660 1004247
580 619139 942779
581 581924 983665
582 -25707 107883
583 434 142305
584 829468 308751
585 798096 294759
586 492331 72892
587 811453 817058
588 833195 369364
589 637209 907200
590 941302 376669
591 -2247 117646
592 770738 328426
593 494777 134077
594 498862 17875
595 922200 282562
596 -164 101325
597 796644 438247
598 804459 458197
599 509924 43597
600 768490 404416
