NAME : portcgen-200-202
COMMENT : portcgen N=200, seed=202
TYPE : TSP
DIMENSION : 200
EDGE_WEIGHT_TYPE : EUC_2D
NODE_COORD_SECTION
1 511498 619529
2 388744 522347
3 636404 599778
4 693863 803194
5 618266 825913
6 647843 695276
7 515281 789366
8 620815 740728
9 476824 590085
10 359481 548358
11 543796 653817
12 620087 694030
13 514014 681168
14 685860 818250
15 669249 930024
16 458715 545665
17 649417 655005
18 642611 762091
19 498725 568628
20 586443 783470
21 469641 517117
22 613645 692543
23 617901 814746
24 587459 746483
25 588275 797242
26 741310 669100
27 707192 803567
28 400278 479401
29 503085 789909
30 551418 799360
31 448826 582626
32 421163 447646
33 545479 537094
34 733069 959202
35 548685 551269
36 436120 514293
37 595618 784437
38 572684 821831
39 506876 484510
40 460957 543261
41 581292 780427
42 499935 800594
43 553157 834043
44 655135 704913
45 414051 587157
46 449909 583589
47 526250 549334
48 406836 609802
49 601872 813031
50 588694 763997
51 495179 802757
52 547259 420430
53 641588 916195
54 622898 792807
55 451687 558365
56 657763 949662
57 654862 704260
58 600120 808348
59 674993 752771
60 635730 903986
61 540201 543477
62 627939 841481
63 477148 490087
64 527694 432501
65 427479 567181
66 519468 620238
67 524123 438077
68 528646 635900
69 527627 540487
70 570210 809258
71 362418 541318
72 557733 617455
73 582663 518791
74 413597 622948
75 541579 774284
76 555306 713280
77 312175 533795
78 538942 468735
79 398481 585208
80 598889 789864
81 433912 421139
82 479813 800745
83 313171 528547
84 578939 838322
85 582736 745494
86 436664 472407
87 639406 593729
88 508045 598741
89 634667 775528
90 585287 820706
91 601424 848399
92 617989 823832
93 475439 487626
94 447849 667119
95 462213 532915
96 509099 770629
97 484199 649596
98 562768 767976
99 611892 627671
100 546274 775187
101 490153 585405
102 542918 650481
103 501154 387798
104 519259 824028
105 553835 737956
106 547419 875630
107 442550 696353
108 552073 871205
109 497213 524252
110 538262 540578
111 551522 933547
112 686336 796651
113 449606 539177
114 561665 864238
115 581295 505582
116 503106 447671
117 510871 520287
118 645009 763099
119 623372 832401
120 512362 551207
121 513506 711142
122 685692 816684
123 495945 567320
124 622678 654445
125 638640 806356
126 496911 435538
127 575511 763237
128 479929 444478
129 639595 822570
130 398930 638411
131 489964 789295
132 409384 571271
133 519661 610254
134 491570 636412
135 620305 901338
136 451863 571947
137 445163 577518
138 542424 809056
139 597805 812449
140 468873 540360
141 662404 930483
142 650205 835164
143 639483 869804
144 467261 640446
145 504981 570853
146 625697 887833
147 529704 596696
148 554707 765310
149 417739 485667
150 611759 630274
151 502679 608733
152 532879 875722
153 496831 675554
154 536606 426676
155 528278 534588
156 471698 642791
157 680039 867617
158 525200 615923
159 447439 725551
160 666590 694578
161 694115 721824
162 587477 758185
163 374132 584444
164 467647 433649
165 671338 676148
166 480852 529157
167 569629 528904
168 628022 838465
169 507472 555691
170 531102 482048
171 509974 443381
172 699011 944208
173 385833 558250
174 611299 745232
175 560566 880482
176 411412 624301
177 549562 821448
178 645750 760453
179 680571 864575
180 410031 655114
181 572005 747273
182 373960 532833
183 495690 578101
184 585008 861375
185 600057 864946
186 508435 582278
187 500551 550888
188 385944 567006
189 357735 516060
190 617908 685146
191 420153 486890
192 545337 826066
193 686173 787622
194 440041 544618
195 453887 553341
196 491347 744804
197 676408 788731
198 516320 717239
199 435986 565047
200 474565 620590
