NAME : portcgen-1500-1509
COMMENT : portcgen N=1500, seed=1509
TYPE : TSP
DIMENSION : 1500
EDGE_WEIGHT_TYPE : EUC_2D
NODE_COORD_SECTION
1 288336 346930
2 445115 103336
3 815714 415840
4 694082 165829
5 754129 430282
6 700653 145985
7 212256 645772
8 258739 562105
9 801157 428965
10 525885 855708
11 477352 118710
12 435499 939536
13 429078 880870
14 375803 932714
15 46869 700376
16 18805 379208
17 384858 916435
18 654311 146583
19 468113 108118
20 83855 391673
21 496116 157596
22 368868 907825
23 248156 318695
24 483196 790002
25 684313 11837
26 208758 654604
27 402945 930209
28 657630 143924
29 712078 10274
30 540192 826128
31 267265 333514
32 314187 565587
33 201513 634429
34 514840 87393
35 254950 589861
36 831758 391262
37 835927 420152
38 99065 631583
39 277327 523854
40 723136 176040
41 264177 560163
42 884438 417092
43 251629 303352
44 505851 816992
45 122501 612303
46 297543 650462
47 479612 95387
48 198416 650450
49 71628 669656
50 93660 709485
51 53877 677611
52 107950 589528
53 49049 720325
54 604265 173853
55 250962 310463
56 250663 517937
57 478716 799325
58 675665 123930
59 279257 569322
60 689140 17193
61 -6920 696633
62 621727 129523
63 659501 107716
64 64665 671800
65 39066 673858
66 44125 683579
67 43920 673433
68 636363 180871
69 136706 618213
70 395111 902325
71 513512 829462
72 258506 648997
73 22000 703653
74 64729 684787
75 660028 179281
76 765859 486254
77 878977 420775
78 252411 595267
79 249603 321671
80 371296 888151
81 61359 396204
82 93922 664804
83 21345 706557
84 59996 684655
85 638221 130976
86 275859 322814
87 183324 606288
88 223826 331399
89 44873 382440
90 680190 19599
91 256228 597603
92 724674 9698
93 758594 437069
94 731173 131525
95 518024 837285
96 86021 395300
97 678684 246757
98 247443 357860
99 475864 129556
100 663874 44939
101 703969 -17255
102 81182 640067
103 268548 564331
104 712139 18942
105 230369 324336
106 454216 836659
107 256241 559880
108 67990 685183
109 367325 951610
110 854969 432556
111 250924 551300
112 97052 620987
113 491378 852207
114 98052 612712
115 48088 683640
116 658203 -5893
117 222111 663762
118 258075 582035
119 534910 826479
120 398806 930002
121 702070 137500
122 858351 439289
123 109852 384530
124 102063 610160
125 105799 605102
126 635699 162067
127 78729 424528
128 503677 112099
129 401600 937121
130 509807 811685
131 201535 290663
132 655481 193756
133 295602 548110
134 142420 654511
135 80123 457643
136 459884 156385
137 467105 125185
138 653344 52606
139 471701 811426
140 485864 812176
141 719149 429782
142 197454 647260
143 7248 686634
144 36967 720372
145 651011 195432
146 415529 901394
147 141455 668374
148 143159 586407
149 499687 159856
150 64612 388037
151 224112 510596
152 226204 669860
153 219958 280073
154 671082 190371
155 71593 671904
156 762227 466249
157 704152 23216
158 242284 305346
159 856087 343746
160 224167 628282
161 666175 149796
162 77826 395691
163 736776 472361
164 -887 715997
165 421750 909809
166 459910 183134
167 1088 675516
168 717244 43098
169 28977 399019
170 648540 205960
171 90337 406115
172 481134 156366
173 552234 860274
174 209633 629517
175 740848 487419
176 672659 252644
177 755651 483371
178 703206 17130
179 759219 451961
180 709073 214729
181 48110 655391
182 713918 14718
183 282161 558758
184 426444 940569
185 89929 447143
186 683538 143989
187 56930 669922
188 252128 310677
189 701984 -13103
190 470639 128772
191 490826 859812
192 233723 667454
193 747245 462187
194 690671 35382
195 250109 323191
196 303600 327273
197 738277 5402
198 668396 218999
199 481419 123821
200 70712 662827
201 688954 3352
202 747996 459121
203 732972 -16202
204 95259 687544
205 677272 3364
206 245537 316506
207 643588 169675
208 110284 650810
209 252257 564750
210 429340 918138
211 830181 405545
212 88287 670486
213 76044 402262
214 61460 628017
215 666725 165779
216 774882 446816
217 433866 161163
218 73137 360640
219 449334 121798
220 224794 664596
221 77337 670360
222 431265 897935
223 152708 582612
224 455978 154991
225 274431 589725
226 387116 979293
227 845142 437954
228 696472 -6691
229 363158 905248
230 455590 177554
231 43100 688110
232 86724 624737
233 222698 556672
234 786330 476751
235 260662 625219
236 663046 12558
237 597937 141292
238 687773 135273
239 26928 400093
240 19076 395483
241 59567 417215
242 199332 615827
243 835129 431246
244 412382 889792
245 248411 546906
246 468389 108853
247 68523 452598
248 708993 56710
249 635657 190365
250 779252 442604
251 662377 178714
252 471470 140742
253 40292 721932
254 666819 148992
255 177525 655028
256 791979 473701
257 472088 113569
258 462311 136116
259 11513 703438
260 38490 420012
261 79309 399935
262 77199 665996
263 722617 149493
264 139343 637029
265 115835 626315
266 644505 181455
267 379254 941570
268 720461 482194
269 689023 32120
270 279413 555854
271 234241 648966
272 886523 383769
273 93128 343192
274 511082 144321
275 653079 165051
276 55059 386559
277 156857 671180
278 127926 627585
279 252914 648026
280 102254 676699
281 502947 845646
282 234962 614432
283 529429 811156
284 52069 695987
285 401399 962647
286 467039 836403
287 24975 387536
288 640520 192001
289 729240 159817
290 69512 381457
291 251454 341625
292 34725 360840
293 110501 325378
294 684051 51651
295 94086 619964
296 87966 734114
297 218769 324008
298 486505 107670
299 99045 664265
300 720524 98930
301 470540 103871
302 715170 170628
303 418723 900974
304 69424 665093
305 251155 592625
306 631123 7874
307 261510 319711
308 537789 801011
309 415882 958683
310 202739 686148
311 655064 229398
312 249501 308773
313 95613 673275
314 486949 121221
315 521819 860839
316 650017 -2189
317 57845 693936
318 516700 797679
319 453043 70791
320 720888 471883
321 705788 173331
322 60672 384697
323 765638 483585
324 52322 408812
325 40427 704653
326 274153 554059
327 103234 573571
328 467536 973355
329 640049 24036
330 39775 711494
331 706602 148121
332 461104 117801
333 738470 475591
334 226314 305686
335 16486 678228
336 249216 605274
337 41726 383973
338 483491 778879
339 646537 153393
340 235008 621950
341 873376 433788
342 59783 749797
343 239194 552399
344 553397 840622
345 664800 191283
346 289280 564964
347 191747 279751
348 373230 917509
349 245643 694921
350 471776 130223
351 307981 578200
352 729056 424147
353 418223 928222
354 458916 96131
355 495125 79562
356 657109 193673
357 116577 630601
358 792585 392641
359 153387 588725
360 487097 143294
361 418108 925618
362 220065 324792
363 228276 314281
364 197653 593565
365 675799 191049
366 732887 180945
367 383297 918050
368 656212 166746
369 720139 427565
370 105539 611636
371 266700 558290
372 50948 757186
373 36718 716962
374 48703 371924
375 851620 401593
376 55662 697016
377 710563 187988
378 866978 442162
379 512077 833370
380 32056 684619
381 45156 379589
382 519161 836155
383 866443 409748
384 196321 644274
385 62225 411878
386 439431 921461
387 242231 507895
388 120601 636122
389 199938 308309
390 861494 405099
391 238348 533263
392 110982 634387
393 366766 925911
394 667642 188932
395 485966 95213
396 894781 398648
397 113336 423730
398 293352 601310
399 252610 551253
400 491457 850642
401 675158 141195
402 883171 449099
403 227794 309268
404 89743 696878
405 70646 415539
406 29165 669946
407 666855 222931
408 88491 671530
409 774437 481540
410 681149 198996
411 104786 630853
412 847834 459371
413 89249 431128
414 712308 24728
415 489604 800484
416 651540 9801
417 882740 386783
418 76799 679047
419 306262 572986
420 659939 171789
421 200841 316841
422 84257 592366
423 540757 813912
424 707860 178564
425 730840 461502
426 744644 482042
427 261441 611180
428 687466 141390
429 701759 -27863
430 722037 170854
431 231098 555551
432 882084 416094
433 239302 601817
434 241899 345025
435 769615 487887
436 673453 28684
437 88355 400689
438 673064 181019
439 442393 766505
440 122518 620410
441 194219 639188
442 212946 329231
443 423970 904311
444 864960 466382
445 52864 438518
446 695019 42094
447 710943 182039
448 667793 34100
449 254116 567244
450 541224 803751
451 676142 195503
452 87065 697333
453 491120 824225
454 266816 558652
455 137304 584164
456 38322 691977
457 244987 594777
458 36505 665818
459 236482 365091
460 255079 537236
461 736695 14635
462 47723 665497
463 687102 198560
464 307451 322903
465 661389 171705
466 900466 369212
467 249572 349112
468 31606 722159
469 5787 694870
470 191809 619907
471 873076 445739
472 711153 50695
473 61628 692297
474 466447 141775
475 735095 7124
476 688473 156935
477 50445 672998
478 85562 410683
479 752488 464820
480 234624 336858
481 553725 869525
482 -38542 721025
483 477344 122086
484 297376 543986
485 554317 828952
486 457404 144497
487 869681 420003
488 467334 178117
489 472678 92168
490 530440 862133
491 453533 151821
492 96899 616184
493 38909 398476
494 234532 287551
495 490250 169955
496 238243 529628
497 333996 901999
498 389034 889580
499 679673 157621
500 505991 135849
501 212467 647401
502 864074 454322
503 234517 626067
504 767712 474935
505 696336 148853
506 773342 445127
507 472179 126061
508 40499 685446
509 245785 307998
510 254531 622898
511 88670 684552
512 55859 590064
513 51325 710044
514 42316 672098
515 666745 25621
516 386341 924261
517 396117 948601
518 799007 443119
519 -392 727867
520 859477 432348
521 544602 817664
522 869698 436013
523 783869 443100
524 636469 191755
525 730328 165263
526 437289 943318
527 39275 719817
528 701670 183846
529 79271 672573
530 152828 659573
531 492858 136838
532 776124 429673
533 197196 329293
534 50974 662012
535 53956 693659
536 142176 631045
537 739987 421205
538 56763 390704
539 272849 571335
540 63409 660359
541 135369 641206
542 667171 5040
543 658763 192839
544 706468 179276
545 290011 361162
546 734611 12464
547 846665 367079
548 269566 553799
549 42052 665700
550 42031 717912
551 112732 593431
552 43288 377444
553 727291 488451
554 495092 823426
555 471839 114602
556 31990 415794
557 888482 366912
558 784389 452269
559 58229 680632
560 447914 905807
561 353662 928821
562 41677 696614
563 12415 641918
564 136087 602229
565 92594 426211
566 494719 820617
567 95442 693321
568 146142 595505
569 696524 156406
570 103913 594483
571 531818 819235
572 409690 966115
573 55042 678550
574 777361 433665
575 62968 703539
576 727977 457576
577 586317 775871
578 264724 557371
579 239738 332837
580 245257 358369
581 214458 501430
582 685982 160626
583 880682 395849
584 209922 644347
585 674935 193103
586 32837 716354
587 36123 706300
588 83914 397545
589 467920 95138
590 485224 103502
591 289239 596128
592 74640 684371
593 732472 474671
594 91203 382440
595 697353 170198
596 854282 385179
597 785839 440555
598 190920 608267
599 52554 693892
600 747162 452842
601 37456 690268
602 384393 964148
603 283786 559166
604 679602 115990
605 245893 663905
606 651240 235306
607 404377 924549
608 98734 385006
609 151042 610211
610 72296 409830
611 466865 137549
612 451881 147557
613 688367 1619
614 56204 378697
615 52478 668989
616 60023 663959
617 479872 106622
618 222348 329845
619 692240 169817
620 460309 109888
621 538618 827761
622 454190 142701
623 772900 474897
624 185631 652084
625 58286 404112
626 365871 869824
627 434542 112681
628 499247 810927
629 37960 690084
630 367333 923612
631 771405 411849
632 739851 457265
633 684459 177899
634 225466 374483
635 53397 703644
636 257635 537763
637 510932 837809
638 100613 684361
639 491784 125863
640 687074 62286
641 748426 452340
642 459558 139290
643 191808 631372
644 118658 627723
645 -11015 696454
646 705705 16242
647 708841 49079
648 108258 414036
649 480754 130639
650 653711 174804
651 673619 -16913
652 696628 23776
653 247958 541942
654 286394 563001
655 227565 319856
656 245436 551344
657 210801 321070
658 441438 856119
659 98151 445127
660 682959 39600
661 490596 87671
662 538127 817855
663 427941 945085
664 864994 422837
665 731038 457889
666 124936 579030
667 889993 369388
668 648000 245278
669 710709 443213
670 670963 64202
671 450605 140304
672 55699 656503
673 84829 669755
674 248828 663700
675 665824 154167
676 295733 586249
677 27431 658900
678 680972 12778
679 239838 348047
680 219589 340998
681 399907 938117
682 634805 187393
683 833437 414057
684 50687 377520
685 234183 320573
686 730521 461361
687 103135 614095
688 676391 179591
689 844590 358869
690 403580 136236
691 689211 -14308
692 453034 118152
693 451513 135525
694 245380 535546
695 217018 561872
696 720309 32322
697 516401 794416
698 747438 461646
699 219186 662122
700 830611 442111
701 427308 923047
702 55390 656154
703 264457 633607
704 20964 692847
705 246954 619487
706 449776 921855
707 742626 438403
708 690908 155879
709 405802 904233
710 719919 26938
711 58922 661589
712 135321 623742
713 694443 172737
714 714548 56744
715 711223 203078
716 21198 659257
717 669568 -485
718 10145 693855
719 474834 139282
720 89831 396435
721 74649 403408
722 533729 795108
723 678878 167722
724 164026 613855
725 57749 411928
726 638346 138648
727 527996 779306
728 293048 531284
729 849490 399149
730 251320 312098
731 98946 386393
732 256433 610888
733 476705 99707
734 54761 711355
735 533089 89578
736 221599 397137
737 36590 743926
738 78693 609110
739 243402 506992
740 602046 174995
741 80633 457757
742 139778 612864
743 45498 712377
744 698435 167752
745 454383 116721
746 727536 438292
747 417080 917951
748 264213 584720
749 862982 412897
750 387267 944587
751 547713 844118
752 685868 39021
753 687771 -29840
754 123661 613111
755 672873 151541
756 678436 173159
757 91725 651317
758 476346 121255
759 603564 146842
760 224228 650745
761 280699 575122
762 120026 617407
763 224248 322550
764 290414 537031
765 682612 -7944
766 59650 418355
767 858922 405474
768 88281 611392
769 501051 822332
770 99379 622370
771 868629 437480
772 96023 688969
773 681063 9549
774 447911 79858
775 74073 688066
776 256894 647587
777 841504 460728
778 674724 221596
779 390674 955009
780 229340 663081
781 61986 687553
782 238096 654483
783 126635 592331
784 43607 412986
785 668801 173299
786 92667 646836
787 684710 214397
788 773958 453601
789 694480 -41960
790 59195 408278
791 466696 66854
792 189339 651775
793 675320 196434
794 258678 579525
795 839170 414870
796 593770 229017
797 231437 310351
798 37645 394916
799 470416 807087
800 215896 647941
801 276766 545902
802 168615 303524
803 96184 644390
804 251667 648520
805 432325 882982
806 235224 343101
807 228967 650794
808 483412 790214
809 15835 655313
810 537547 859348
811 86158 392848
812 697393 207106
813 76989 629973
814 421636 985565
815 279717 570931
816 235589 591987
817 694394 166472
818 656221 -22808
819 80963 698311
820 386886 918036
821 634884 173531
822 103351 656256
823 112399 575209
824 62445 719075
825 235114 326406
826 660230 151782
827 886747 391091
828 725460 425293
829 763303 403888
830 86090 688228
831 452917 121397
832 109971 637848
833 257981 357512
834 761763 414531
835 681694 150656
836 50443 697071
837 438264 91588
838 402684 878395
839 267575 564571
840 685435 -9441
841 78816 399215
842 217980 528746
843 407037 960191
844 690337 145860
845 736977 483443
846 522138 823819
847 661352 157679
848 830587 390525
849 395517 941032
850 103688 706260
851 267947 687369
852 503410 821331
853 31680 434928
854 99786 395485
855 517538 845173
856 148047 617189
857 660638 187396
858 636307 -18536
859 435879 119710
860 41768 395544
861 34083 692735
862 839819 394983
863 91883 582870
864 280621 554302
865 426790 100490
866 294657 584507
867 84899 618629
868 36110 670471
869 696941 -35398
870 714266 467688
871 6012 684387
872 493232 91538
873 109560 596720
874 34032 671336
875 58628 690918
876 659371 67398
877 374015 958977
878 144528 620217
879 654139 191305
880 128783 603948
881 92903 586422
882 662643 -54545
883 95046 607511
884 123327 608945
885 114221 574548
886 674781 244679
887 115703 576443
888 673705 166063
889 181122 348523
890 850885 432455
891 431996 92315
892 82294 384515
893 451211 124337
894 684771 170097
895 233153 623745
896 146474 560971
897 238723 353726
898 690010 152723
899 835280 412811
900 134534 660950
901 708746 48961
902 440438 151068
903 237270 396817
904 660081 108067
905 151638 592399
906 217088 359582
907 412649 977590
908 697923 201815
909 47085 659538
910 680506 -20470
911 656483 169092
912 624446 17378
913 825605 459426
914 169771 638740
915 491582 794778
916 631254 137120
917 245900 533907
918 640133 174350
919 900311 413663
920 618948 217166
921 83324 594931
922 141518 638169
923 221636 593009
924 112711 689976
925 869618 424740
926 115844 622092
927 227200 642845
928 499434 808584
929 76615 362278
930 213483 619121
931 670122 1914
932 2842 652255
933 204754 603501
934 155638 653748
935 248060 544704
936 212259 334899
937 840599 398652
938 456937 91379
939 -16553 674155
940 268228 582141
941 106921 622622
942 531887 808256
943 639759 124195
944 740441 463146
945 170768 687681
946 249110 640858
947 678109 144919
948 32695 712770
949 829085 401337
950 765451 465159
951 272030 595700
952 291804 601635
953 657864 168990
954 99515 555939
955 728973 449380
956 35125 642213
957 820879 418223
958 696033 209803
959 130326 614465
960 651592 213725
961 108756 418426
962 280970 347012
963 52430 655895
964 468412 147577
965 717204 182728
966 38325 465186
967 89765 599262
968 248897 554637
969 469865 114626
970 107312 630028
971 216474 700755
972 211513 637279
973 67957 384831
974 85461 349401
975 688996 193217
976 220672 372664
977 219949 299919
978 639052 169029
979 714802 164004
980 166262 598957
981 89943 401732
982 257562 631915
983 75235 409009
984 655117 162914
985 161278 594122
986 59842 711764
987 220842 658118
988 214030 603240
989 402775 928762
990 865314 400853
991 168793 658307
992 255308 337296
993 42754 376478
994 670672 21466
995 852457 377134
996 384168 937362
997 865134 396090
998 56744 714249
999 282214 548245
1000 489508 167484
1001 229991 677934
1002 749075 440398
1003 253097 567453
1004 898298 411204
1005 76992 417961
1006 110702 392854
1007 96300 359043
1008 237201 532608
1009 442335 802202
1010 247097 293531
1011 49487 694550
1012 124678 670778
1013 529730 805474
1014 37190 695789
1015 501460 802509
1016 243983 558015
1017 262184 340500
1018 464081 150797
1019 850200 412679
1020 482203 750516
1021 681087 -24854
1022 678619 236955
1023 307157 563442
1024 468886 112121
1025 33322 361130
1026 664582 -6391
1027 196604 334157
1028 714874 179835
1029 807818 442858
1030 728276 444161
1031 234529 338532
1032 60274 647099
1033 147167 607275
1034 86505 690592
1035 468655 821121
1036 651790 174006
1037 632549 174900
1038 66734 692708
1039 466425 766592
1040 416797 920071
1041 444804 113846
1042 748703 444347
1043 384849 895010
1044 454839 150217
1045 639227 228413
1046 688819 155070
1047 397024 917580
1048 464333 114365
1049 728770 433312
1050 197108 650701
1051 534052 825374
1052 193582 334194
1053 299942 572307
1054 378370 947123
1055 679233 9991
1056 52131 416993
1057 517302 792263
1058 367200 919072
1059 528975 821989
1060 766801 493153
1061 56916 438556
1062 711173 202183
1063 37304 736040
1064 88392 378978
1065 70611 677612
1066 843753 430095
1067 112577 667773
1068 419528 937034
1069 854339 406592
1070 543297 843708
1071 695563 194687
1072 414722 921330
1073 720812 5009
1074 70319 375060
1075 457643 160970
1076 688654 173016
1077 110536 644736
1078 428286 949888
1079 104266 417241
1080 269663 332460
1081 641029 170858
1082 79611 404761
1083 748485 398688
1084 851545 388168
1085 247520 650266
1086 69749 664979
1087 788099 424092
1088 253371 277006
1089 553927 794406
1090 209961 321201
1091 505453 794612
1092 76477 430657
1093 772088 457019
1094 751972 473700
1095 718386 205829
1096 398358 967118
1097 256957 336521
1098 72939 659554
1099 69507 677133
1100 224744 626660
1101 79919 347724
1102 15979 693917
1103 684041 161880
1104 785801 460294
1105 469216 149705
1106 251300 320217
1107 893674 433983
1108 352924 887233
1109 558459 865147
1110 546669 833173
1111 270501 554521
1112 265773 338979
1113 133399 622488
1114 694257 170186
1115 261051 570005
1116 753918 447380
1117 632554 156235
1118 22882 672599
1119 42186 680786
1120 79094 655516
1121 77872 403978
1122 218712 649691
1123 855978 438800
1124 669523 212674
1125 464159 126530
1126 509611 135175
1127 254347 541573
1128 15336 687005
1129 660514 179352
1130 645092 167788
1131 844891 429753
1132 674144 185241
1133 435541 93709
1134 490263 105928
1135 679894 176399
1136 256210 323144
1137 672642 19879
1138 33103 692830
1139 222429 332861
1140 148254 636666
1141 122313 584579
1142 493254 859808
1143 659013 175245
1144 88907 681989
1145 862896 429191
1146 67394 673218
1147 80458 657082
1148 687150 183075
1149 694567 28029
1150 370588 951528
1151 194806 656629
1152 226927 691923
1153 219836 676400
1154 242511 551887
1155 871458 378362
1156 829234 412776
1157 251661 543122
1158 76543 672648
1159 854684 430798
1160 89961 645403
1161 670105 -5436
1162 879325 384428
1163 190721 651392
1164 720175 203920
1165 515582 763588
1166 78835 668530
1167 654248 40291
1168 38425 726049
1169 713863 123922
1170 511425 834428
1171 247588 636392
1172 362433 920398
1173 200853 623252
1174 510024 769899
1175 147473 612152
1176 425928 924542
1177 81726 605861
1178 484803 833615
1179 39159 628544
1180 659031 163951
1181 120896 407930
1182 733596 148345
1183 829449 441000
1184 310641 534828
1185 519430 835509
1186 827011 411602
1187 40916 376063
1188 19482 675652
1189 780321 477631
1190 517708 785800
1191 646343 164442
1192 127564 614522
1193 45535 733001
1194 700993 27302
1195 546293 812842
1196 663204 189608
1197 222314 295562
1198 -28059 402805
1199 84447 605295
1200 838846 392840
1201 835542 396319
1202 549304 835951
1203 701525 -21889
1204 401220 933615
1205 44132 674145
1206 125505 639287
1207 611858 159961
1208 400303 910241
1209 867253 400728
1210 395356 934757
1211 205060 676519
1212 861113 407938
1213 859712 385231
1214 130291 614650
1215 721288 513506
1216 28761 407541
1217 426782 105534
1218 654634 -17267
1219 706222 145234
1220 641854 37001
1221 18 641815
1222 455984 81569
1223 712235 466213
1224 768566 515607
1225 54832 400518
1226 461658 99102
1227 107035 575788
1228 908779 379746
1229 836802 454824
1230 249643 345952
1231 173718 604307
1232 768761 445676
1233 764527 435785
1234 703838 203883
1235 695479 29503
1236 629995 188092
1237 125250 632749
1238 260445 348300
1239 760913 428906
1240 886022 431158
1241 42879 650003
1242 498569 841617
1243 129733 620246
1244 744828 481376
1245 658671 149239
1246 347554 907772
1247 493843 809074
1248 699886 210357
1249 661336 190634
1250 200964 646645
1251 727172 446379
1252 821634 412453
1253 566971 823934
1254 114510 619548
1255 345270 906023
1256 210468 316818
1257 506219 146886
1258 652606 72962
1259 -5210 644149
1260 493449 809836
1261 252260 357715
1262 796699 432657
1263 723760 465586
1264 694637 205877
1265 722268 -8340
1266 701351 40966
1267 -29888 715841
1268 102221 613984
1269 479790 794569
1270 280627 572460
1271 61779 687437
1272 520523 827916
1273 247668 673029
1274 481926 152085
1275 460335 130807
1276 62725 679003
1277 42234 432968
1278 257276 570807
1279 866406 361240
1280 661627 183402
1281 243868 681481
1282 92921 639148
1283 249836 671635
1284 657041 13278
1285 436253 84818
1286 97949 656376
1287 690291 198012
1288 850951 379779
1289 120552 629423
1290 745002 426139
1291 582353 909060
1292 141019 611533
1293 493144 810223
1294 291671 595159
1295 659724 137223
1296 255677 319430
1297 249471 661064
1298 711079 -3445
1299 86040 641721
1300 173325 599876
1301 678665 44708
1302 48291 668713
1303 711162 70740
1304 60367 365584
1305 667769 12077
1306 717198 482238
1307 109932 627945
1308 512436 817418
1309 773247 423216
1310 65455 619327
1311 501372 846213
1312 44913 402219
1313 358912 917849
1314 251982 674284
1315 33708 724000
1316 702637 464742
1317 163398 663119
1318 654789 139339
1319 273586 357774
1320 71478 647859
1321 216071 344524
1322 379635 953894
1323 77226 670936
1324 684392 171095
1325 679615 179936
1326 752852 451113
1327 221433 568324
1328 639181 179424
1329 900804 379264
1330 650695 4468
1331 757452 429616
1332 262172 316777
1333 465536 815880
1334 489645 830538
1335 512302 90508
1336 285363 560421
1337 684018 178138
1338 90838 405320
1339 124448 649897
1340 224919 328340
1341 490259 803665
1342 644124 188529
1343 604658 208568
1344 138473 600340
1345 741079 232045
1346 364383 935460
1347 238742 535547
1348 540712 808688
1349 467286 106625
1350 45547 397335
1351 147510 646260
1352 460226 90976
1353 78473 695553
1354 648184 213146
1355 242722 652365
1356 69866 697422
1357 720306 7845
1358 238934 544823
1359 55256 690652
1360 689013 -18918
1361 274509 568894
1362 714027 -5378
1363 4453 688792
1364 253576 327677
1365 486611 790019
1366 376443 979618
1367 233916 401566
1368 400579 932458
1369 463671 835036
1370 207289 671300
1371 256431 574617
1372 117956 428576
1373 506635 776722
1374 256902 348887
1375 406061 922935
1376 728142 423555
1377 226127 535151
1378 511962 844854
1379 246087 635100
1380 505168 101392
1381 156859 597059
1382 -16395 458776
1383 247505 695376
1384 522158 790820
1385 702154 31033
1386 -11595 703713
1387 661422 178290
1388 55110 680757
1389 278316 317936
1390 160430 571396
1391 47158 679550
1392 61969 625639
1393 757692 446369
1394 432962 943591
1395 71184 676673
1396 247755 570175
1397 174322 611238
1398 371233 927155
1399 61022 406318
1400 674813 151929
1401 396302 928197
1402 48020 408006
1403 397614 876427
1404 69660 692637
1405 51603 360381
1406 241703 322761
1407 632511 -4369
1408 477696 114691
1409 103100 619682
1410 206721 344439
1411 516753 835235
1412 214830 637801
1413 852702 367724
1414 700245 -6865
1415 879203 432172
1416 73357 657088
1417 663910 206246
1418 790769 456490
1419 46503 649508
1420 234711 568968
1421 26088 703875
1422 80008 619608
1423 678303 152313
1424 124952 640840
1425 783079 397099
1426 124760 622851
1427 450709 930347
1428 662360 14069
1429 706651 7145
1430 486781 779868
1431 852675 430993
1432 61630 390382
1433 432037 963645
1434 766927 482007
1435 838776 436150
1436 634790 160578
1437 744342 469329
1438 651763 203414
1439 15209 684077
1440 146114 647303
1441 759549 432603
1442 868778 430106
1443 670125 154843
1444 735182 506340
1445 250718 322235
1446 264302 613627
1447 59029 405568
1448 233067 648121
1449 153781 630902
1450 499538 146417
1451 -13009 706293
1452 399837 913577
1453 408156 974092
1454 464778 131157
1455 672885 181517
1456 267845 590114
1457 32581 728941
1458 395982 924338
1459 190975 655936
1460 494250 782558
1461 481379 798613
1462 235274 576352
1463 505472 852699
1464 365524 943697
1465 682931 219598
1466 293621 577063
1467 235545 334537
1468 138043 607021
1469 703687 118658
1470 828373 463667
1471 33284 385486
1472 254811 671638
1473 743714 477749
1474 267249 331752
1475 851960 431238
1476 66330 416572
1477 65297 755905
1478 49107 730774
1479 409726 903230
1480 643037 178547
1481 692864 182786
1482 228652 286471
1483 220870 510178
1484 265023 592091
1485 629235 204893
1486 235163 619393
1487 93958 666122
1488 689464 193608
1489 83492 635632
1490 201399 314036
1491 51960 729054
1492 499751 842788
1493 220519 346760
1494 291957 564689
1495 686075 62665
1496 741921 502688
1497 482796 853814
1498 680696 20452
1499 708217 938
1500 752263 417283
