NAME : portcgen-900-904
COMMENT : portcgen N=900, seed=904
TYPE : TSP
DIMENSION : 900
EDGE_WEIGHT_TYPE : EUC_2D
NODE_COORD_SECTION
1 534518 292462
2 704134 467363
3 797659 594917
4 1348 1031344
5 -16128 1000746
6 195985 793043
7 104099 1027842
8 108827 1007045
9 718114 446848
10 173948 795807
11 813414 168149
12 677698 615423
13 279075 793131
14 654003 663919
15 802798 646080
16 95125 1053727
17 853245 813309
18 749497 606704
19 755007 666650
20 769536 649733
21 18989 975980
22 689324 678125
23 760101 647793
24 834172 776337
25 41646 1029830
26 741690 445754
27 40607 971625
28 688449 637156
29 786980 477336
30 50421 987035
31 700486 440370
32 64572 977462
33 833074 156471
34 557564 277619
35 746265 412094
36 840912 159396
37 860067 830715
38 282129 768880
39 665957 657102
40 746993 602729
41 542438 311469
42 716032 450269
43 751916 138880
44 707347 464180
45 744599 492269
46 714166 442069
47 559452 217453
48 836064 796553
49 725179 423611
50 877798 802010
51 757127 642602
52 778810 455831
53 158475 758910
54 647999 629486
55 559133 255912
56 744644 674694
57 846068 805444
58 829145 214460
59 665698 445476
60 873920 826903
61 449676 208014
62 815471 560144
63 859549 787476
64 252677 798052
65 786890 151629
66 722089 614355
67 151235 1006097
68 69999 986962
69 631724 651581
70 205763 797755
71 851945 118523
72 774975 422312
73 617769 676757
74 207397 807756
75 580791 234293
76 83687 940010
77 685704 611276
78 642207 626869
79 632513 621602
80 197785 809004
81 226412 787582
82 115302 971053
83 38849 1040771
84 728021 374786
85 752826 417546
86 845087 125818
87 81497 946604
88 680202 455637
89 747309 456706
90 843672 722863
91 812111 93486
92 692675 378507
93 785084 593800
94 578207 339220
95 730995 370259
96 763794 552823
97 100671 981576
98 705890 620893
99 808628 83743
100 747715 147492
101 171220 737958
102 501922 302971
103 536915 240362
104 712357 415617
105 71949 948003
106 18569 996090
107 700945 419211
108 812437 121436
109 501023 269165
110 703958 419342
111 678357 621867
112 736240 466408
113 631999 630477
114 742371 483838
115 771344 141019
116 747575 462004
117 25384 976221
118 852456 758432
119 764045 568650
120 867712 792207
121 701762 436241
122 214158 778007
123 49178 1042658
124 905086 776333
125 17038 1031095
126 810154 639869
127 782047 163605
128 89860 1001103
129 518849 203720
130 848552 748341
131 181379 955780
132 187767 757668
133 821621 807943
134 642497 612208
135 874559 801669
136 820990 165089
137 695604 681819
138 82345 1023520
139 808320 191796
140 880391 594030
141 645413 719286
142 99431 981812
143 767038 429273
144 797057 133821
145 780834 593974
146 86256 999871
147 753793 462426
148 637281 683250
149 93941 1060068
150 847309 117608
151 884380 795863
152 225635 764631
153 588784 283571
154 914495 828703
155 819071 138829
156 781412 129823
157 8330 1017810
158 244618 751695
159 851858 767268
160 638 978273
161 821327 648891
162 239072 740733
163 940338 840184
164 646180 659611
165 72649 1020978
166 264285 797596
167 541069 271332
168 710185 411726
169 810506 149176
170 799484 151297
171 877137 775144
172 632990 614502
173 698100 663681
174 577621 302577
175 617642 294179
176 767191 682662
177 847641 821881
178 88534 982351
179 568235 274658
180 110920 1036940
181 815787 571932
182 796929 578973
183 111257 1058767
184 658198 598556
185 849040 88655
186 51776 1013904
187 644419 658180
188 869152 785970
189 667962 615288
190 608409 657241
191 198216 771252
192 620272 624125
193 750925 421957
194 75122 975966
195 531226 208217
196 744459 429201
197 807991 612881
198 109127 967146
199 837631 558855
200 783270 490133
201 215867 787244
202 150651 1031800
203 763376 419781
204 163693 767707
205 782452 615285
206 706301 679706
207 211956 758767
208 531733 258795
209 653128 610042
210 827880 97923
211 61865 949209
212 273189 799638
213 748680 454361
214 42287 1018245
215 758321 581620
216 96002 955362
217 162149 780713
218 17559 985170
219 851414 832268
220 772526 172489
221 526182 303622
222 859907 798602
223 742447 425797
224 704202 490029
225 75744 980205
226 109800 1056277
227 139295 942004
228 745775 87552
229 56794 1029454
230 -21516 971340
231 119816 957873
232 644421 642978
233 545416 229677
234 76926 960624
235 823073 846414
236 509340 252564
237 183827 752470
238 784589 419384
239 81058 1027262
240 76948 984239
241 709650 617637
242 109912 950631
243 239159 772552
244 603990 300730
245 620926 668008
246 237736 808784
247 748799 609395
248 800532 600530
249 113802 993478
250 759077 651963
251 580320 279073
252 739807 406246
253 105131 950635
254 612394 683523
255 755895 509081
256 824188 140583
257 182276 780828
258 598394 312553
259 687898 593465
260 180306 1016139
261 763745 639246
262 862260 845755
263 729551 413391
264 846374 82831
265 580264 241333
266 901860 828571
267 789577 136421
268 11346 987617
269 239997 808456
270 808455 91264
271 207535 785363
272 658030 600904
273 769829 586734
274 634897 674354
275 681175 592758
276 538993 323531
277 747846 461999
278 63344 1008720
279 711248 481205
280 542695 209665
281 808054 608983
282 787671 624119
283 72218 1019817
284 623564 664556
285 105879 937665
286 817367 134088
287 884528 799787
288 132683 760412
289 550766 294892
290 688644 460864
291 101830 1001555
292 573287 268848
293 119515 908241
294 77499 900204
295 713878 430999
296 79755 918222
297 833172 593236
298 -9810 964353
299 198518 807140
300 687073 657706
301 787719 592842
302 237839 825205
303 90625 995171
304 103561 1002759
305 172405 679098
306 829339 123439
307 687647 420979
308 131139 967371
309 695848 440492
310 61708 959848
311 490181 276108
312 864445 751734
313 97579 969288
314 113033 1008676
315 810984 145099
316 528838 207207
317 56324 1007901
318 684462 669173
319 716140 372506
320 705041 475865
321 199252 807464
322 790590 115741
323 860148 628387
324 847863 120777
325 228936 834560
326 711727 463598
327 170345 790385
328 819153 143994
329 683616 454589
330 580679 276649
331 61304 969943
332 740106 495843
333 70554 949790
334 707840 642120
335 111200 985534
336 779170 98195
337 834725 829728
338 782050 152990
339 692213 675533
340 55967 942755
341 637166 672033
342 865104 742268
343 901898 757113
344 641488 633605
345 125241 961904
346 756934 628472
347 770711 420713
348 641974 628777
349 575398 286929
350 806911 174595
351 749053 430861
352 241391 768397
353 203723 780966
354 782881 587691
355 867920 801147
356 65100 944898
357 873692 788377
358 283517 762159
359 250027 760991
360 747715 649851
361 688283 631966
362 104672 962606
363 85131 989270
364 240455 854205
365 612378 662570
366 864771 79963
367 156516 848844
368 885950 781376
369 220358 769649
370 797034 581812
371 622870 686871
372 91459 948074
373 809713 581566
374 811668 603037
375 781084 125366
376 813620 557846
377 193963 755536
378 842707 748973
379 688467 667428
380 689484 645377
381 805157 693056
382 504869 216493
383 718767 407905
384 67275 1000866
385 47108 979766
386 162740 751995
387 46183 1010895
388 46828 1013673
389 73223 1027692
390 91206 942644
391 890311 158717
392 855427 763404
393 221169 791463
394 878592 809485
395 -28502 1000127
396 733973 490910
397 784782 589863
398 650271 635899
399 701387 488452
400 842240 573798
401 801019 56852
402 583233 610716
403 729013 466166
404 769118 637988
405 560486 242361
406 56579 919169
407 222571 812635
408 526988 241404
409 481341 268641
410 629688 265837
411 889893 830816
412 823646 135522
413 233361 793293
414 890518 822854
415 11414 989044
416 891781 838801
417 672585 653356
418 66520 944372
419 725577 504814
420 652085 616430
421 514826 314632
422 180544 815149
423 28361 1001822
424 73728 966132
425 827016 842292
426 223411 690622
427 934980 812618
428 587022 311233
429 134662 1032414
430 823672 628185
431 861829 774537
432 561400 291465
433 840652 822284
434 491197 310813
435 932003 784524
436 868831 822910
437 829511 835323
438 93825 1018669
439 670784 703672
440 33112 985236
441 816858 94200
442 642076 666755
443 222526 754907
444 739559 437504
445 47547 1010789
446 711626 696476
447 237556 716256
448 731405 450533
449 699471 597978
450 644330 643749
451 825954 665348
452 701006 555057
453 243839 799633
454 733103 403870
455 713438 402813
456 53441 1079480
457 673190 614554
458 29674 993842
459 838561 138964
460 767432 185883
461 785299 161442
462 799533 617278
463 887450 722656
464 837921 151338
465 129958 987283
466 544491 319169
467 256756 786091
468 845292 825570
469 748829 606880
470 630910 256875
471 503846 274798
472 850478 639662
473 652863 630781
474 825673 590518
475 202111 764422
476 596562 240064
477 41935 960222
478 27080 1044476
479 585137 252241
480 48166 1030737
481 160625 801830
482 816382 552885
483 822261 155993
484 843096 209310
485 735763 461585
486 119898 1028259
487 91690 987193
488 872899 837727
489 98778 1033390
490 635250 625005
491 80207 1016479
492 798098 416961
493 122373 971921
494 -4783 1000789
495 747316 352846
496 770930 183047
497 647010 612794
498 723798 439338
499 528898 233214
500 625472 624551
501 855641 777000
502 845870 855958
503 117490 987290
504 886998 783433
505 789708 631840
506 132561 925006
507 679782 631795
508 833232 171309
509 782720 501376
510 790272 643880
511 38708 953991
512 106623 997258
513 50236 970053
514 249348 760498
515 177682 753326
516 756076 411020
517 635547 610440
518 531182 279260
519 124435 977448
520 794955 158490
521 519636 298505
522 156279 1027422
523 50610 1030878
524 770880 101143
525 16637 945187
526 771038 435465
527 523639 304366
528 834721 181883
529 874070 767542
530 631408 572705
531 745094 136213
532 735935 94318
533 556322 289142
534 857235 751218
535 157449 786700
536 700421 491871
537 98920 1006091
538 836818 801787
539 802143 134598
540 673046 472699
541 858105 594534
542 560596 295194
543 905082 760995
544 852666 860894
545 788041 109150
546 631795 615911
547 706230 650870
548 802187 147457
549 80669 1022912
550 152645 1034512
551 543211 297557
552 838631 869861
553 518845 279600
554 185877 809226
555 650186 453585
556 696144 435030
557 579375 269347
558 66956 970938
559 508157 268964
560 79136 1063694
561 588038 285976
562 841140 777492
563 47719 1040120
564 889582 795177
565 193450 793570
566 862523 125215
567 268312 777519
568 832493 162393
569 476898 222022
570 281488 747150
571 593583 295477
572 130799 973220
573 710703 443227
574 816247 116198
575 763146 380842
576 661316 629432
577 845747 829011
578 821146 180174
579 574655 245702
580 681088 653043
581 877455 788875
582 182079 788602
583 203271 788627
584 830720 208160
585 741301 425135
586 246417 747164
587 29502 968136
588 711582 632178
589 47669 946244
590 539740 337984
591 820430 821067
592 23354 975499
593 654872 677566
594 552569 248864
595 282936 750333
596 662084 429781
597 865436 785039
598 657568 675409
599 857591 776109
600 110336 971466
601 554932 266675
602 536963 243661
603 742448 456317
604 8590 986232
605 717125 441924
606 804290 134489
607 108834 983387
608 61732 1000842
609 76648 980398
610 634313 620013
611 744782 435958
612 613450 624271
613 811434 597781
614 774025 617302
615 704376 665792
616 606522 293876
617 790572 600018
618 242273 811203
619 802998 153047
620 33422 980655
621 105051 952888
622 749744 454580
623 836810 70259
624 571641 245066
625 724571 110691
626 796139 676631
627 530833 244300
628 104010 965328
629 552560 252127
630 871505 840358
631 523078 227557
632 789715 595958
633 495169 350657
634 110023 1051569
635 596582 318610
636 570989 353601
637 756014 145012
638 218222 801706
639 32004 969559
640 747094 399694
641 786794 657960
642 640801 634174
643 62501 1006538
644 247442 798740
645 540001 277814
646 789429 435050
647 708179 464266
648 594235 292061
649 120621 969129
650 560842 296517
651 805373 171382
652 212861 768431
653 163726 985327
654 719793 437830
655 745731 647871
656 807921 158548
657 126715 780043
658 243196 785448
659 196465 764898
660 761943 682390
661 191167 733754
662 58441 982720
663 81249 1010267
664 781044 130242
665 543556 259823
666 185655 780436
667 40880 980359
668 74377 1024325
669 779417 628912
670 649747 652878
671 47815 1005679
672 729018 620581
673 629164 683515
674 89251 979936
675 707419 423898
676 45790 929900
677 542317 257412
678 73732 974421
679 97862 1011952
680 127955 994086
681 651161 614827
682 567898 236443
683 782754 102774
684 672516 647732
685 581537 273749
686 183550 769380
687 857294 187767
688 60940 975591
689 886358 841496
690 548969 273225
691 721199 427674
692 901736 779308
693 570776 281905
694 60716 996873
695 825377 647969
696 223526 781846
697 680908 479809
698 771055 143971
699 710642 652312
700 768034 142876
701 827361 620243
702 792756 214117
703 238071 805419
704 817698 79527
705 824126 105743
706 840832 121197
707 780628 539950
708 851694 764540
709 224409 781982
710 215669 798486
711 807258 587501
712 561214 288687
713 790850 633778
714 54669 932638
715 540479 276241
716 831459 634838
717 549795 226747
718 751649 476002
719 605087 704404
720 626612 593030
721 621835 578795
722 688633 583550
723 83729 967998
724 39972 966762
725 73273 995939
726 775550 419554
727 115904 983931
728 568937 248294
729 784596 656211
730 679756 610799
731 103640 990717
732 205271 824571
733 661015 553703
734 627176 600719
735 206152 776374
736 166984 818436
737 838051 598061
738 543532 288864
739 763056 619171
740 674958 434616
741 528269 293751
742 701863 453682
743 566260 275562
744 525699 334266
745 109519 1016545
746 751499 456397
747 791071 118759
748 885465 803035
749 762640 401615
750 894604 846712
751 865380 766353
752 233193 764838
753 98981 980908
754 768186 414788
755 833334 645806
756 793705 145961
757 62371 946913
758 801009 133058
759 868288 787686
760 740498 467803
761 815986 632574
762 740900 382965
763 799527 110805
764 786919 628264
765 84431 1029177
766 825916 166662
767 807878 785666
768 179611 835207
769 755675 467786
770 787021 165131
771 793170 801765
772 782986 400331
773 682549 667838
774 818727 139046
775 180141 819172
776 71086 1010993
777 824737 149873
778 104879 979343
779 778241 632053
780 697082 666594
781 215844 762809
782 132197 943669
783 863413 773947
784 50890 930457
785 695761 645886
786 73459 990907
787 780318 517017
788 122432 960032
789 751729 487649
790 194765 767255
791 876132 800857
792 897763 870099
793 116866 967415
794 896690 791595
795 131549 968655
796 564659 274726
797 613213 292071
798 72831 1022814
799 691189 404747
800 815302 582432
801 139383 1036736
802 749364 638217
803 832379 137083
804 104805 966781
805 806502 609703
806 654453 665015
807 205529 778841
808 166948 756161
809 76256 990078
810 862164 785211
811 900660 835050
812 726019 382994
813 520324 254482
814 55303 1021413
815 679795 451056
816 671374 605212
817 231507 786394
818 908127 777477
819 819973 619618
820 62364 909567
821 778800 657301
822 870935 777787
823 789060 626743
824 881957 118414
825 190588 747779
826 598548 263429
827 685929 626822
828 572925 230843
829 155281 1046473
830 722797 369196
831 831223 141040
832 651170 638875
833 75806 1099489
834 104696 967243
835 85013 953298
836 557684 212784
837 740121 420925
838 679743 434548
839 800381 654138
840 704572 624281
841 690837 497422
842 169450 968880
843 94632 993867
844 233628 847501
845 239766 779186
846 694846 444860
847 827920 547739
848 617354 645573
849 199700 793004
850 710607 644206
851 543708 237771
852 153981 1015421
853 66843 959406
854 218277 813595
855 211013 847078
856 812617 132471
857 655785 606526
858 64695 934332
859 662383 634832
860 739966 380049
861 93979 936850
862 875073 799036
863 44379 944438
864 690081 438266
865 99561 974753
866 744389 411206
867 772712 602088
868 666274 599686
869 597036 651095
870 830508 140533
871 46336 1009904
872 913549 835845
873 775935 119708
874 201280 783763
875 47022 1004311
876 731847 374147
877 44175 970163
878 215205 780592
879 855796 182646
880 823781 125081
881 108032 973782
882 775206 114810
883 774846 590727
884 52661 1002584
885 206821 744722
886 787824 582325
887 802512 655844
888 67467 1035949
889 740557 424151
890 797706 638595
891 731533 439714
892 643270 646335
893 859414 845493
894 95825 1019070
895 860331 813326
896 825599 80120
897 692438 631168
898 210321 778172
899 727950 387405
900 654676 252294
