NAME : portcgen-1300-1308
COMMENT : portcgen N=1300, seed=1308
TYPE : TSP
DIMENSION : 1300
EDGE_WEIGHT_TYPE : EUC_2D
NODE_COORD_SECTION
1 495767 889217
2 401984 267391
3 437123 277479
4 461891 277431
5 13134 184581
6 98492 851167
7 812399 459869
8 473596 757126
9 130222 874600
10 125396 164720
11 8314 699319
12 972182 500615
13 428457 318675
14 152493 193056
15 663280 522047
16 789518 463849
17 66955 129977
18 507795 921545
19 540160 947873
20 59602 105161
21 665781 550970
22 571495 891785
23 422447 322114
24 818951 430912
25 61022 200081
26 665876 540418
27 788347 506525
28 417787 272287
29 51013 106597
30 71850 799497
31 476542 765833
32 845743 489165
33 97697 136992
34 99404 192442
35 116404 174003
36 938131 503397
37 502460 902740
38 832926 490162
39 497266 759578
40 123160 201315
41 469726 782307
42 487126 782510
43 725423 526555
44 174419 200711
45 674395 519717
46 417107 237226
47 865401 457286
48 756716 742783
49 762843 801206
50 751474 695866
51 426155 301222
52 495852 759471
53 70375 859144
54 509924 947495
55 881018 463417
56 919136 519407
57 833390 721137
58 507276 726442
59 437436 313147
60 769828 594076
61 399951 315008
62 808888 759780
63 764197 525172
64 146568 257751
65 484441 946221
66 827634 532711
67 69386 645434
68 69183 657432
69 133813 164458
70 172424 166312
71 86789 150362
72 134077 244886
73 501027 719425
74 420807 291152
75 749066 550020
76 836640 516945
77 725930 533827
78 716119 526929
79 701393 512796
80 80068 171620
81 436273 796059
82 846888 500193
83 731403 541091
84 385240 319069
85 119543 192891
86 135410 211186
87 682467 526269
88 691193 531995
89 730480 569046
90 1022416 553560
91 444492 315979
92 116554 879069
93 54644 651215
94 822881 444817
95 941013 535861
96 834519 448740
97 48888 183410
98 716418 565438
99 710879 548766
100 770258 826410
101 80464 848426
102 434016 311120
103 98463 193845
104 823116 741112
105 124802 175790
106 143413 132125
107 78776 180286
108 521110 888322
109 569907 881935
110 62404 110027
111 103749 680053
112 917102 494555
113 79502 837623
114 85847 192268
115 684263 531060
116 86731 199179
117 694155 564091
118 935928 509493
119 706967 533928
120 447451 284263
121 85527 182370
122 127152 136347
123 459061 918388
124 513871 907869
125 903301 489086
126 45531 671060
127 55375 687810
128 916659 537602
129 506475 744611
130 48751 682801
131 353288 323630
132 65964 162409
133 141548 140274
134 31338 642514
135 739190 532563
136 114813 146290
137 378953 291481
138 96711 217346
139 735220 535743
140 955776 533721
141 56170 130664
142 141813 159717
143 133236 890934
144 119081 169998
145 766222 793022
146 65289 210021
147 429545 289561
148 118385 187723
149 92488 908504
150 526442 743408
151 731887 517225
152 826734 809914
153 789776 514783
154 162516 210393
155 754996 524472
156 32466 677309
157 720506 554891
158 741260 695508
159 116389 845761
160 702253 587151
161 535813 794746
162 104872 246677
163 924812 506535
164 504435 974816
165 865051 424102
166 192431 847329
167 734768 581925
168 479857 737772
169 851466 454078
170 64719 677012
171 181240 131585
172 687110 556300
173 496733 936971
174 737920 541445
175 94850 152136
176 497067 803487
177 963293 533596
178 138868 240912
179 142839 212584
180 146323 209776
181 427808 779028
182 563572 913695
183 695562 521583
184 97131 885727
185 961268 523500
186 512466 923094
187 780519 583834
188 200536 182452
189 767544 761360
190 -1380 674666
191 47723 704019
192 735258 541925
193 786026 798195
194 837711 466220
195 464069 254376
196 129304 194686
197 114422 119942
198 797115 809283
199 525529 887215
200 129277 129050
201 105847 181979
202 531493 769571
203 129261 142765
204 34362 669463
205 86905 848487
206 162149 881657
207 536898 733262
208 33534 629725
209 103511 874588
210 721306 564903
211 799567 774677
212 152941 229457
213 634967 559955
214 44297 698582
215 515018 860394
216 812255 741784
217 171746 247552
218 513514 896489
219 816663 753937
220 138745 894142
221 730952 531150
222 412089 293577
223 756612 764586
224 40544 614307
225 113763 212704
226 459777 791084
227 531913 977315
228 60029 650532
229 547901 915106
230 916532 520252
231 367187 264876
232 731562 551678
233 88911 158596
234 728902 533697
235 647057 539371
236 773618 601071
237 166031 207984
238 460361 775728
239 936010 533880
240 442218 280286
241 532263 901353
242 675310 530736
243 43928 188344
244 561538 917305
245 511255 924178
246 56612 147246
247 22641 712120
248 123302 882957
249 960702 494290
250 356039 283655
251 916770 538722
252 137485 251741
253 38368 711799
254 113621 178333
255 128857 137140
256 816944 739906
257 88609 152244
258 741100 582590
259 814082 804153
260 172080 184565
261 992831 531484
262 861373 494487
263 493352 773886
264 192369 169704
265 841882 502066
266 138919 897279
267 895144 492582
268 908003 523379
269 663750 563871
270 85871 890669
271 -6405 721516
272 103207 878590
273 526494 758170
274 753306 810618
275 825855 480137
276 102769 147796
277 734603 532598
278 856694 467719
279 371771 296516
280 30290 649259
281 147274 211628
282 968233 480355
283 28934 682638
284 771753 577812
285 708240 559131
286 772273 771101
287 657757 517977
288 719986 529306
289 709125 513336
290 134582 847479
291 -2110 692020
292 878313 510831
293 446440 762165
294 106058 61945
295 701947 544994
296 807120 756508
297 173784 198899
298 1034310 525675
299 375854 280946
300 928116 524658
301 692574 533781
302 460233 723908
303 181341 896976
304 674797 545598
305 45868 694503
306 838356 472545
307 951571 475702
308 133271 885076
309 59382 679558
310 682092 513431
311 822903 778979
312 848469 748529
313 368002 240101
314 724869 483946
315 796924 805847
316 437382 290387
317 822135 763214
318 524544 930489
319 891030 508268
320 399807 309671
321 696927 550636
322 480941 761180
323 527876 900190
324 394826 296594
325 755933 561039
326 928553 485405
327 503672 757287
328 970256 555072
329 87270 147478
330 759550 797174
331 127624 265691
332 566611 905718
333 119598 842373
334 185292 156448
335 839106 433198
336 392654 278710
337 634522 564565
338 87697 158602
339 526645 775291
340 846699 475736
341 722615 567971
342 704881 520695
343 488429 792256
344 824104 447888
345 133152 111484
346 100495 159069
347 480010 704397
348 168669 151868
349 546426 926623
350 128611 171693
351 515042 919654
352 -176 695776
353 140063 148548
354 507695 957244
355 777021 792400
356 699681 543862
357 180171 227377
358 32726 702764
359 13658 691210
360 80497 97601
361 540851 900344
362 134865 238983
363 86823 924327
364 930558 534456
365 852898 461425
366 853470 540595
367 600979 898031
368 788249 701323
369 739444 567226
370 967408 494549
371 101902 193602
372 129530 192251
373 380904 305735
374 54384 669809
375 94171 133385
376 144282 175742
377 741286 506311
378 845321 491453
379 409498 279745
380 847628 486016
381 801582 782520
382 85992 659504
383 509673 900840
384 811816 482750
385 118545 103045
386 16376 649928
387 853046 505008
388 150843 849244
389 768273 531551
390 821913 424746
391 65783 696706
392 124700 124929
393 125378 890386
394 514584 708276
395 553092 716544
396 39734 655860
397 961360 514214
398 22612 680142
399 132061 181026
400 556477 754255
401 404273 280624
402 754511 761730
403 822005 523379
404 763305 755737
405 554829 713486
406 547727 923341
407 85103 248862
408 738272 572426
409 676871 535064
410 933308 525285
411 213374 208948
412 544963 903014
413 166086 164216
414 691888 538136
415 46268 654082
416 959058 534160
417 42491 659089
418 874590 493130
419 102844 874180
420 78739 177507
421 745015 552307
422 692057 494617
423 847307 496790
424 920647 538863
425 877704 473329
426 837767 740059
427 422159 251450
428 113467 833483
429 385719 294393
430 11321 684278
431 39554 636343
432 483458 265768
433 89722 158108
434 402328 299861
435 100284 239914
436 77220 205166
437 122693 210548
438 131724 220950
439 95339 177153
440 976116 578158
441 157266 909754
442 58651 152633
443 106329 818845
444 389648 310969
445 829261 498201
446 152734 174468
447 110424 705725
448 93058 150812
449 729699 799871
450 876006 479023
451 975245 533538
452 112428 150514
453 104594 192639
454 977332 535803
455 91724 848193
456 866794 459984
457 837987 772757
458 507664 742988
459 784336 795799
460 158592 151853
461 142176 193222
462 763855 539851
463 891925 507663
464 543399 913578
465 426087 331811
466 765143 536323
467 539032 987256
468 470629 744219
469 450147 309260
470 838659 778050
471 -7747 627493
472 507783 939239
473 926545 517835
474 819092 445361
475 104425 855669
476 463425 753625
477 19646 665964
478 83264 638907
479 890399 455616
480 4801 684316
481 521895 856291
482 136313 171106
483 520678 721602
484 58943 913337
485 669776 573117
486 81331 170446
487 42408 129006
488 844205 508382
489 682127 566443
490 473299 764583
491 141128 206562
492 525523 741723
493 167461 276280
494 930258 525894
495 950640 512273
496 713032 549639
497 422951 321588
498 973224 513603
499 115220 876235
500 10802 667562
501 512990 892736
502 956539 513722
503 400387 341873
504 736390 520591
505 951072 491093
506 568426 930577
507 79958 209280
508 31308 218734
509 846525 440753
510 560549 922524
511 746325 579176
512 418099 312982
513 905633 507044
514 397585 336559
515 469547 780474
516 475753 722272
517 78736 143341
518 476353 761819
519 25397 121396
520 778853 797869
521 968728 510599
522 458846 298776
523 802071 789548
524 696284 511292
525 129892 160243
526 479029 757578
527 21173 661582
528 849943 731011
529 835138 490451
530 119410 838998
531 662433 508152
532 502270 906619
533 160133 204474
534 92693 217612
535 134718 113732
536 82843 161446
537 476375 759097
538 862543 467576
539 167201 162616
540 978950 581517
541 510555 959179
542 800920 774443
543 691295 525713
544 971815 549566
545 752034 584402
546 702889 515310
547 433547 328799
548 135862 869811
549 53455 669711
550 780128 774807
551 49856 673635
552 935891 473943
553 808165 713019
554 527768 750499
555 823001 442959
556 868443 481315
557 148555 179798
558 455658 320574
559 502923 998634
560 495288 912228
561 688436 539400
562 524649 725718
563 787283 782442
564 834325 436377
565 38464 662575
566 522654 729654
567 19069 713105
568 531009 964510
569 854977 422857
570 137694 126903
571 685950 564216
572 167254 132126
573 118091 200241
574 143930 164141
575 765107 548151
576 668063 570496
577 444765 289806
578 22015 144932
579 73786 843350
580 419754 321872
581 79429 136198
582 657178 577159
583 96173 127744
584 702739 560841
585 10508 649403
586 73361 179310
587 523769 935682
588 106612 179608
589 910386 523058
590 121240 857417
591 79791 180459
592 703586 510377
593 748208 543580
594 151546 228231
595 671884 558647
596 30497 626639
597 784532 817322
598 108315 887122
599 658986 572861
600 935432 568774
601 136755 249085
602 151689 247389
603 570068 934290
604 816223 772815
605 984832 474978
606 124499 222297
607 7393 645301
608 179158 163032
609 857886 486191
610 826234 744476
611 936466 540047
612 713705 549783
613 411820 220728
614 389092 301972
615 799983 509227
616 771703 785431
617 919933 523496
618 91492 650087
619 111801 160825
620 466002 784887
621 452504 782801
622 845105 807798
623 424514 281335
624 396799 300095
625 78464 141546
626 481546 730383
627 870 156570
628 498265 720346
629 83742 162719
630 640046 536852
631 29112 712793
632 877543 472674
633 96997 869743
634 981343 530777
635 86781 862906
636 721922 545753
637 56139 115237
638 512630 947028
639 115580 170972
640 402664 288743
641 45876 657092
642 747866 537666
643 129611 135063
644 859241 523264
645 401601 279080
646 543229 905129
647 147851 845331
648 949127 537597
649 789545 760505
650 483637 728102
651 71589 166319
652 92592 133687
653 114688 821112
654 42261 877470
655 85553 698327
656 515892 792474
657 744480 526728
658 505022 922182
659 101458 198091
660 778041 821262
661 857853 455457
662 951184 545039
663 754899 556600
664 132371 204758
665 68396 209550
666 684049 530271
667 66444 155991
668 14342 159391
669 717746 527671
670 11685 678595
671 789205 771025
672 376908 312675
673 80021 674141
674 818720 473711
675 139928 836691
676 184978 268616
677 865055 487035
678 120219 175759
679 134867 119453
680 950621 518487
681 122393 268326
682 767312 526752
683 177223 208684
684 156716 147270
685 45912 159094
686 9705 117180
687 711706 548878
688 146832 180987
689 506499 955291
690 99304 106055
691 816794 761010
692 375960 285718
693 685488 517234
694 761223 536854
695 129544 205972
696 819378 762276
697 784097 783844
698 572032 923888
699 156050 894678
700 514288 965596
701 813691 820315
702 770010 589512
703 491341 713467
704 431810 302459
705 544199 960703
706 417353 272110
707 580280 956688
708 739644 536129
709 163160 250932
710 417003 241641
711 520049 911275
712 511978 915075
713 487132 747881
714 885144 445933
715 780865 807198
716 841535 500004
717 111717 169308
718 791686 812558
719 789205 756171
720 29264 165596
721 141195 230369
722 444840 301806
723 567574 888228
724 835080 781494
725 810977 776992
726 772306 785909
727 700498 557197
728 461970 726810
729 57893 87208
730 165730 239092
731 136090 808086
732 718411 562257
733 723501 552116
734 87211 868818
735 31550 671151
736 823789 486584
737 444853 281717
738 794135 769297
739 564215 911641
740 112264 228222
741 161142 153735
742 130001 199199
743 1001040 548830
744 754543 547253
745 759085 809277
746 666421 577773
747 569645 932563
748 731530 537644
749 40898 690800
750 85621 150477
751 474467 339864
752 464532 336118
753 673676 521521
754 504576 954871
755 132364 203861
756 693833 566435
757 956269 497231
758 62856 708905
759 -9885 690758
760 19721 630011
761 819331 795618
762 88868 121334
763 56699 710884
764 738404 515632
765 151295 206952
766 386970 278275
767 797402 522304
768 451647 913423
769 -11339 710539
770 65917 150808
771 57944 198106
772 734610 545201
773 825631 787112
774 527512 946867
775 814810 804300
776 161728 168709
777 113257 214152
778 491231 731401
779 767668 796431
780 126936 824382
781 671787 524742
782 461347 775359
783 26684 651723
784 561276 876156
785 926999 559810
786 19347 666681
787 678975 500297
788 643161 519506
789 494747 793850
790 745167 562114
791 496177 940917
792 398919 251032
793 841373 451741
794 88158 881772
795 419462 305620
796 841112 432202
797 122814 855894
798 95852 727179
799 57028 630728
800 771212 739231
801 726151 554159
802 690952 504122
803 669462 451957
804 776111 724972
805 438598 285245
806 661725 551683
807 114906 852223
808 137539 174800
809 127698 109974
810 99744 156421
811 555753 909470
812 135654 164870
813 806364 801967
814 21388 173862
815 962241 475279
816 844890 747750
817 144099 209154
818 464941 748711
819 938198 533457
820 507735 943459
821 868344 471589
822 20373 690211
823 721848 582985
824 809199 786810
825 46930 654917
826 752563 519267
827 141785 224348
828 88980 117332
829 98955 135967
830 846509 464529
831 752410 725645
832 87912 860474
833 727940 553905
834 573046 925469
835 597609 955229
836 799179 781510
837 105693 865894
838 914779 476494
839 828130 512249
840 23666 689324
841 372246 291717
842 664123 530075
843 129142 128144
844 678860 512021
845 87149 886195
846 698898 472189
847 709589 530389
848 85271 868845
849 38777 631334
850 -37145 678366
851 773758 740372
852 683753 517058
853 711581 569785
854 432722 273169
855 799069 774311
856 722075 513926
857 421752 268324
858 838412 525333
859 716228 547891
860 802726 515768
861 124373 818079
862 720411 508480
863 730183 530343
864 449336 268896
865 824131 475563
866 136250 296267
867 500125 766398
868 127540 170660
869 430497 763975
870 83671 735926
871 398876 295618
872 121718 165210
873 54580 182671
874 116997 161511
875 875271 486663
876 705069 577241
877 828202 806381
878 504597 881466
879 142429 218628
880 788843 770236
881 175644 233596
882 98841 128136
883 88095 839217
884 504349 745767
885 374198 274477
886 514701 926222
887 720453 549998
888 58486 137862
889 143162 887293
890 702174 530111
891 496095 747356
892 87364 188624
893 73552 875703
894 764353 516536
895 820079 776052
896 90678 152952
897 164441 173105
898 781481 585724
899 152462 121578
900 78346 140042
901 930949 506007
902 462344 762262
903 715442 533326
904 705273 549434
905 538643 910320
906 756507 532101
907 641696 538899
908 428346 262320
909 18328 668170
910 788498 755615
911 98961 699857
912 473591 757279
913 669469 580229
914 671615 532119
915 108496 224278
916 140142 890851
917 156780 838798
918 94303 150603
919 59081 664596
920 196274 233513
921 746657 559058
922 793913 790725
923 95409 136301
924 432829 750670
925 61778 147645
926 524711 763784
927 115499 840878
928 845171 477959
929 111838 823189
930 16452 605359
931 822065 577867
932 959865 514608
933 445336 313758
934 367109 301510
935 918481 476500
936 78280 205511
937 121079 171844
938 176886 196944
939 761797 509437
940 57426 143084
941 551863 924037
942 476367 780244
943 392544 315225
944 116424 841052
945 674149 499439
946 25117 712215
947 546790 810003
948 117962 166108
949 136866 185153
950 449030 303103
951 123202 132782
952 837334 504933
953 434463 267641
954 726434 525669
955 543159 764278
956 845929 497018
957 669304 529159
958 50070 679236
959 971123 545099
960 137691 140813
961 850362 466804
962 411293 290032
963 154835 209478
964 67649 209879
965 27739 710955
966 796826 717245
967 494098 776657
968 42146 617242
969 511002 958378
970 186434 143389
971 752297 513433
972 806300 753359
973 531239 960841
974 755037 514184
975 451940 772907
976 160495 193782
977 749246 540218
978 157067 172458
979 27911 710337
980 393885 294111
981 99973 135156
982 133968 176026
983 103571 192445
984 433076 301549
985 79566 209324
986 156682 236433
987 849928 832084
988 115351 172039
989 164553 149815
990 510876 885686
991 58132 903730
992 427110 315209
993 762371 755223
994 763728 522533
995 898146 468286
996 102037 820703
997 763686 565339
998 33616 680439
999 119761 873620
1000 780339 771075
1001 746302 555967
1002 557739 924562
1003 62766 676633
1004 881406 488517
1005 787318 795672
1006 31224 648184
1007 751637 564721
1008 780862 549533
1009 472253 278754
1010 141221 176535
1011 446585 286292
1012 406392 253005
1013 55794 670809
1014 687686 512775
1015 475074 764288
1016 97050 147882
1017 60861 187800
1018 103533 842165
1019 781211 515564
1020 753072 583413
1021 388619 305141
1022 942295 486988
1023 981675 537310
1024 874882 476357
1025 529079 925824
1026 449725 312866
1027 467720 294624
1028 733864 742894
1029 98149 900255
1030 526749 943405
1031 525446 924297
1032 609282 541777
1033 704948 560652
1034 72902 123409
1035 121069 169128
1036 708431 534420
1037 671102 530562
1038 521797 914993
1039 129701 122402
1040 85580 244955
1041 114242 221271
1042 850908 499130
1043 122729 873911
1044 516805 921736
1045 928980 466174
1046 56893 230146
1047 507767 929125
1048 143841 254060
1049 927691 541581
1050 127687 170250
1051 816556 786439
1052 51805 650217
1053 798388 458139
1054 726702 477027
1055 128225 836918
1056 504714 761706
1057 814072 798920
1058 457045 758143
1059 106269 211324
1060 762039 557196
1061 957630 574126
1062 746970 558824
1063 429812 253556
1064 139802 174865
1065 829418 468815
1066 560938 902981
1067 483737 804808
1068 960150 523951
1069 417856 309152
1070 113534 171827
1071 31537 652341
1072 94377 170492
1073 702406 578975
1074 -45039 645916
1075 113403 827572
1076 779032 770972
1077 859566 803631
1078 767362 506486
1079 937632 584106
1080 144476 143571
1081 831676 528376
1082 790485 723215
1083 774199 765659
1084 380904 238893
1085 428114 318512
1086 832720 407896
1087 846630 541565
1088 118554 859514
1089 139595 191759
1090 85971 850052
1091 134260 197485
1092 497585 689592
1093 47103 647888
1094 759173 531857
1095 17365 619884
1096 724069 574793
1097 700622 589217
1098 659995 525625
1099 21543 669023
1100 54883 183402
1101 830215 406805
1102 384492 300579
1103 144055 849293
1104 73408 725336
1105 137646 937537
1106 39352 184166
1107 122874 153101
1108 854377 415440
1109 973103 524236
1110 124350 146935
1111 53966 136564
1112 94168 145838
1113 443168 272223
1114 58868 636598
1115 519218 762400
1116 407270 301719
1117 784616 563731
1118 126637 172032
1119 158368 175586
1120 104466 874910
1121 467905 920783
1122 702359 505411
1123 137564 175695
1124 888605 466252
1125 105645 153891
1126 506170 744271
1127 121675 870278
1128 51504 658515
1129 458009 294124
1130 -3555 678461
1131 542757 741438
1132 819120 532902
1133 54465 191535
1134 129723 157751
1135 446413 264534
1136 173275 223839
1137 669170 533580
1138 706745 613664
1139 142667 210665
1140 375334 265508
1141 76649 126265
1142 742857 505879
1143 -9477 653513
1144 13430 682486
1145 430737 287668
1146 661181 517709
1147 717589 573727
1148 424005 315101
1149 101868 159093
1150 843990 777481
1151 878544 454933
1152 821201 801055
1153 751589 537854
1154 933584 522773
1155 835346 754893
1156 829011 489054
1157 861568 483175
1158 815807 785422
1159 693536 566655
1160 710147 600358
1161 43383 712321
1162 163727 190881
1163 201790 168514
1164 767486 800883
1165 541768 936678
1166 781302 528653
1167 132822 925405
1168 133767 886040
1169 85298 140392
1170 148282 180032
1171 498025 720060
1172 903252 547963
1173 545861 779875
1174 69914 830062
1175 473086 769576
1176 705811 521604
1177 884067 486581
1178 800595 716550
1179 55568 672291
1180 670421 538374
1181 440467 703543
1182 714550 571870
1183 148700 181116
1184 942970 489827
1185 111688 874740
1186 113631 859578
1187 759303 853399
1188 -24233 676099
1189 771815 446844
1190 169881 837276
1191 56498 182256
1192 61088 629757
1193 505713 937668
1194 564287 932438
1195 133496 886709
1196 6818 653601
1197 142048 132360
1198 112104 890521
1199 41461 618851
1200 738538 503417
1201 938440 529089
1202 76859 847928
1203 117142 199258
1204 515109 893158
1205 512253 797100
1206 174230 167317
1207 881162 533256
1208 736615 543946
1209 555590 770925
1210 837240 494297
1211 497305 684633
1212 529367 750120
1213 90217 939283
1214 791829 819141
1215 509100 739924
1216 118689 191449
1217 105123 97837
1218 505244 932694
1219 79675 835024
1220 26630 626958
1221 693855 448346
1222 105938 846349
1223 418722 317081
1224 685905 527736
1225 930334 534306
1226 693655 513972
1227 746409 526889
1228 78346 859575
1229 705267 544090
1230 737599 575280
1231 406053 310081
1232 66529 140177
1233 634718 558761
1234 97674 867109
1235 85910 627420
1236 25921 655980
1237 726819 542934
1238 498130 767328
1239 63856 856469
1240 62559 650446
1241 126895 208355
1242 909867 511342
1243 169639 184760
1244 112105 167742
1245 527348 919563
1246 139433 206435
1247 949695 576769
1248 152929 878233
1249 701649 509919
1250 12466 724718
1251 109262 184828
1252 113063 839549
1253 526050 875245
1254 523805 857717
1255 119795 874680
1256 153900 166543
1257 92556 901795
1258 716386 552683
1259 759688 551529
1260 41024 918375
1261 52008 693751
1262 105155 117873
1263 -3872 685680
1264 688022 511373
1265 162269 203293
1266 782253 743253
1267 481844 953979
1268 814311 531483
1269 406452 323549
1270 868322 461015
1271 164176 855353
1272 497971 736614
1273 24909 652587
1274 504284 915387
1275 818479 482472
1276 488830 737191
1277 76473 179044
1278 549414 957337
1279 372619 306589
1280 810489 778814
1281 142633 158902
1282 436859 268713
1283 805516 806392
1284 136370 137389
1285 382652 288722
1286 149702 237720
1287 526619 922778
1288 17151 682125
1289 862466 477297
1290 549427 871269
1291 546200 955926
1292 746041 557350
1293 530327 871672
1294 179758 125137
1295 712621 558029
1296 95825 150777
1297 75192 155321
1298 925152 515000
1299 744421 773819
1300 665433 533618
