NAME : portcgen-1000-1003
COMMENT : portcgen N=1000, seed=1003
TYPE : TSP
DIMENSION : 1000
EDGE_WEIGHT_TYPE : EUC_2D
NODE_COORD_SECTION
1 153270 577066
2 802372 908181
3 427073 791911
4 424593 737653
5 865604 939578
6 149063 584415
7 47798 559668
8 846201 884599
9 258982 801891
10 760449 564620
11 857397 888961
12 247083 227839
13 741957 87465
14 314896 774877
15 819275 457667
16 737042 58686
17 807628 78200
18 777538 474968
19 805866 474703
20 209839 823277
21 111623 552930
22 300782 291498
23 801759 928547
24 358773 257051
25 454612 759680
26 813419 28990
27 269211 248605
28 267402 787708
29 797222 20840
30 348029 231591
31 437063 815626
32 109481 544605
33 375798 749521
34 190143 736077
35 793940 927944
36 183732 672162
37 494206 732780
38 872778 947532
39 830999 73019
40 379823 249552
41 348177 766465
42 439479 798670
43 334180 849104
44 265424 201608
45 195405 253976
46 347160 777111
47 277539 220698
48 223072 714382
49 792082 450320
50 98112 556359
51 768040 617364
52 237469 777718
53 340826 211495
54 724907 401038
55 406565 873853
56 859305 499541
57 419104 789664
58 208398 744343
59 448206 735870
60 803503 114658
61 733396 569581
62 250972 783962
63 750365 552669
64 257786 308223
65 317284 772175
66 109782 585894
67 270798 242227
68 84112 553280
69 353028 800072
70 364817 262762
71 104687 526073
72 75596 514304
73 722066 567530
74 739572 505293
75 817473 518278
76 170998 762715
77 86899 584218
78 792611 57652
79 870413 909788
80 236138 222841
81 318538 815188
82 88899 530288
83 765426 547925
84 794884 81830
85 713011 534431
86 302145 221409
87 284760 836114
88 778680 619690
89 87979 563692
90 803006 613093
91 358901 279557
92 368556 218160
93 177164 751068
94 806462 570044
95 77501 497558
96 817787 938662
97 759470 124764
98 249835 769435
99 355796 801868
100 219602 725296
101 323148 873009
102 880825 942578
103 75451 553682
104 152269 263378
105 281156 801611
106 412749 796623
107 727864 584613
108 736585 64818
109 94530 599630
110 735932 76519
111 755560 587600
112 331758 842041
113 220914 245787
114 258076 198645
115 404616 841851
116 827463 426029
117 314542 785373
118 235092 783654
119 283914 841236
120 341943 808096
121 375273 749092
122 756778 599503
123 852813 403797
124 427394 761722
125 823085 28788
126 366952 223658
127 819583 388082
128 261222 727515
129 260564 258726
130 351695 767132
131 329686 749894
132 760319 646984
133 237951 245551
134 769086 570816
135 799199 439997
136 834251 933140
137 383073 807354
138 307766 778664
139 822394 907824
140 831373 41084
141 370540 306780
142 787603 588233
143 259702 766439
144 881693 969501
145 306787 226623
146 346955 797945
147 828238 888835
148 210550 771623
149 741368 585226
150 369321 257313
151 321073 297793
152 271126 222378
153 729144 525881
154 793186 956140
155 880015 954982
156 480325 797456
157 62021 515092
158 305913 773192
159 61637 515047
160 343328 846120
161 243397 229084
162 774028 411624
163 797191 403541
164 424686 724500
165 829786 956644
166 815998 493285
167 810376 938918
168 716474 572646
169 79509 538334
170 338172 794865
171 402816 286551
172 254172 230527
173 341396 241159
174 764404 537630
175 700211 510115
176 837604 46395
177 136084 617337
178 834337 103964
179 219385 757343
180 303181 293816
181 244422 260083
182 322064 826053
183 54695 542796
184 849749 25332
185 261891 781152
186 817590 58129
187 245939 700367
188 223376 763470
189 762666 601017
190 836841 947817
191 767980 72597
192 330971 780891
193 798282 562544
194 161754 781128
195 268571 247708
196 307102 780435
197 822008 944937
198 779945 84522
199 836119 916324
200 307897 747701
201 851333 395824
202 351991 255842
203 193236 736033
204 389061 856501
205 302874 719067
206 877373 53012
207 787082 76510
208 805383 85108
209 220110 774860
210 709198 556675
211 805261 902167
212 774434 473859
213 819691 10184
214 260083 285422
215 67503 532990
216 320091 805133
217 828037 957363
218 782679 564310
219 765211 882542
220 192681 191059
221 253211 232190
222 210336 768526
223 814584 930765
224 436932 801693
225 874569 939180
226 244092 791309
227 275377 738955
228 818169 944022
229 788576 924656
230 782555 929287
231 221184 763934
232 200426 734663
233 272508 246051
234 738003 466304
235 347859 756836
236 433863 807639
237 418954 805892
238 93177 585680
239 392777 802312
240 844919 38105
241 695765 474496
242 235637 717553
243 339542 262749
244 325150 256630
245 817330 452776
246 265948 234768
247 754409 630286
248 256241 799153
249 363233 789042
250 240080 804792
251 331328 799299
252 882871 65026
253 807702 559354
254 311907 835955
255 804438 418635
256 864235 904871
257 279617 264147
258 306768 336039
259 776353 476117
260 812909 69840
261 858300 949182
262 851378 897926
263 210513 815853
264 441414 756864
265 809658 457180
266 719287 578174
267 726344 521801
268 791247 67280
269 285054 271122
270 775679 61591
271 217950 272124
272 319056 289164
273 753199 72024
274 248773 223348
275 251006 780172
276 105554 595572
277 350359 293474
278 856059 49513
279 302954 286995
280 814761 406323
281 14403 529846
282 190475 705760
283 450913 752200
284 274452 222438
285 84426 517979
286 216970 756646
287 792251 440604
288 774087 51641
289 203581 755630
290 224104 714554
291 755902 630623
292 328241 807285
293 163839 716788
294 80274 549264
295 210348 775217
296 713102 606921
297 739699 421593
298 240176 739615
299 229811 759591
300 745585 581710
301 85691 556002
302 774780 617786
303 719389 601893
304 833545 961326
305 79398 519690
306 232725 709860
307 253356 747022
308 261636 772965
309 827042 60894
310 349534 237449
311 104561 507376
312 72016 575880
313 402392 787647
314 172702 764828
315 359511 807296
316 310437 784330
317 314507 280943
318 120517 519637
319 315455 792993
320 365559 728170
321 859790 946794
322 103050 481890
323 802865 525375
324 217905 269604
325 800603 902118
326 811198 916012
327 269372 238019
328 221459 763844
329 378710 803592
330 239858 228176
331 230110 242935
332 827837 76317
333 349900 303459
334 418289 778124
335 360365 220961
336 783999 552814
337 314372 242368
338 769335 581119
339 853811 979034
340 332753 299443
341 284305 202394
342 145066 742388
343 307964 757461
344 309120 188515
345 803669 541942
346 210864 774201
347 321638 241245
348 242098 234060
349 774096 380480
350 829120 403998
351 242181 754685
352 453297 777603
353 285994 752111
354 389749 160257
355 810279 123448
356 238511 745915
357 355883 302722
358 792189 414040
359 765986 428613
360 786221 967279
361 253464 284701
362 759714 455201
363 338145 219954
364 765687 429948
365 368091 835031
366 837349 928293
367 458123 790396
368 295959 806823
369 113108 576921
370 772660 59050
371 127275 468247
372 831491 975983
373 57834 534704
374 822578 604659
375 832914 425684
376 355066 797188
377 102633 576695
378 296433 749273
379 451572 728436
380 814809 430056
381 345844 703370
382 761390 41000
383 769474 609060
384 66916 558873
385 460323 797534
386 74289 511553
387 344511 793513
388 755415 438286
389 199622 739355
390 396415 810381
391 344942 787903
392 292024 743290
393 369667 222728
394 139937 513903
395 267547 250220
396 411772 786109
397 299211 824822
398 52078 555882
399 215711 816156
400 69656 432093
401 847179 956362
402 427554 808863
403 352914 799068
404 358479 769128
405 382222 287806
406 217910 798197
407 708365 579766
408 715121 448059
409 429112 786236
410 352573 302464
411 831059 927196
412 297421 217032
413 237833 743136
414 750899 435206
415 796061 872153
416 313469 803754
417 739172 954045
418 200372 711261
419 247181 734631
420 333855 814038
421 73575 628995
422 818675 594608
423 100945 548050
424 328748 773903
425 421390 743276
426 353609 244280
427 228193 239984
428 138022 527198
429 112315 499737
430 349616 773537
431 304501 761067
432 340926 759857
433 793757 639021
434 99829 562402
435 746021 574633
436 765015 589469
437 805323 966378
438 763728 47216
439 884816 876741
440 252396 262749
441 242943 284160
442 820633 434033
443 331412 224151
444 208940 749364
445 771167 534882
446 839800 946338
447 310802 241516
448 740354 612497
449 232269 811693
450 281667 254993
451 327370 237190
452 363888 310196
453 811417 100989
454 379634 791660
455 288688 237043
456 231346 231116
457 785767 900126
458 777447 552444
459 341974 834969
460 400674 256286
461 329385 283952
462 745893 476201
463 884866 879291
464 263479 260439
465 269842 190021
466 817962 589376
467 339823 285674
468 417185 824110
469 221873 762840
470 305374 744975
471 823670 899202
472 194237 736968
473 416743 298345
474 664286 584588
475 768693 451476
476 261840 811147
477 817580 906373
478 722460 535275
479 344712 722609
480 777598 472817
481 771543 609412
482 266478 242287
483 785428 65206
484 109181 548869
485 459775 772058
486 437709 762001
487 361618 811562
488 755085 542709
489 851361 25053
490 404887 312879
491 747993 463319
492 795657 440874
493 810714 950322
494 780682 32153
495 379697 784867
496 801181 423807
497 454186 815280
498 398856 237117
499 835242 990865
500 402725 769205
501 313899 233979
502 302789 270016
503 283927 702709
504 764599 480984
505 755639 596830
506 337377 247322
507 896092 943900
508 763548 563508
509 404354 750335
510 790487 592488
511 836575 99873
512 291651 772691
513 807934 413135
514 785674 965243
515 88437 547106
516 757805 592767
517 783620 570820
518 345788 787529
519 442134 772113
520 758765 103552
521 463636 822900
522 780476 92592
523 298546 787334
524 410376 795722
525 341808 280675
526 135125 525542
527 791829 561533
528 221732 745053
529 459588 821718
530 286751 212618
531 83764 537392
532 144559 529139
533 378650 793369
534 794714 456831
535 797693 541447
536 423253 763169
537 437258 809891
538 809245 436117
539 846230 932255
540 702414 576447
541 319637 219584
542 772639 585678
543 79840 533382
544 154696 466167
545 202713 739467
546 218903 205617
547 826638 507797
548 788168 872557
549 237173 748094
550 780270 60863
551 765084 69667
552 866357 990646
553 110194 571671
554 390528 262923
555 813379 938448
556 781544 85199
557 785087 416613
558 87937 522988
559 76529 534003
560 34925 586133
561 794010 900455
562 832730 972776
563 264670 286438
564 334369 743334
565 216510 727942
566 753299 40843
567 844689 894721
568 417034 761726
569 870456 27943
570 241674 761552
571 315831 765230
572 724701 596158
573 341645 275583
574 822144 1010315
575 807098 924969
576 338950 819835
577 829292 99467
578 787259 481261
579 316319 291915
580 847496 883545
581 871975 59935
582 248743 774630
583 764138 544872
584 419456 715797
585 814388 23323
586 480891 804434
587 196206 770879
588 377020 801666
589 407402 793120
590 354111 868466
591 266114 801455
592 757718 599706
593 757930 586978
594 377956 748531
595 272478 788649
596 755135 591809
597 394404 247040
598 364915 731741
599 328347 771912
600 844234 870820
601 812017 561129
602 795889 922966
603 740664 600565
604 850663 966303
605 802655 578164
606 462362 762123
607 373906 792416
608 431337 792601
609 744825 524624
610 847997 22009
611 739529 579698
612 862976 939844
613 750047 531778
614 72685 570233
615 231665 292915
616 367178 760910
617 212986 755049
618 327495 778074
619 819839 939599
620 768350 394431
621 207395 264065
622 840603 988036
623 809315 1002760
624 220959 718845
625 790033 936622
626 794719 582352
627 330241 777217
628 262305 705076
629 258454 248764
630 326296 844827
631 322593 771466
632 361534 276059
633 752712 553503
634 200801 725551
635 891116 920362
636 93250 557003
637 334451 284802
638 298319 241655
639 760932 447888
640 786360 410484
641 259437 257610
642 840774 430895
643 771300 924082
644 835243 37598
645 817929 39288
646 378310 771860
647 230084 272803
648 216655 713123
649 277493 317717
650 370112 236018
651 236023 774214
652 373814 287253
653 771694 944739
654 807455 405531
655 771067 427430
656 755874 486779
657 252672 777201
658 783837 514735
659 737380 66826
660 362262 847509
661 431203 825339
662 320491 809065
663 817068 94705
664 807168 113130
665 307904 788101
666 412799 777631
667 374784 781323
668 799886 364372
669 371523 266338
670 90949 561579
671 778473 581590
672 318274 300575
673 852687 977818
674 201372 773012
675 318322 816106
676 258108 774570
677 349215 239285
678 102274 534851
679 320482 782213
680 729249 522113
681 334021 224785
682 360495 272329
683 771312 555263
684 372600 808021
685 440807 844242
686 336452 195302
687 800675 24427
688 259356 270218
689 408046 779982
690 828863 956388
691 363580 840852
692 781454 619830
693 849150 966297
694 251328 247492
695 831279 61274
696 264709 193311
697 254273 279191
698 72574 531684
699 241573 720354
700 248171 745592
701 184636 235819
702 825349 27162
703 89707 524066
704 275222 207674
705 749644 34052
706 275745 748462
707 327463 213792
708 771168 548588
709 257466 253060
710 322237 789963
711 809575 625993
712 189986 725347
713 323325 808419
714 812434 545637
715 798326 962869
716 862354 85027
717 794082 12486
718 232968 195698
719 295594 250328
720 166755 790167
721 317315 277539
722 822978 40448
723 345165 796460
724 318695 771797
725 747581 554320
726 762989 41248
727 335361 768209
728 834978 939522
729 295689 210313
730 812748 957162
731 816262 913194
732 799981 67860
733 747680 105527
734 233531 756756
735 791115 571112
736 60419 593897
737 349874 242038
738 835849 927432
739 272434 225548
740 83958 476269
741 843162 7916
742 313980 836125
743 458848 798475
744 497928 784230
745 197397 750762
746 295315 250656
747 836923 439739
748 815760 933550
749 800574 432909
750 458723 789955
751 793710 562953
752 806191 440651
753 209677 237068
754 292411 274608
755 176242 720824
756 775354 435949
757 249726 296113
758 752583 602056
759 796781 61286
760 789917 17270
761 771056 47934
762 250721 208920
763 52635 504931
764 172547 255194
765 78545 532138
766 69323 528894
767 422066 786590
768 795842 863614
769 761950 10922
770 780087 461529
771 860404 904479
772 250337 827762
773 850265 58073
774 238792 736416
775 341122 288938
776 788519 542599
777 202695 714857
778 353338 788186
779 359478 760856
780 375659 822617
781 743325 614413
782 412089 829308
783 819718 119801
784 126897 523900
785 180788 743227
786 219111 225107
787 275714 253080
788 732196 569184
789 273414 761591
790 751426 522549
791 114960 619417
792 270591 256535
793 865892 923599
794 309971 734487
795 826304 452279
796 66580 571385
797 90811 566318
798 319237 761273
799 87900 548119
800 722410 554037
801 80146 587856
802 793834 970126
803 232705 749012
804 233082 737429
805 221303 216939
806 392154 205775
807 280058 255924
808 351042 244343
809 268125 243495
810 819917 450240
811 821318 927414
812 769009 884319
813 723651 556331
814 764909 545711
815 46555 513824
816 808955 15796
817 763613 421503
818 839848 919859
819 887990 970759
820 755561 103950
821 244746 721831
822 777492 504474
823 89850 506841
824 228049 722979
825 102957 536481
826 266751 217111
827 352517 258356
828 884564 931874
829 252705 300955
830 217990 734575
831 70118 571218
832 469148 801003
833 267723 774588
834 805777 85045
835 387650 769935
836 327391 767600
837 428349 781267
838 148741 540451
839 728682 587209
840 731048 537599
841 817235 937854
842 245225 755580
843 433983 806134
844 202592 769299
845 260342 294881
846 269802 771797
847 307604 289950
848 775642 102433
849 33415 602917
850 773649 936006
851 343169 313321
852 212924 747627
853 794809 500073
854 756218 628084
855 110391 600248
856 297582 785280
857 124025 573595
858 767603 461561
859 744627 513886
860 845785 61173
861 825394 948070
862 381993 789337
863 278750 236901
864 853593 928968
865 800911 501585
866 427603 779646
867 172070 736106
868 800381 61634
869 202900 539962
870 385730 846345
871 447878 761879
872 778794 421204
873 234004 719925
874 763609 434822
875 750477 518404
876 261566 222867
877 792153 456048
878 90021 578123
879 734522 575484
880 781148 399196
881 849404 887799
882 380316 767632
883 323186 823755
884 190209 697530
885 491005 772720
886 200266 230727
887 70611 562922
888 800585 970260
889 774561 579047
890 101198 517495
891 789664 420209
892 291841 244454
893 108072 537967
894 813307 987423
895 748801 594810
896 768615 63277
897 336697 799499
898 734869 543189
899 235369 226697
900 855061 66998
901 821096 50251
902 368161 797252
903 845973 942240
904 272180 229502
905 759155 478030
906 245006 735321
907 131150 548883
908 60103 544964
909 92522 563039
910 58811 509139
911 420134 783699
912 823864 1013872
913 219193 757737
914 776113 461406
915 783808 600538
916 789428 76464
917 800172 518425
918 365770 294998
919 239811 792550
920 789360 83167
921 477329 775151
922 330557 757606
923 467513 811561
924 221039 313631
925 326441 814924
926 843378 992647
927 861162 961772
928 247567 323316
929 261729 263274
930 282743 184785
931 765359 391407
932 332859 228953
933 824937 945164
934 325213 817363
935 100364 559351
936 770188 423353
937 414768 298985
938 117706 520609
939 123110 574616
940 433748 781735
941 491414 800474
942 800990 65308
943 873498 900069
944 388429 740190
945 728748 463857
946 734256 97069
947 181009 763517
948 731751 476153
949 777127 449485
950 846328 53986
951 825843 65262
952 130897 509657
953 814133 76167
954 408311 220640
955 796549 436038
956 797288 28985
957 279216 821633
958 293713 191460
959 473599 768749
960 678398 530730
961 745678 554778
962 834603 976026
963 335857 784307
964 409544 822826
965 850207 878294
966 777407 913389
967 90435 525176
968 208398 214203
969 414111 728584
970 287168 229399
971 747775 455003
972 415789 729654
973 494603 774198
974 749864 601264
975 778670 72147
976 305511 770178
977 797835 422273
978 777957 865383
979 423626 738052
980 204929 832579
981 308765 769836
982 772662 421410
983 785494 21991
984 248391 232405
985 340950 758556
986 334580 747064
987 746839 548138
988 730806 534394
989 302640 259149
990 99732 482320
991 192623 770243
992 273840 251175
993 390712 302743
994 99882 577172
995 774120 452959
996 788432 428438
997 742318 437769
998 752927 478009
999 827971 966481
1000 187731 768137
