NAME : portcgen-1300-1305
COMMENT : portcgen N=1300, seed=1305
TYPE : TSP
DIMENSION : 1300
EDGE_WEIGHT_TYPE : EUC_2D
NODE_COORD_SECTION
1 908179 69073
2 493085 763847
3 240636 83775
4 510134 740845
5 118319 77621
6 372278 1025281
7 718952 205166
8 219232 57628
9 757846 188071
10 109076 98860
11 794782 886747
12 147485 41718
13 687910 -16732
14 19704 486435
15 691235 -8573
16 8101 485411
17 742047 -22244
18 684652 784483
19 209193 -3829
20 592179 780214
21 889269 64466
22 519776 736171
23 880139 453310
24 849010 489222
25 212612 47258
26 231422 74195
27 700971 43119
28 750977 71726
29 827543 584997
30 390930 965960
31 576817 772379
32 679811 718753
33 641511 715187
34 123032 16891
35 734080 18969
36 550902 743055
37 226407 50284
38 783279 -47836
39 232627 104883
40 82827 85459
41 239558 26789
42 802722 878490
43 792974 555172
44 867824 45199
45 804060 548404
46 712545 -23792
47 251901 38023
48 206352 65875
49 832506 899439
50 670767 711942
51 819980 605030
52 705201 226830
53 43306 489358
54 874537 77110
55 700367 781848
56 98078 14074
57 793687 578423
58 107315 65924
59 -48065 530771
60 244451 84136
61 221730 60201
62 851036 498940
63 880801 34886
64 385984 982243
65 195712 38429
66 736399 216726
67 513874 725857
68 803208 591929
69 561898 731579
70 36921 467292
71 718006 -9455
72 628605 737034
73 781536 259522
74 783367 219788
75 647980 743817
76 697144 -19763
77 71207 59665
78 865499 102514
79 658653 754471
80 35806 492199
81 703803 11658
82 492735 728395
83 203118 94599
84 387718 957718
85 528166 687294
86 541091 756981
87 222423 120582
88 89351 13276
89 830200 583594
90 -3757 438037
91 525255 773199
92 768503 -16852
93 883605 94765
94 767657 242780
95 785564 580779
96 14009 510676
97 817348 886698
98 832263 47155
99 689558 692024
100 17712 460605
101 804977 861419
102 784928 901202
103 432452 942209
104 82983 84842
105 868841 83571
106 790168 466103
107 837866 104036
108 784080 598488
109 774611 560411
110 554388 750587
111 797278 211659
112 531319 745806
113 906992 466217
114 874547 489185
115 817111 845873
116 381070 969315
117 642565 760372
118 712122 -45985
119 757963 195536
120 188320 68448
121 754388 214063
122 585631 750253
123 94936 65790
124 913458 113884
125 186516 58802
126 762059 584442
127 833688 472374
128 -9775 484641
129 524671 708896
130 226955 105366
131 83052 51412
132 863212 930056
133 41146 502231
134 799049 8425
135 515839 729204
136 240496 -25129
137 878316 61836
138 399470 956840
139 687884 760837
140 774152 533204
141 814099 891469
142 -31046 512927
143 375692 966435
144 195673 59791
145 214978 68601
146 583979 760185
147 834253 100604
148 744761 224076
149 10258 485537
150 818527 536597
151 109175 48766
152 -25042 506618
153 884900 496754
154 27597 501697
155 208152 121688
156 808971 437403
157 427748 887576
158 120256 30983
159 205505 39925
160 824425 554657
161 675288 751077
162 836572 90469
163 8804 486639
164 73190 63980
165 817573 591667
166 -51874 482514
167 717474 30180
168 712251 -9779
169 879832 57980
170 231031 70344
171 833643 546609
172 251440 96095
173 595484 729554
174 843961 539045
175 524569 732884
176 854268 98202
177 905269 466226
178 859744 49878
179 405445 951393
180 839994 73736
181 741120 -8130
182 105569 40575
183 230033 89931
184 760488 -31877
185 -6174 518466
186 902394 16823
187 766133 244138
188 823981 910999
189 805721 91640
190 694936 21715
191 728725 30029
192 7890 511930
193 859422 471809
194 742786 237152
195 721589 -34215
196 770321 561821
197 842435 561627
198 836670 579986
199 835395 860903
200 813808 914446
201 664634 728523
202 599385 750824
203 930830 88901
204 723773 -8594
205 118659 30850
206 516089 756704
207 651595 783532
208 390106 1001117
209 880276 31841
210 32167 475224
211 98354 20890
212 120977 55416
213 696679 724529
214 452205 933583
215 720290 196015
216 715629 4291
217 764195 14670
218 133643 30273
219 737500 226886
220 717627 2518
221 733635 196643
222 718940 32160
223 832536 450136
224 654 473604
225 41476 509472
226 898362 13509
227 709206 25562
228 797016 854994
229 646041 726755
230 470500 734893
231 509451 771186
232 871734 120598
233 874394 869734
234 391102 929184
235 95541 33535
236 218832 123519
237 53000 474559
238 526295 733407
239 169497 16975
240 538669 699821
241 34010 442496
242 766054 157919
243 211203 -16563
244 629412 747482
245 666323 740433
246 881464 86738
247 511303 735763
248 641856 729425
249 859817 93570
250 235087 96659
251 511285 758222
252 693290 9328
253 863932 475966
254 703945 188110
255 901199 140526
256 850859 75880
257 160209 90869
258 74141 473358
259 -15728 447013
260 701773 236187
261 805873 869632
262 14300 536343
263 39239 472073
264 635593 743347
265 690916 51560
266 925487 94097
267 391144 965450
268 25029 447280
269 229836 68627
270 507101 740090
271 680610 771204
272 860459 99150
273 -14220 485185
274 818207 575654
275 496076 742411
276 676174 744149
277 556238 752229
278 799266 617070
279 784006 523418
280 853491 101160
281 467293 721495
282 786556 555600
283 852307 563954
284 26254 528348
285 852383 80770
286 58870 96690
287 857011 57512
288 183463 105493
289 697049 -7399
290 804668 565892
291 -13650 441594
292 398682 945436
293 219561 84420
294 832920 524297
295 796006 240098
296 822037 35289
297 843358 69814
298 792763 615261
299 769038 222632
300 765884 213891
301 236272 25337
302 690456 22379
303 845307 564761
304 76586 69643
305 77457 42045
306 259272 57483
307 202849 56792
308 243764 111741
309 855625 501767
310 234675 107231
311 121822 115286
312 873921 479836
313 13132 476807
314 223813 101524
315 865447 56400
316 818548 619003
317 71089 480601
318 673269 761465
319 109252 50452
320 479401 744087
321 251239 84502
322 194874 43167
323 793659 895641
324 594620 728456
325 848570 886229
326 129980 96019
327 896487 51520
328 -13168 489718
329 343204 908917
330 850751 429958
331 799939 913685
332 850324 80491
333 112039 21691
334 774601 168074
335 506979 737246
336 269826 110520
337 -7392 542286
338 351431 956574
339 738944 27621
340 544096 777427
341 800433 562857
342 117681 62531
343 747746 -10245
344 203383 38203
345 762795 -55121
346 754465 -6050
347 159322 87407
348 795563 222764
349 617468 751125
350 31154 453997
351 782981 625934
352 735322 208358
353 22228 500216
354 215883 32381
355 75351 21674
356 679105 756170
357 555252 729289
358 148666 80619
359 26202 521496
360 540573 749979
361 883740 63088
362 715877 167569
363 765763 237085
364 732833 197831
365 642494 715029
366 399928 919361
367 636581 742608
368 105890 82694
369 859149 57184
370 180265 54736
371 802136 810771
372 730994 16160
373 848002 570781
374 16368 431454
375 858834 444346
376 906850 435884
377 207259 3291
378 255807 81646
379 683489 203713
380 215530 65647
381 803610 214381
382 512535 716139
383 743194 -9287
384 868957 466172
385 751559 -24326
386 810622 832199
387 830437 938420
388 39936 496478
389 784029 586969
390 877663 96047
391 792016 182743
392 775826 237280
393 257364 67409
394 664036 787409
395 191025 43878
396 885963 89180
397 224198 63189
398 869674 103356
399 513017 767753
400 703175 41517
401 262328 26983
402 773106 564794
403 834813 437827
404 796639 871545
405 898126 46379
406 370085 927506
407 35034 477366
408 78071 12631
409 239770 63633
410 543078 739383
411 863805 916745
412 65288 37618
413 557690 744525
414 884486 471902
415 -38704 471667
416 53039 490978
417 629316 744112
418 94626 14489
419 737296 248238
420 119773 52262
421 756996 -35136
422 391735 971629
423 727597 612911
424 240420 56611
425 647259 735440
426 388174 930336
427 121879 63574
428 62353 520832
429 527352 758663
430 762959 -11989
431 377197 938218
432 788214 885998
433 865068 465569
434 947539 59397
435 909617 476048
436 26792 496993
437 887490 91212
438 517167 748636
439 850840 92403
440 814871 570830
441 626157 729237
442 54981 16949
443 171870 36963
444 -2533 446362
445 237602 62851
446 818605 917915
447 877572 464240
448 836349 28073
449 551170 776861
450 863794 76884
451 563975 741787
452 875578 67650
453 38195 504809
454 809227 554680
455 51703 40986
456 394807 994607
457 204343 74248
458 573018 717978
459 710505 -13723
460 797278 617629
461 516962 749628
462 182118 61856
463 68082 51803
464 195017 33928
465 236250 43467
466 185316 -836
467 8205 504004
468 76574 24985
469 771286 229327
470 526586 680522
471 422291 932468
472 29688 51155
473 798943 615902
474 658051 738633
475 192963 37986
476 769394 176161
477 891700 426820
478 749629 -9872
479 900384 504009
480 501284 803480
481 60080 55250
482 218407 37879
483 389525 936328
484 38876 439542
485 10788 479374
486 790904 535198
487 550017 758924
488 734625 200923
489 221079 86027
490 826506 539979
491 877387 908885
492 623280 746185
493 797474 975034
494 801760 544459
495 792898 843848
496 142557 65328
497 536726 721458
498 388765 943731
499 853253 525648
500 715260 236678
501 8231 491436
502 399034 927872
503 219741 61997
504 33281 511628
505 804329 489443
506 594393 699235
507 235524 95297
508 827113 895189
509 910617 460203
510 790496 152967
511 114350 44337
512 835892 39893
513 391918 961527
514 803584 30677
515 553754 702203
516 858314 41012
517 785252 167710
518 166187 95309
519 764123 207288
520 661100 733152
521 738977 551590
522 410188 984461
523 744665 780229
524 787255 208568
525 531244 738916
526 223468 76959
527 223869 28041
528 544026 718054
529 760896 34918
530 202628 89327
531 716437 39840
532 536639 738645
533 766310 548510
534 428274 944731
535 691608 760781
536 175139 7462
537 690200 760687
538 868364 520178
539 875402 52595
540 269977 68637
541 877293 87882
542 248404 108901
543 609304 754944
544 350256 982925
545 933972 493731
546 870012 484783
547 229841 54399
548 100291 35770
549 734903 12733
550 738878 237472
551 247441 67005
552 -17389 473875
553 159675 77164
554 849372 615253
555 671817 -9002
556 866661 502396
557 388792 960677
558 226709 55167
559 810023 864040
560 190214 91075
561 764119 216417
562 820337 921656
563 836358 906962
564 68145 41063
565 234003 48096
566 822549 623975
567 773192 596193
568 78499 70454
569 796879 570225
570 824818 842942
571 940628 66062
572 846108 568642
573 665641 717050
574 816345 927751
575 745255 65557
576 896014 481233
577 196013 51757
578 81687 26036
579 778318 906943
580 883537 62566
581 76731 478869
582 816307 202812
583 896532 51473
584 209599 32677
585 765150 -11370
586 550108 712819
587 267424 111276
588 653788 759539
589 43463 424187
590 404212 986270
591 838975 449616
592 80653 60326
593 75658 112737
594 743591 239857
595 756139 -12029
596 819888 583842
597 210377 10852
598 868207 424058
599 -19831 483540
600 662116 718932
601 841570 487670
602 224085 112380
603 910442 75713
604 227594 81237
605 711749 -33579
606 875944 21082
607 62435 481896
608 229641 56879
609 556032 763139
610 809371 857307
611 258826 1086
612 879733 451974
613 875798 509758
614 137726 69141
615 760923 -15842
616 759055 197469
617 567659 746824
618 776752 556151
619 907365 472247
620 67088 50820
621 407745 942473
622 410918 1010631
623 823995 567945
624 837669 490096
625 121062 20140
626 6546 465634
627 407575 961471
628 343445 990430
629 483200 746628
630 856554 477189
631 434869 954525
632 836678 512964
633 713104 250636
634 842648 71723
635 828577 573110
636 124897 64813
637 629833 754440
638 772885 44841
639 817616 553715
640 863463 503550
641 685086 6370
642 58879 459178
643 829452 900804
644 749098 188893
645 795130 592923
646 812879 895645
647 55087 470897
648 877539 51196
649 371297 966023
650 790066 589732
651 903942 449662
652 858553 459578
653 252531 59778
654 783043 198012
655 779312 631127
656 859698 486781
657 789090 179934
658 814285 866134
659 625637 778963
660 -15225 491085
661 111984 125350
662 696364 14286
663 187275 47388
664 78907 55705
665 885127 497197
666 791740 561678
667 752582 254286
668 884658 484669
669 149729 81621
670 874459 481595
671 670887 775674
672 515050 709131
673 821356 905011
674 523359 707046
675 745854 -3422
676 799630 599439
677 848876 65948
678 659071 768116
679 857557 461443
680 184424 30391
681 528192 693405
682 11945 536411
683 235445 18390
684 872270 837350
685 278786 32331
686 381351 895569
687 809792 600551
688 822472 578227
689 707658 -70537
690 777809 494931
691 788957 876978
692 249428 24922
693 533707 767951
694 781490 635166
695 370082 957246
696 882774 46406
697 869605 494083
698 84670 72404
699 848115 939397
700 859102 63973
701 893712 521793
702 882356 436199
703 812740 918440
704 769331 219033
705 532710 709101
706 873827 41175
707 841194 875718
708 202327 23211
709 685806 734015
710 883404 459032
711 18126 467650
712 238736 81505
713 917392 507345
714 748271 164271
715 789476 226232
716 652891 762385
717 759614 572953
718 763318 249859
719 772924 877659
720 895812 33329
721 857352 890126
722 -4754 441125
723 794691 601314
724 15108 511821
725 914430 77248
726 895007 511914
727 836428 116224
728 525170 750978
729 838668 41009
730 749768 228524
731 51362 540452
732 174805 82817
733 428462 935623
734 197353 71320
735 752991 208255
736 869296 53190
737 205357 42643
738 88034 61986
739 651932 751575
740 939662 463427
741 908137 504930
742 810308 915529
743 873983 43603
744 541944 724574
745 228148 97128
746 871265 531866
747 721809 2850
748 40438 455631
749 86292 27986
750 226171 107559
751 224026 75201
752 820215 238638
753 208343 79397
754 666691 734563
755 196673 30590
756 890429 44736
757 909158 496334
758 781516 202842
759 -3758 448790
760 901199 528393
761 812803 598236
762 182288 43577
763 114995 60347
764 760374 240961
765 852107 78579
766 438961 944331
767 479866 732875
768 384066 957704
769 749267 172368
770 410294 934091
771 886707 534319
772 799254 893918
773 832078 618803
774 864036 522203
775 858404 835771
776 827851 603357
777 884012 506690
778 865853 70275
779 815678 177759
780 798365 623132
781 930362 114113
782 246111 46051
783 767549 561638
784 868682 458340
785 820498 67937
786 118772 81138
787 97220 57278
788 40945 477375
789 857917 456395
790 206384 73498
791 877893 455003
792 867283 453700
793 237972 85500
794 218793 77135
795 813594 575138
796 892870 476309
797 208253 9655
798 846538 29099
799 213006 145576
800 35491 424018
801 560320 732646
802 685541 764625
803 257471 68966
804 737908 34942
805 827248 578795
806 416054 911111
807 739437 -11364
808 -42684 515230
809 376437 964056
810 543009 766078
811 21427 480175
812 868233 895612
813 236852 31854
814 766007 29813
815 645489 754757
816 35141 512411
817 772719 576760
818 771527 250697
819 806888 882977
820 701896 732144
821 898255 111264
822 876346 56955
823 231751 77386
824 753948 -10706
825 566188 739828
826 36279 469640
827 731799 222186
828 519403 728122
829 374593 963026
830 732221 219635
831 190060 82882
832 749058 275109
833 401929 949840
834 387203 957026
835 775338 178184
836 233848 51354
837 201613 67992
838 115511 493589
839 11546 427204
840 838373 883864
841 212538 55557
842 708002 21983
843 224855 64876
844 743606 550259
845 858875 87665
846 220333 49104
847 82837 67524
848 707153 205874
849 402836 945024
850 387095 1021653
851 103177 63129
852 849926 604847
853 796630 171164
854 196254 85385
855 406729 994675
856 796547 906156
857 891307 45661
858 236961 84850
859 237417 74183
860 848847 103548
861 220571 64897
862 841370 843796
863 219705 49834
864 481770 784641
865 723412 34936
866 84901 101445
867 369633 947475
868 807 482280
869 398993 944452
870 162115 43447
871 826219 533841
872 819096 473723
873 864356 474518
874 723907 16942
875 225435 85127
876 394786 962031
877 90985 78181
878 76433 85551
879 213087 46475
880 369640 891169
881 69670 72996
882 521369 708951
883 905225 68581
884 849298 94170
885 21317 446651
886 704734 -41333
887 408794 948726
888 862962 21449
889 223913 20711
890 788003 548897
891 96308 85719
892 56490 469051
893 405316 1006675
894 640494 701581
895 779888 580963
896 642060 765105
897 497128 744466
898 234413 -25205
899 788469 858495
900 901536 80328
901 668145 733047
902 492837 778821
903 790176 527487
904 33281 437320
905 736336 249364
906 809338 894537
907 760230 551354
908 841568 489447
909 652165 747413
910 384751 956732
911 631642 784937
912 68736 77914
913 877118 507261
914 255991 95553
915 873899 474741
916 522131 718229
917 216574 29639
918 844502 87769
919 -5409 490500
920 98252 76430
921 400675 958124
922 533800 699538
923 91022 73368
924 -36598 481595
925 261560 14328
926 487940 753961
927 844129 939168
928 851399 831766
929 809100 540857
930 387662 989938
931 752817 253435
932 -55691 531059
933 903434 95510
934 805271 558299
935 854646 96037
936 804273 900483
937 649336 707549
938 860529 69619
939 426286 991371
940 387105 920342
941 523590 727908
942 832845 438992
943 202984 68710
944 225110 24348
945 663241 733449
946 516324 724539
947 714241 27568
948 35669 510838
949 818583 823404
950 746310 13046
951 -17913 529964
952 798250 883747
953 808869 849171
954 23506 531661
955 484749 751164
956 51393 13462
957 -9684 455302
958 436481 966181
959 716495 -6626
960 430731 962362
961 803027 912185
962 -5188 502234
963 817904 577372
964 48420 62877
965 537557 733759
966 861743 56861
967 821713 909095
968 812794 940648
969 521818 756459
970 251738 48245
971 430416 992808
972 859857 560459
973 810072 216146
974 627990 782968
975 757262 237136
976 766137 543686
977 782049 197420
978 517421 799269
979 363256 989503
980 601685 690775
981 615413 756988
982 66078 19574
983 397347 974397
984 47197 505714
985 11086 505102
986 246300 13282
987 95291 19357
988 82729 66667
989 123382 49354
990 795680 902108
991 506672 741030
992 881587 486995
993 258948 118432
994 792868 576843
995 801669 244481
996 853080 31746
997 24546 462865
998 355752 928169
999 399556 966519
1000 725745 35263
1001 218578 100005
1002 237458 93097
1003 804165 840149
1004 131017 41633
1005 819624 588594
1006 847201 459268
1007 255439 75319
1008 209787 69249
1009 475051 743217
1010 504569 750750
1011 254649 36858
1012 844954 547890
1013 697607 716178
1014 898485 466833
1015 661346 799452
1016 657465 744979
1017 605145 751561
1018 632852 788458
1019 218400 96634
1020 614929 750388
1021 858355 583332
1022 625945 757538
1023 613991 731667
1024 227528 77384
1025 764072 555093
1026 217228 79844
1027 850062 794283
1028 829868 54727
1029 477330 801750
1030 394887 933087
1031 97796 44229
1032 500385 755566
1033 843312 73721
1034 753095 31663
1035 759081 552181
1036 71538 485583
1037 807091 882619
1038 115311 62892
1039 859213 856325
1040 48771 486925
1041 284052 49204
1042 890977 400308
1043 554107 790135
1044 182007 41320
1045 847862 882339
1046 227362 52641
1047 872862 446784
1048 782351 562586
1049 779337 40061
1050 797254 545988
1051 740018 181867
1052 505243 756519
1053 873581 66785
1054 653479 750571
1055 822175 887105
1056 823622 868857
1057 524724 743523
1058 190774 36957
1059 748819 202628
1060 815877 909830
1061 366226 913208
1062 822425 27489
1063 716368 222109
1064 78534 59028
1065 227401 79008
1066 878218 104529
1067 835638 636706
1068 721867 18239
1069 811805 569470
1070 860203 495668
1071 520807 766343
1072 626057 780231
1073 127814 71520
1074 868664 485881
1075 219302 69336
1076 927609 452137
1077 80544 -1386
1078 749924 243624
1079 861610 58870
1080 443288 974846
1081 774173 887413
1082 115071 10182
1083 129394 83272
1084 118288 41285
1085 217068 130174
1086 812695 913567
1087 722183 23695
1088 221096 82461
1089 580116 737398
1090 725266 26545
1091 897820 490521
1092 280558 84242
1093 207700 51006
1094 892931 88991
1095 43974 525865
1096 111633 11188
1097 47843 485123
1098 697872 5130
1099 449738 740196
1100 254104 92558
1101 843885 926191
1102 600398 774625
1103 810768 541592
1104 710504 36235
1105 54272 487307
1106 821170 889976
1107 644047 754848
1108 541587 758028
1109 826450 10961
1110 241103 87502
1111 878360 833145
1112 756244 41558
1113 146815 58031
1114 734548 1761
1115 232333 70026
1116 884920 42437
1117 503054 706161
1118 681664 757155
1119 822025 887761
1120 355120 945337
1121 99032 74705
1122 774185 189530
1123 913738 417012
1124 356238 951730
1125 772497 219898
1126 686478 747136
1127 787126 863624
1128 556521 759844
1129 855794 500872
1130 723306 35519
1131 18729 481085
1132 897550 20586
1133 576866 739014
1134 524020 782402
1135 544084 695017
1136 377339 954200
1137 41980 490657
1138 734630 -12181
1139 870845 89257
1140 764055 231371
1141 739965 -12029
1142 29152 482570
1143 765380 258763
1144 791708 532926
1145 835396 579983
1146 895084 118432
1147 781128 180493
1148 900680 456340
1149 692223 -24952
1150 667480 744868
1151 768861 549973
1152 66309 32175
1153 214205 46291
1154 530676 744849
1155 588622 748499
1156 784800 49499
1157 779509 243665
1158 726994 -2123
1159 726010 7560
1160 827606 59398
1161 925929 84516
1162 802644 874962
1163 604009 800431
1164 766029 241241
1165 910028 508406
1166 88723 80815
1167 88519 40264
1168 781484 861696
1169 208821 94637
1170 2097 489527
1171 358152 941601
1172 882511 99967
1173 818551 595786
1174 882740 62186
1175 852580 65274
1176 802016 868378
1177 94758 83534
1178 71482 38483
1179 464714 747285
1180 50101 97087
1181 664076 745314
1182 803311 855349
1183 839389 916933
1184 406081 952142
1185 191002 56590
1186 898802 102105
1187 877989 91283
1188 542631 754481
1189 446523 944102
1190 751347 609936
1191 785370 880274
1192 559661 781308
1193 835883 62416
1194 689875 -46775
1195 821481 486736
1196 250267 20203
1197 785911 543342
1198 87155 109521
1199 35082 544208
1200 623201 738292
1201 813035 616198
1202 708307 711054
1203 67319 81911
1204 16149 417466
1205 772450 18302
1206 519025 761859
1207 889661 517685
1208 853542 851749
1209 572760 783578
1210 875978 53930
1211 841949 102020
1212 702257 747702
1213 712962 -12049
1214 35132 484102
1215 490173 758293
1216 673465 738454
1217 843373 -4787
1218 766162 206722
1219 30339 509146
1220 108770 45022
1221 678379 771789
1222 889010 79907
1223 847157 925016
1224 913200 81985
1225 661030 749258
1226 640048 755008
1227 774988 217521
1228 734353 5762
1229 892401 433811
1230 260384 59493
1231 802188 887684
1232 673044 6880
1233 812196 251800
1234 811100 73242
1235 709545 -44675
1236 385617 946641
1237 813560 562374
1238 222620 86749
1239 20540 443083
1240 328816 983879
1241 225871 78535
1242 -32860 522001
1243 18121 467126
1244 742575 -1301
1245 833206 422140
1246 760643 175982
1247 768294 27043
1248 885876 444360
1249 582670 773556
1250 247596 102904
1251 773288 219816
1252 383279 936689
1253 526640 753390
1254 691572 748518
1255 773010 238606
1256 270550 116051
1257 751247 271698
1258 13702 447474
1259 413140 963921
1260 861191 68892
1261 521768 764232
1262 520177 764766
1263 801228 861235
1264 625209 713079
1265 264217 78010
1266 258575 90011
1267 239162 95679
1268 395026 953708
1269 217854 67872
1270 23261 469142
1271 531363 689909
1272 706815 234835
1273 665331 738252
1274 648571 748089
1275 174269 22387
1276 698599 759931
1277 640560 707614
1278 709500 -5518
1279 153730 79376
1280 188978 52843
1281 469280 690231
1282 898899 457833
1283 758144 210984
1284 572823 699961
1285 821236 457902
1286 75412 52580
1287 483170 720660
1288 798705 890717
1289 688947 736168
1290 776039 565580
1291 791427 572631
1292 200086 66312
1293 34720 452624
1294 597503 758689
1295 254363 16052
1296 101585 48446
1297 723884 268578
1298 902135 96302
1299 563569 720568
1300 860060 84713
