NAME : portcgen-1100-1103
COMMENT : portcgen N=1100, seed=1103
TYPE : TSP
DIMENSION : 1100
EDGE_WEIGHT_TYPE : EUC_2D
NODE_COORD_SECTION
1 310562 397486
2 853749 372052
3 273490 959469
4 505529 775990
5 259828 278072
6 -7775 415272
7 503585 782195
8 265533 323894
9 113755 264831
10 280374 382699
11 836994 392473
12 150785 854690
13 490145 807936
14 332015 886773
15 260371 361193
16 14175 143041
17 253752 983685
18 432861 968472
19 254360 273924
20 332836 346810
21 387583 903543
22 -5642 411902
23 145213 835121
24 281155 996084
25 -2127 132522
26 864173 399781
27 259232 968111
28 501799 730064
29 6592 416855
30 184882 327469
31 454599 945651
32 43878 159619
33 9499 212526
34 519925 830388
35 349356 395477
36 34266 161529
37 449193 992307
38 393929 866395
39 350324 828602
40 5743 191768
41 238943 288167
42 382848 883224
43 59966 373369
44 219668 225990
45 297204 1023909
46 122821 306267
47 876348 389952
48 891063 374273
49 118380 814072
50 18190 370936
51 253978 307339
52 172410 313829
53 152628 280282
54 830620 417847
55 139359 261796
56 319165 880374
57 258092 973517
58 301095 925758
59 268660 993402
60 881006 408984
61 268988 994271
62 395972 383236
63 287636 958082
64 166379 286217
65 -13021 412632
66 -38990 410569
67 262052 350086
68 125040 854600
69 344893 756737
70 177533 276835
71 861168 370625
72 330591 425256
73 21477 489513
74 239790 968350
75 376773 862709
76 400391 749870
77 78904 462179
78 33998 402848
79 365305 363421
80 276873 308912
81 253133 264748
82 292778 1000049
83 385914 868405
84 63921 145225
85 76939 182790
86 482792 764151
87 452837 791854
88 464751 993197
89 216639 311287
90 155583 854151
91 53130 217387
92 12175 407986
93 301398 454478
94 263563 323744
95 899230 403584
96 112309 853806
97 509291 751698
98 388401 1027809
99 823337 412283
100 127676 820681
101 290557 938779
102 376558 782178
103 835368 354657
104 468367 803021
105 123146 839543
106 499623 740785
107 471830 809563
108 23811 173667
109 287453 950159
110 48247 500848
111 437198 806097
112 924168 394913
113 241441 284094
114 280750 400118
115 152871 837221
116 836630 400530
117 146668 278185
118 226774 316153
119 20635 199594
120 128878 216177
121 242387 292475
122 511969 880109
123 233474 226423
124 436865 1012635
125 90059 160593
126 379721 842978
127 321306 411723
128 280641 360885
129 331550 859763
130 210029 297411
131 408167 1025881
132 276220 364858
133 229062 980977
134 105777 852551
135 910152 374191
136 526053 958885
137 311842 948385
138 519680 861578
139 301103 379454
140 123328 827849
141 12970 395750
142 857384 439958
143 839167 437982
144 514483 786460
145 869699 429093
146 142150 787595
147 368393 827660
148 887293 469515
149 61598 143043
150 301052 408805
151 318536 350619
152 -22753 212347
153 315889 359602
154 326440 413691
155 341111 376443
156 178543 828508
157 946188 401185
158 928907 433531
159 387439 387843
160 289234 383606
161 79436 174262
162 189476 249365
163 258658 379284
164 153177 319807
165 217958 968282
166 251009 278269
167 280227 951515
168 220771 317591
169 882562 376597
170 291126 990619
171 280423 307794
172 847110 392942
173 2980 202356
174 480939 767847
175 90963 426954
176 270799 299944
177 440427 996676
178 472041 1014028
179 414223 1038188
180 824079 410303
181 313869 440642
182 -327 443517
183 486253 769526
184 216944 288771
185 478938 788999
186 16494 161921
187 423082 992870
188 827957 402503
189 868739 346391
190 451005 807335
191 442610 753613
192 309071 966070
193 462056 788984
194 67785 457938
195 479972 1019277
196 23267 416796
197 365430 419921
198 258208 307329
199 476303 1039382
200 252838 1040834
201 275740 441004
202 318762 398085
203 16155 209250
204 347765 298491
205 61437 177692
206 334136 1013466
207 304630 346108
208 300215 977247
209 166193 293209
210 26703 433839
211 385780 919888
212 195796 218490
213 169315 237512
214 446877 986956
215 290102 920066
216 289682 441669
217 337451 421192
218 60580 205785
219 303985 268934
220 151759 834620
221 851089 358926
222 293146 404225
223 314284 445922
224 452149 970464
225 -23016 422116
226 312455 999114
227 28485 131355
228 234369 911147
229 358091 865871
230 192690 215090
231 28876 395206
232 273525 926841
233 128511 255789
234 868858 402249
235 339363 851284
236 256859 309200
237 264336 1003886
238 338258 856399
239 80559 253755
240 436681 929118
241 291928 964220
242 283100 326705
243 -6826 426465
244 428042 1015725
245 480600 979003
246 353571 393347
247 823682 358992
248 59604 436796
249 487662 795695
250 254528 986784
251 120306 240065
252 121640 181324
253 135490 293765
254 287235 933185
255 148457 797223
256 897621 439556
257 867734 363552
258 294836 947837
259 323261 1006362
260 239271 995054
261 230007 301112
262 8567 419237
263 896288 415840
264 491653 750174
265 69755 164772
266 335458 846647
267 350421 903551
268 119586 778786
269 33555 143828
270 819845 384837
271 380597 849081
272 302292 413817
273 177055 807815
274 463059 862588
275 310623 360547
276 333456 367284
277 450102 1018810
278 521201 795982
279 1068 397957
280 479593 807467
281 146678 833679
282 30642 396525
283 246456 985705
284 472114 819943
285 403761 1010943
286 373012 944036
287 463489 778972
288 76522 394004
289 441164 999124
290 902116 368675
291 166792 268787
292 455542 779038
293 158097 282244
294 32549 144648
295 495201 757638
296 331497 433738
297 7040 399828
298 430437 983338
299 345386 863075
300 812501 429948
301 241078 287333
302 371962 1044107
303 -13953 142502
304 168882 284651
305 429085 944757
306 525205 831500
307 231373 254028
308 312331 996028
309 297515 842590
310 847975 394066
311 480117 813792
312 472581 800738
313 436373 960892
314 2952 395617
315 106763 251699
316 840639 375970
317 254791 226590
318 331273 362199
319 207638 223565
320 366983 381998
321 318136 349673
322 -24054 392341
323 478363 1022267
324 456663 1027630
325 416095 836339
326 164745 821937
327 219314 225706
328 107847 851094
329 204074 242991
330 402110 863708
331 866096 422313
332 487911 767238
333 840033 351553
334 106287 299776
335 19911 203854
336 288172 388075
337 405284 471451
338 316041 319123
339 141664 799488
340 -59481 176722
341 396182 1003812
342 317083 401059
343 74196 237870
344 133626 850757
345 505391 765423
346 51999 840614
347 274301 335199
348 460332 977655
349 289819 996512
350 263495 365491
351 233487 316869
352 457526 772118
353 851929 424508
354 903119 391520
355 359761 409062
356 28006 442603
357 237342 342167
358 305863 389569
359 508581 809620
360 839777 372404
361 169815 323158
362 32347 436094
363 310712 301222
364 161254 319094
365 395268 973532
366 313638 382408
367 255104 309118
368 160310 300639
369 200776 237515
370 2630 397280
371 156191 803906
372 833748 389229
373 52998 412354
374 46753 430792
375 66 437928
376 144526 813701
377 269009 951796
378 160377 289271
379 174741 281282
380 123098 311744
381 181555 248895
382 435898 1025885
383 57193 143214
384 198216 861130
385 360045 873716
386 179646 242930
387 269376 427531
388 232560 270828
389 442388 734383
390 317624 362877
391 233110 386780
392 210753 278747
393 24672 160958
394 574924 791681
395 220648 310738
396 121453 877397
397 277144 370411
398 864784 411352
399 276528 308113
400 264802 1002255
401 -9556 121504
402 6415 161909
403 73208 222262
404 534688 863702
405 13927 426880
406 309534 942146
407 527544 814446
408 277340 376641
409 514802 840272
410 469852 991188
411 228114 997750
412 119465 812073
413 -31170 472627
414 271453 364104
415 271174 312331
416 458138 1010412
417 340905 423741
418 294674 983867
419 37118 194801
420 298336 1001817
421 102095 778507
422 247028 1046733
423 390510 1064183
424 502510 826622
425 254778 294734
426 233323 331568
427 902544 384408
428 838888 383609
429 328001 849755
430 374074 817278
431 177628 328381
432 261026 248794
433 229285 298695
434 22397 428247
435 866412 388001
436 442740 822873
437 20322 181143
438 868629 410828
439 407713 973365
440 400031 850753
441 32089 163758
442 -6601 190820
443 471014 787008
444 274429 267781
445 255357 937592
446 502928 784195
447 481492 845833
448 250745 359386
449 159893 825027
450 315847 933188
451 863010 377288
452 118443 813237
453 -6191 465175
454 234728 290282
455 213588 304015
456 527053 805789
457 382367 859158
458 193269 302834
459 366067 401673
460 863375 447304
461 314305 362383
462 50918 391055
463 7617 440352
464 849692 398891
465 298590 378271
466 314032 442400
467 290731 951805
468 874954 424491
469 76126 179190
470 329125 351657
471 195323 769501
472 225701 239395
473 40314 389706
474 152423 273508
475 74576 209561
476 862089 405122
477 330975 831607
478 3774 395364
479 446213 822326
480 445247 787124
481 458301 838094
482 315808 849803
483 900135 367474
484 856717 430175
485 497808 984251
486 459305 769606
487 276842 899559
488 523160 754996
489 64707 112954
490 942020 351881
491 357161 383794
492 376081 377258
493 268923 318300
494 166549 784898
495 870115 366860
496 88793 176738
497 482061 812520
498 335919 384283
499 317566 373508
500 144018 801252
501 420336 1009325
502 468461 995424
503 145198 832471
504 438377 1004915
505 840453 414872
506 369071 830163
507 57849 160200
508 36757 395811
509 441547 793567
510 277807 966439
511 -5761 438312
512 362965 829230
513 497474 770670
514 901435 368822
515 48971 195313
516 523636 798675
517 456124 955629
518 11269 483692
519 337773 407679
520 -27929 423791
521 303953 260169
522 128460 824403
523 892939 403857
524 102520 788463
525 377290 416398
526 -24257 205159
527 476899 817815
528 365174 852456
529 -355 414342
530 324354 299309
531 467346 823556
532 17071 167996
533 505471 777906
534 886288 415900
535 -25816 454686
536 80586 876804
537 856720 382229
538 414338 851670
539 518547 791996
540 328497 381440
541 495363 772293
542 77963 207056
543 861310 447157
544 345562 354460
545 451402 750600
546 -1915 456201
547 844529 347981
548 412805 1001604
549 273137 965288
550 242914 312774
551 308367 859432
552 198835 224384
553 51573 230846
554 233915 973294
555 122027 819683
556 345624 397652
557 163887 823687
558 460066 947113
559 347640 818203
560 475447 812981
561 1984 480397
562 311643 368024
563 434105 967719
564 891411 382069
565 421025 952261
566 127466 826582
567 44100 209871
568 113507 792400
569 422039 1001371
570 285578 951983
571 21048 458886
572 450870 1064725
573 58224 162723
574 466229 981495
575 317053 1029650
576 57770 146907
577 392959 873084
578 476080 796347
579 341763 405276
580 822017 372789
581 462596 792184
582 308684 353132
583 247580 329856
584 470532 756146
585 345373 829368
586 355989 827842
587 171660 767591
588 34829 117662
589 16598 383185
590 272504 311359
591 866101 389377
592 436100 949319
593 328295 408288
594 495070 734872
595 888971 332215
596 128084 309083
597 299992 937390
598 452977 957786
599 472814 819509
600 406116 963419
601 874909 389631
602 155166 819108
603 151192 302095
604 240181 977104
605 515926 778906
606 199204 253720
607 -20170 402964
608 299217 1006317
609 264929 983483
610 42024 420365
611 470057 917028
612 270755 982019
613 433624 1005136
614 101029 849333
615 -36323 167088
616 291253 988360
617 268286 993368
618 297663 267608
619 389469 884012
620 351372 438608
621 278561 309599
622 265361 991147
623 153298 259762
624 455484 802408
625 154080 282536
626 880321 392521
627 149630 822027
628 332409 884439
629 245720 318863
630 254040 975687
631 89597 171528
632 516409 781577
633 78268 170367
634 246138 371874
635 6149 113394
636 286622 840163
637 341006 880779
638 419756 966587
639 444595 973589
640 480015 994477
641 144465 240880
642 139695 232717
643 500425 790739
644 277768 991815
645 439725 1006098
646 396492 1012841
647 270931 1001212
648 298916 324416
649 325082 848418
650 134694 757004
651 19025 429620
652 54444 448121
653 358003 823512
654 4929 462709
655 -12530 454373
656 889235 367749
657 307147 903877
658 137829 854545
659 812220 400509
660 357991 406929
661 23458 164236
662 278877 982550
663 294228 991004
664 3956 155584
665 368014 371991
666 452891 793755
667 17347 177818
668 512821 763895
669 413371 983735
670 306422 838639
671 495241 796331
672 52309 392359
673 475411 989660
674 6698 444913
675 466070 767568
676 407874 1011619
677 906468 391561
678 265496 887174
679 48821 177085
680 301227 417918
681 154763 282254
682 279969 995323
683 323127 408948
684 447121 1016329
685 824651 358928
686 345511 350481
687 8230 415364
688 496291 817094
689 -42181 384310
690 444166 1009644
691 304622 340692
692 299065 968900
693 378193 396370
694 266776 281825
695 137875 838599
696 330559 344986
697 11324 168787
698 363595 851697
699 195723 229344
700 283279 979860
701 19479 405482
702 289991 849911
703 332945 872102
704 167312 771745
705 859603 328142
706 31715 419862
707 323257 384726
708 380267 1035728
709 384322 842264
710 330724 854391
711 385137 992219
712 280389 316234
713 26346 427149
714 132922 854350
715 286627 946617
716 433028 1043330
717 174879 816707
718 85160 817121
719 858611 468753
720 420837 1010486
721 416563 990849
722 255147 1025500
723 111127 850079
724 422914 1041724
725 513150 858020
726 350687 849605
727 64050 422194
728 218493 310228
729 192665 247602
730 861146 392289
731 519253 771346
732 468641 797943
733 142195 257142
734 139770 879201
735 500566 770345
736 164732 267833
737 17580 189309
738 275068 337158
739 863914 425685
740 239509 959983
741 458849 949870
742 -11298 169744
743 115567 840095
744 240717 939806
745 348097 829408
746 148608 247135
747 511075 808243
748 32910 141650
749 30952 440856
750 352096 366618
751 417277 970521
752 18304 155288
753 42433 235699
754 93111 141963
755 356770 845590
756 362286 840585
757 189463 227327
758 819618 420091
759 184363 300876
760 300506 384947
761 322966 343913
762 858102 381289
763 209392 304050
764 443697 954738
765 41644 168102
766 156518 264722
767 320886 848463
768 281480 906193
769 333211 438711
770 355379 887262
771 899705 428914
772 349388 808434
773 486502 787148
774 839343 372889
775 322847 379995
776 259648 296908
777 475284 823118
778 319990 957657
779 216763 991147
780 100277 211077
781 -6049 173951
782 868716 394305
783 460293 989513
784 820911 444967
785 473408 816747
786 96124 802473
787 322463 370727
788 892338 373350
789 312369 339991
790 351421 438469
791 323070 381981
792 129978 275803
793 349770 898479
794 230052 320776
795 279831 358935
796 348202 803071
797 421204 976495
798 875277 426282
799 6831 451441
800 458153 1005761
801 361672 825730
802 462855 833824
803 862311 406576
804 187903 246225
805 48816 182868
806 83821 793033
807 25467 205085
808 28216 169536
809 350070 800514
810 2966 366518
811 146018 189199
812 445240 913694
813 240913 265650
814 362557 843660
815 372429 791709
816 44308 370319
817 330490 806226
818 84574 828794
819 492345 813987
820 470382 796858
821 -17293 491370
822 259697 966188
823 156128 741953
824 89157 853410
825 325949 367548
826 458997 819877
827 75376 161666
828 513825 777517
829 248150 965558
830 179569 261066
831 76766 835985
832 163667 230904
833 -22855 116004
834 96668 163611
835 362241 401296
836 381470 335923
837 486585 984368
838 238140 1010233
839 286235 914151
840 448580 1007297
841 340949 428996
842 911058 442345
843 233043 328718
844 505635 816919
845 248895 276006
846 306621 325227
847 160107 818547
848 332317 401794
849 183411 276589
850 58219 203500
851 487897 846144
852 919693 369889
853 1678 422798
854 879605 383305
855 391667 1041034
856 322999 869027
857 469521 990819
858 124276 847573
859 470324 971337
860 268253 937850
861 348478 902420
862 29348 435785
863 376640 402574
864 199917 270452
865 234480 256007
866 297016 261279
867 263112 321884
868 59886 400022
869 309486 464187
870 50052 183300
871 305618 375723
872 337522 851813
873 192348 264279
874 39369 145130
875 286135 968861
876 460863 976651
877 160797 276738
878 -6650 393946
879 379147 825286
880 -14030 449876
881 884172 369980
882 345358 386695
883 163879 836235
884 182839 345130
885 519502 754651
886 276594 1037931
887 462183 810769
888 205183 250594
889 222103 288735
890 30940 138986
891 51820 171428
892 868005 347296
893 446251 814925
894 259767 338730
895 216636 297159
896 345611 413654
897 235951 264752
898 901910 436446
899 16165 173568
900 146756 256103
901 439722 1000826
902 887880 399762
903 347004 974228
904 145966 283231
905 318584 408562
906 231493 386149
907 320841 385000
908 7869 405381
909 49141 164722
910 405585 841010
911 891886 411599
912 126692 257789
913 43823 384113
914 -1573 174811
915 39455 439475
916 888968 411949
917 430912 1007428
918 192800 272104
919 375505 854116
920 906900 376304
921 133468 211622
922 314415 335434
923 8858 177622
924 898795 374133
925 63259 166107
926 303341 410294
927 122016 229193
928 334668 410807
929 413742 955929
930 905751 384003
931 343134 855121
932 335201 965123
933 349933 398895
934 457788 815078
935 479153 802183
936 253504 944779
937 226027 372403
938 320371 354020
939 854936 415884
940 26453 228987
941 60045 185273
942 22546 128885
943 212107 366903
944 500838 769215
945 291662 357503
946 431153 992902
947 427180 999229
948 43262 438068
949 -5425 151805
950 443819 982348
951 367354 882159
952 140562 835804
953 366757 334998
954 34241 401573
955 109026 826606
956 394502 830081
957 516000 807548
958 1041 452677
959 44400 412141
960 420445 791530
961 492005 984946
962 -15573 417904
963 8563 147427
964 491837 766700
965 467626 992741
966 127643 840483
967 46320 825523
968 121838 834320
969 -6997 179749
970 462425 973059
971 185375 313114
972 277736 414867
973 -37987 444084
974 133503 858965
975 223915 912339
976 230558 287005
977 277966 299482
978 238377 996660
979 189252 216681
980 154563 243391
981 486645 986619
982 841009 366115
983 506863 1014938
984 340777 404581
985 41852 113276
986 8965 205231
987 945015 436984
988 59735 141514
989 -8359 465443
990 17150 172305
991 366173 836711
992 319862 263208
993 490158 836666
994 841780 395014
995 481590 814499
996 323218 832758
997 -64 159191
998 20842 183059
999 31193 438962
1000 459889 1006462
1001 315038 395040
1002 281567 480476
1003 87180 798319
1004 335723 405589
1005 314723 989760
1006 66730 173805
1007 140287 248440
1008 153289 230727
1009 103438 838939
1010 48877 198953
1011 511089 788831
1012 507816 779768
1013 287454 361387
1014 350491 893397
1015 33682 442735
1016 376634 412463
1017 18995 395922
1018 204222 330062
1019 228525 306191
1020 339728 359809
1021 22024 129773
1022 253094 313825
1023 375028 835615
1024 178022 289748
1025 176795 279486
1026 -33389 445077
1027 344239 350982
1028 179937 261247
1029 922197 381588
1030 47986 441682
1031 383344 853280
1032 159408 809190
1033 505265 777535
1034 342047 852399
1035 165838 230215
1036 -239 215858
1037 484277 801639
1038 232707 307004
1039 284650 954744
1040 230344 299475
1041 7850 190385
1042 116406 764376
1043 168492 771339
1044 259191 874066
1045 423544 807216
1046 408509 387269
1047 174198 257131
1048 17145 457972
1049 15115 404297
1050 468069 834224
1051 537984 818796
1052 217246 1024733
1053 346270 876035
1054 282631 949915
1055 118559 815294
1056 462186 773160
1057 415362 990887
1058 17279 425621
1059 344696 409467
1060 125890 836693
1061 291660 973202
1062 540601 781752
1063 10978 469750
1064 301711 958451
1065 828922 385744
1066 459593 793525
1067 309542 875541
1068 902781 430897
1069 490162 813260
1070 289939 310454
1071 123280 328618
1072 443798 806419
1073 258572 962998
1074 429976 946696
1075 106776 795220
1076 359572 821350
1077 297163 377093
1078 41940 438703
1079 255179 992234
1080 114074 850520
1081 135362 838481
1082 499045 972994
1083 495545 778576
1084 236199 282226
1085 177056 335647
1086 -3428 411193
1087 283297 296016
1088 154575 823818
1089 22527 425388
1090 143563 278982
1091 483247 803522
1092 272643 974100
1093 38554 425399
1094 518416 743231
1095 129627 881052
1096 496695 911214
1097 294713 301958
1098 314731 874840
1099 289410 420676
1100 17352 441824
